# vtk DataFile Version 1.0 
Bar_TO_3D 
ASCII 
DATASET UNSTRUCTURED_GRID 
POINTS 6601 float 
0.000000 0.000000 
0.000000 0.000000 1.000000 
0.000000 0.000000 2.000000 
0.000000 0.000000 3.000000 
0.000000 0.000000 4.000000 
0.000000 0.000000 5.000000 
0.000000 0.000000 6.000000 
0.000000 0.000000 7.000000 
0.000000 0.000000 8.000000 
0.000000 0.000000 9.000000 
0.000000 0.000000 10.000000 
0.000000 0.000000 11.000000 
0.000000 0.000000 12.000000 
0.000000 0.000000 13.000000 
0.000000 0.000000 14.000000 
0.000000 0.000000 15.000000 
0.000000 0.000000 16.000000 
0.000000 0.000000 17.000000 
0.000000 0.000000 18.000000 
0.000000 0.000000 19.000000 
0.000000 0.000000 20.000000 
0.000000 0.000000 21.000000 
0.000000 0.000000 22.000000 
0.000000 0.000000 23.000000 
0.000000 0.000000 24.000000 
0.000000 0.000000 25.000000 
0.000000 0.000000 26.000000 
0.000000 0.000000 27.000000 
0.000000 0.000000 28.000000 
0.000000 0.000000 29.000000 
0.000000 0.000000 30.000000 
0.000000 0.000000 31.000000 
0.000000 0.000000 32.000000 
0.000000 0.000000 33.000000 
0.000000 0.000000 34.000000 
0.000000 0.000000 35.000000 
0.000000 0.000000 36.000000 
0.000000 0.000000 37.000000 
0.000000 0.000000 38.000000 
0.000000 0.000000 39.000000 
0.000000 0.000000 40.000000 
0.000000 0.000000 41.000000 
0.000000 0.000000 42.000000 
0.000000 0.000000 43.000000 
0.000000 0.000000 44.000000 
0.000000 0.000000 45.000000 
0.000000 0.000000 46.000000 
0.000000 0.000000 47.000000 
0.000000 0.000000 48.000000 
0.000000 0.000000 49.000000 
0.000000 0.000000 50.000000 
0.000000 0.000000 51.000000 
0.000000 0.000000 52.000000 
0.000000 0.000000 53.000000 
0.000000 0.000000 54.000000 
0.000000 0.000000 55.000000 
0.000000 0.000000 56.000000 
0.000000 0.000000 57.000000 
0.000000 0.000000 58.000000 
0.000000 0.000000 59.000000 
0.000000 0.000000 60.000000 
0.000000 0.000000 61.000000 
0.000000 0.000000 62.000000 
0.000000 0.000000 63.000000 
0.000000 0.000000 64.000000 
0.000000 0.000000 65.000000 
0.000000 0.000000 66.000000 
0.000000 0.000000 67.000000 
0.000000 0.000000 68.000000 
0.000000 0.000000 69.000000 
0.000000 0.000000 70.000000 
0.000000 0.000000 71.000000 
0.000000 0.000000 72.000000 
0.000000 0.000000 73.000000 
0.000000 0.000000 74.000000 
0.000000 0.000000 75.000000 
0.000000 0.000000 76.000000 
0.000000 0.000000 77.000000 
0.000000 0.000000 78.000000 
0.000000 0.000000 79.000000 
0.000000 0.000000 80.000000 
0.000000 0.000000 81.000000 
0.000000 0.000000 82.000000 
0.000000 0.000000 83.000000 
0.000000 0.000000 84.000000 
0.000000 0.000000 85.000000 
0.000000 0.000000 86.000000 
0.000000 0.000000 87.000000 
0.000000 0.000000 88.000000 
0.000000 0.000000 89.000000 
0.000000 0.000000 90.000000 
0.000000 0.000000 91.000000 
0.000000 0.000000 92.000000 
0.000000 0.000000 93.000000 
0.000000 0.000000 94.000000 
0.000000 0.000000 95.000000 
0.000000 0.000000 96.000000 
0.000000 0.000000 97.000000 
0.000000 0.000000 98.000000 
0.000000 0.000000 99.000000 
0.000000 0.000000 100.000000 
0.000000 1.000000 0.000000 
0.000000 1.000000 1.000000 
0.000000 1.000000 2.000000 
0.000000 1.000000 3.000000 
0.000000 1.000000 4.000000 
0.000000 1.000000 5.000000 
0.000000 1.000000 6.000000 
0.000000 1.000000 7.000000 
0.000000 1.000000 8.000000 
0.000000 1.000000 9.000000 
0.000000 1.000000 10.000000 
0.000000 1.000000 11.000000 
0.000000 1.000000 12.000000 
0.000000 1.000000 13.000000 
0.000000 1.000000 14.000000 
0.000000 1.000000 15.000000 
0.000000 1.000000 16.000000 
0.000000 1.000000 17.000000 
0.000000 1.000000 18.000000 
0.000000 1.000000 19.000000 
0.000000 1.000000 20.000000 
0.000000 1.000000 21.000000 
0.000000 1.000000 22.000000 
0.000000 1.000000 23.000000 
0.000000 1.000000 24.000000 
0.000000 1.000000 25.000000 
0.000000 1.000000 26.000000 
0.000000 1.000000 27.000000 
0.000000 1.000000 28.000000 
0.000000 1.000000 29.000000 
0.000000 1.000000 30.000000 
0.000000 1.000000 31.000000 
0.000000 1.000000 32.000000 
0.000000 1.000000 33.000000 
0.000000 1.000000 34.000000 
0.000000 1.000000 35.000000 
0.000000 1.000000 36.000000 
0.000000 1.000000 37.000000 
0.000000 1.000000 38.000000 
0.000000 1.000000 39.000000 
0.000000 1.000000 40.000000 
0.000000 1.000000 41.000000 
0.000000 1.000000 42.000000 
0.000000 1.000000 43.000000 
0.000000 1.000000 44.000000 
0.000000 1.000000 45.000000 
0.000000 1.000000 46.000000 
0.000000 1.000000 47.000000 
0.000000 1.000000 48.000000 
0.000000 1.000000 49.000000 
0.000000 1.000000 50.000000 
0.000000 1.000000 51.000000 
0.000000 1.000000 52.000000 
0.000000 1.000000 53.000000 
0.000000 1.000000 54.000000 
0.000000 1.000000 55.000000 
0.000000 1.000000 56.000000 
0.000000 1.000000 57.000000 
0.000000 1.000000 58.000000 
0.000000 1.000000 59.000000 
0.000000 1.000000 60.000000 
0.000000 1.000000 61.000000 
0.000000 1.000000 62.000000 
0.000000 1.000000 63.000000 
0.000000 1.000000 64.000000 
0.000000 1.000000 65.000000 
0.000000 1.000000 66.000000 
0.000000 1.000000 67.000000 
0.000000 1.000000 68.000000 
0.000000 1.000000 69.000000 
0.000000 1.000000 70.000000 
0.000000 1.000000 71.000000 
0.000000 1.000000 72.000000 
0.000000 1.000000 73.000000 
0.000000 1.000000 74.000000 
0.000000 1.000000 75.000000 
0.000000 1.000000 76.000000 
0.000000 1.000000 77.000000 
0.000000 1.000000 78.000000 
0.000000 1.000000 79.000000 
0.000000 1.000000 80.000000 
0.000000 1.000000 81.000000 
0.000000 1.000000 82.000000 
0.000000 1.000000 83.000000 
0.000000 1.000000 84.000000 
0.000000 1.000000 85.000000 
0.000000 1.000000 86.000000 
0.000000 1.000000 87.000000 
0.000000 1.000000 88.000000 
0.000000 1.000000 89.000000 
0.000000 1.000000 90.000000 
0.000000 1.000000 91.000000 
0.000000 1.000000 92.000000 
0.000000 1.000000 93.000000 
0.000000 1.000000 94.000000 
0.000000 1.000000 95.000000 
0.000000 1.000000 96.000000 
0.000000 1.000000 97.000000 
0.000000 1.000000 98.000000 
0.000000 1.000000 99.000000 
0.000000 1.000000 100.000000 
0.000000 2.000000 0.000000 
0.000000 2.000000 1.000000 
0.000000 2.000000 2.000000 
0.000000 2.000000 3.000000 
0.000000 2.000000 4.000000 
0.000000 2.000000 5.000000 
0.000000 2.000000 6.000000 
0.000000 2.000000 7.000000 
0.000000 2.000000 8.000000 
0.000000 2.000000 9.000000 
0.000000 2.000000 10.000000 
0.000000 2.000000 11.000000 
0.000000 2.000000 12.000000 
0.000000 2.000000 13.000000 
0.000000 2.000000 14.000000 
0.000000 2.000000 15.000000 
0.000000 2.000000 16.000000 
0.000000 2.000000 17.000000 
0.000000 2.000000 18.000000 
0.000000 2.000000 19.000000 
0.000000 2.000000 20.000000 
0.000000 2.000000 21.000000 
0.000000 2.000000 22.000000 
0.000000 2.000000 23.000000 
0.000000 2.000000 24.000000 
0.000000 2.000000 25.000000 
0.000000 2.000000 26.000000 
0.000000 2.000000 27.000000 
0.000000 2.000000 28.000000 
0.000000 2.000000 29.000000 
0.000000 2.000000 30.000000 
0.000000 2.000000 31.000000 
0.000000 2.000000 32.000000 
0.000000 2.000000 33.000000 
0.000000 2.000000 34.000000 
0.000000 2.000000 35.000000 
0.000000 2.000000 36.000000 
0.000000 2.000000 37.000000 
0.000000 2.000000 38.000000 
0.000000 2.000000 39.000000 
0.000000 2.000000 40.000000 
0.000000 2.000000 41.000000 
0.000000 2.000000 42.000000 
0.000000 2.000000 43.000000 
0.000000 2.000000 44.000000 
0.000000 2.000000 45.000000 
0.000000 2.000000 46.000000 
0.000000 2.000000 47.000000 
0.000000 2.000000 48.000000 
0.000000 2.000000 49.000000 
0.000000 2.000000 50.000000 
0.000000 2.000000 51.000000 
0.000000 2.000000 52.000000 
0.000000 2.000000 53.000000 
0.000000 2.000000 54.000000 
0.000000 2.000000 55.000000 
0.000000 2.000000 56.000000 
0.000000 2.000000 57.000000 
0.000000 2.000000 58.000000 
0.000000 2.000000 59.000000 
0.000000 2.000000 60.000000 
0.000000 2.000000 61.000000 
0.000000 2.000000 62.000000 
0.000000 2.000000 63.000000 
0.000000 2.000000 64.000000 
0.000000 2.000000 65.000000 
0.000000 2.000000 66.000000 
0.000000 2.000000 67.000000 
0.000000 2.000000 68.000000 
0.000000 2.000000 69.000000 
0.000000 2.000000 70.000000 
0.000000 2.000000 71.000000 
0.000000 2.000000 72.000000 
0.000000 2.000000 73.000000 
0.000000 2.000000 74.000000 
0.000000 2.000000 75.000000 
0.000000 2.000000 76.000000 
0.000000 2.000000 77.000000 
0.000000 2.000000 78.000000 
0.000000 2.000000 79.000000 
0.000000 2.000000 80.000000 
0.000000 2.000000 81.000000 
0.000000 2.000000 82.000000 
0.000000 2.000000 83.000000 
0.000000 2.000000 84.000000 
0.000000 2.000000 85.000000 
0.000000 2.000000 86.000000 
0.000000 2.000000 87.000000 
0.000000 2.000000 88.000000 
0.000000 2.000000 89.000000 
0.000000 2.000000 90.000000 
0.000000 2.000000 91.000000 
0.000000 2.000000 92.000000 
0.000000 2.000000 93.000000 
0.000000 2.000000 94.000000 
0.000000 2.000000 95.000000 
0.000000 2.000000 96.000000 
0.000000 2.000000 97.000000 
0.000000 2.000000 98.000000 
0.000000 2.000000 99.000000 
0.000000 2.000000 100.000000 
0.000000 3.000000 0.000000 
0.000000 3.000000 1.000000 
0.000000 3.000000 2.000000 
0.000000 3.000000 3.000000 
0.000000 3.000000 4.000000 
0.000000 3.000000 5.000000 
0.000000 3.000000 6.000000 
0.000000 3.000000 7.000000 
0.000000 3.000000 8.000000 
0.000000 3.000000 9.000000 
0.000000 3.000000 10.000000 
0.000000 3.000000 11.000000 
0.000000 3.000000 12.000000 
0.000000 3.000000 13.000000 
0.000000 3.000000 14.000000 
0.000000 3.000000 15.000000 
0.000000 3.000000 16.000000 
0.000000 3.000000 17.000000 
0.000000 3.000000 18.000000 
0.000000 3.000000 19.000000 
0.000000 3.000000 20.000000 
0.000000 3.000000 21.000000 
0.000000 3.000000 22.000000 
0.000000 3.000000 23.000000 
0.000000 3.000000 24.000000 
0.000000 3.000000 25.000000 
0.000000 3.000000 26.000000 
0.000000 3.000000 27.000000 
0.000000 3.000000 28.000000 
0.000000 3.000000 29.000000 
0.000000 3.000000 30.000000 
0.000000 3.000000 31.000000 
0.000000 3.000000 32.000000 
0.000000 3.000000 33.000000 
0.000000 3.000000 34.000000 
0.000000 3.000000 35.000000 
0.000000 3.000000 36.000000 
0.000000 3.000000 37.000000 
0.000000 3.000000 38.000000 
0.000000 3.000000 39.000000 
0.000000 3.000000 40.000000 
0.000000 3.000000 41.000000 
0.000000 3.000000 42.000000 
0.000000 3.000000 43.000000 
0.000000 3.000000 44.000000 
0.000000 3.000000 45.000000 
0.000000 3.000000 46.000000 
0.000000 3.000000 47.000000 
0.000000 3.000000 48.000000 
0.000000 3.000000 49.000000 
0.000000 3.000000 50.000000 
0.000000 3.000000 51.000000 
0.000000 3.000000 52.000000 
0.000000 3.000000 53.000000 
0.000000 3.000000 54.000000 
0.000000 3.000000 55.000000 
0.000000 3.000000 56.000000 
0.000000 3.000000 57.000000 
0.000000 3.000000 58.000000 
0.000000 3.000000 59.000000 
0.000000 3.000000 60.000000 
0.000000 3.000000 61.000000 
0.000000 3.000000 62.000000 
0.000000 3.000000 63.000000 
0.000000 3.000000 64.000000 
0.000000 3.000000 65.000000 
0.000000 3.000000 66.000000 
0.000000 3.000000 67.000000 
0.000000 3.000000 68.000000 
0.000000 3.000000 69.000000 
0.000000 3.000000 70.000000 
0.000000 3.000000 71.000000 
0.000000 3.000000 72.000000 
0.000000 3.000000 73.000000 
0.000000 3.000000 74.000000 
0.000000 3.000000 75.000000 
0.000000 3.000000 76.000000 
0.000000 3.000000 77.000000 
0.000000 3.000000 78.000000 
0.000000 3.000000 79.000000 
0.000000 3.000000 80.000000 
0.000000 3.000000 81.000000 
0.000000 3.000000 82.000000 
0.000000 3.000000 83.000000 
0.000000 3.000000 84.000000 
0.000000 3.000000 85.000000 
0.000000 3.000000 86.000000 
0.000000 3.000000 87.000000 
0.000000 3.000000 88.000000 
0.000000 3.000000 89.000000 
0.000000 3.000000 90.000000 
0.000000 3.000000 91.000000 
0.000000 3.000000 92.000000 
0.000000 3.000000 93.000000 
0.000000 3.000000 94.000000 
0.000000 3.000000 95.000000 
0.000000 3.000000 96.000000 
0.000000 3.000000 97.000000 
0.000000 3.000000 98.000000 
0.000000 3.000000 99.000000 
0.000000 3.000000 100.000000 
0.000000 4.000000 0.000000 
0.000000 4.000000 1.000000 
0.000000 4.000000 2.000000 
0.000000 4.000000 3.000000 
0.000000 4.000000 4.000000 
0.000000 4.000000 5.000000 
0.000000 4.000000 6.000000 
0.000000 4.000000 7.000000 
0.000000 4.000000 8.000000 
0.000000 4.000000 9.000000 
0.000000 4.000000 10.000000 
0.000000 4.000000 11.000000 
0.000000 4.000000 12.000000 
0.000000 4.000000 13.000000 
0.000000 4.000000 14.000000 
0.000000 4.000000 15.000000 
0.000000 4.000000 16.000000 
0.000000 4.000000 17.000000 
0.000000 4.000000 18.000000 
0.000000 4.000000 19.000000 
0.000000 4.000000 20.000000 
0.000000 4.000000 21.000000 
0.000000 4.000000 22.000000 
0.000000 4.000000 23.000000 
0.000000 4.000000 24.000000 
0.000000 4.000000 25.000000 
0.000000 4.000000 26.000000 
0.000000 4.000000 27.000000 
0.000000 4.000000 28.000000 
0.000000 4.000000 29.000000 
0.000000 4.000000 30.000000 
0.000000 4.000000 31.000000 
0.000000 4.000000 32.000000 
0.000000 4.000000 33.000000 
0.000000 4.000000 34.000000 
0.000000 4.000000 35.000000 
0.000000 4.000000 36.000000 
0.000000 4.000000 37.000000 
0.000000 4.000000 38.000000 
0.000000 4.000000 39.000000 
0.000000 4.000000 40.000000 
0.000000 4.000000 41.000000 
0.000000 4.000000 42.000000 
0.000000 4.000000 43.000000 
0.000000 4.000000 44.000000 
0.000000 4.000000 45.000000 
0.000000 4.000000 46.000000 
0.000000 4.000000 47.000000 
0.000000 4.000000 48.000000 
0.000000 4.000000 49.000000 
0.000000 4.000000 50.000000 
0.000000 4.000000 51.000000 
0.000000 4.000000 52.000000 
0.000000 4.000000 53.000000 
0.000000 4.000000 54.000000 
0.000000 4.000000 55.000000 
0.000000 4.000000 56.000000 
0.000000 4.000000 57.000000 
0.000000 4.000000 58.000000 
0.000000 4.000000 59.000000 
0.000000 4.000000 60.000000 
0.000000 4.000000 61.000000 
0.000000 4.000000 62.000000 
0.000000 4.000000 63.000000 
0.000000 4.000000 64.000000 
0.000000 4.000000 65.000000 
0.000000 4.000000 66.000000 
0.000000 4.000000 67.000000 
0.000000 4.000000 68.000000 
0.000000 4.000000 69.000000 
0.000000 4.000000 70.000000 
0.000000 4.000000 71.000000 
0.000000 4.000000 72.000000 
0.000000 4.000000 73.000000 
0.000000 4.000000 74.000000 
0.000000 4.000000 75.000000 
0.000000 4.000000 76.000000 
0.000000 4.000000 77.000000 
0.000000 4.000000 78.000000 
0.000000 4.000000 79.000000 
0.000000 4.000000 80.000000 
0.000000 4.000000 81.000000 
0.000000 4.000000 82.000000 
0.000000 4.000000 83.000000 
0.000000 4.000000 84.000000 
0.000000 4.000000 85.000000 
0.000000 4.000000 86.000000 
0.000000 4.000000 87.000000 
0.000000 4.000000 88.000000 
0.000000 4.000000 89.000000 
0.000000 4.000000 90.000000 
0.000000 4.000000 91.000000 
0.000000 4.000000 92.000000 
0.000000 4.000000 93.000000 
0.000000 4.000000 94.000000 
0.000000 4.000000 95.000000 
0.000000 4.000000 96.000000 
0.000000 4.000000 97.000000 
0.000000 4.000000 98.000000 
0.000000 4.000000 99.000000 
0.000000 4.000000 100.000000 
0.000000 5.000000 0.000000 
0.000000 5.000000 1.000000 
0.000000 5.000000 2.000000 
0.000000 5.000000 3.000000 
0.000000 5.000000 4.000000 
0.000000 5.000000 5.000000 
0.000000 5.000000 6.000000 
0.000000 5.000000 7.000000 
0.000000 5.000000 8.000000 
0.000000 5.000000 9.000000 
0.000000 5.000000 10.000000 
0.000000 5.000000 11.000000 
0.000000 5.000000 12.000000 
0.000000 5.000000 13.000000 
0.000000 5.000000 14.000000 
0.000000 5.000000 15.000000 
0.000000 5.000000 16.000000 
0.000000 5.000000 17.000000 
0.000000 5.000000 18.000000 
0.000000 5.000000 19.000000 
0.000000 5.000000 20.000000 
0.000000 5.000000 21.000000 
0.000000 5.000000 22.000000 
0.000000 5.000000 23.000000 
0.000000 5.000000 24.000000 
0.000000 5.000000 25.000000 
0.000000 5.000000 26.000000 
0.000000 5.000000 27.000000 
0.000000 5.000000 28.000000 
0.000000 5.000000 29.000000 
0.000000 5.000000 30.000000 
0.000000 5.000000 31.000000 
0.000000 5.000000 32.000000 
0.000000 5.000000 33.000000 
0.000000 5.000000 34.000000 
0.000000 5.000000 35.000000 
0.000000 5.000000 36.000000 
0.000000 5.000000 37.000000 
0.000000 5.000000 38.000000 
0.000000 5.000000 39.000000 
0.000000 5.000000 40.000000 
0.000000 5.000000 41.000000 
0.000000 5.000000 42.000000 
0.000000 5.000000 43.000000 
0.000000 5.000000 44.000000 
0.000000 5.000000 45.000000 
0.000000 5.000000 46.000000 
0.000000 5.000000 47.000000 
0.000000 5.000000 48.000000 
0.000000 5.000000 49.000000 
0.000000 5.000000 50.000000 
0.000000 5.000000 51.000000 
0.000000 5.000000 52.000000 
0.000000 5.000000 53.000000 
0.000000 5.000000 54.000000 
0.000000 5.000000 55.000000 
0.000000 5.000000 56.000000 
0.000000 5.000000 57.000000 
0.000000 5.000000 58.000000 
0.000000 5.000000 59.000000 
0.000000 5.000000 60.000000 
0.000000 5.000000 61.000000 
0.000000 5.000000 62.000000 
0.000000 5.000000 63.000000 
0.000000 5.000000 64.000000 
0.000000 5.000000 65.000000 
0.000000 5.000000 66.000000 
0.000000 5.000000 67.000000 
0.000000 5.000000 68.000000 
0.000000 5.000000 69.000000 
0.000000 5.000000 70.000000 
0.000000 5.000000 71.000000 
0.000000 5.000000 72.000000 
0.000000 5.000000 73.000000 
0.000000 5.000000 74.000000 
0.000000 5.000000 75.000000 
0.000000 5.000000 76.000000 
0.000000 5.000000 77.000000 
0.000000 5.000000 78.000000 
0.000000 5.000000 79.000000 
0.000000 5.000000 80.000000 
0.000000 5.000000 81.000000 
0.000000 5.000000 82.000000 
0.000000 5.000000 83.000000 
0.000000 5.000000 84.000000 
0.000000 5.000000 85.000000 
0.000000 5.000000 86.000000 
0.000000 5.000000 87.000000 
0.000000 5.000000 88.000000 
0.000000 5.000000 89.000000 
0.000000 5.000000 90.000000 
0.000000 5.000000 91.000000 
0.000000 5.000000 92.000000 
0.000000 5.000000 93.000000 
0.000000 5.000000 94.000000 
0.000000 5.000000 95.000000 
0.000000 5.000000 96.000000 
0.000000 5.000000 97.000000 
0.000000 5.000000 98.000000 
0.000000 5.000000 99.000000 
0.000000 5.000000 100.000000 
0.000000 6.000000 0.000000 
0.000000 6.000000 1.000000 
0.000000 6.000000 2.000000 
0.000000 6.000000 3.000000 
0.000000 6.000000 4.000000 
0.000000 6.000000 5.000000 
0.000000 6.000000 6.000000 
0.000000 6.000000 7.000000 
0.000000 6.000000 8.000000 
0.000000 6.000000 9.000000 
0.000000 6.000000 10.000000 
0.000000 6.000000 11.000000 
0.000000 6.000000 12.000000 
0.000000 6.000000 13.000000 
0.000000 6.000000 14.000000 
0.000000 6.000000 15.000000 
0.000000 6.000000 16.000000 
0.000000 6.000000 17.000000 
0.000000 6.000000 18.000000 
0.000000 6.000000 19.000000 
0.000000 6.000000 20.000000 
0.000000 6.000000 21.000000 
0.000000 6.000000 22.000000 
0.000000 6.000000 23.000000 
0.000000 6.000000 24.000000 
0.000000 6.000000 25.000000 
0.000000 6.000000 26.000000 
0.000000 6.000000 27.000000 
0.000000 6.000000 28.000000 
0.000000 6.000000 29.000000 
0.000000 6.000000 30.000000 
0.000000 6.000000 31.000000 
0.000000 6.000000 32.000000 
0.000000 6.000000 33.000000 
0.000000 6.000000 34.000000 
0.000000 6.000000 35.000000 
0.000000 6.000000 36.000000 
0.000000 6.000000 37.000000 
0.000000 6.000000 38.000000 
0.000000 6.000000 39.000000 
0.000000 6.000000 40.000000 
0.000000 6.000000 41.000000 
0.000000 6.000000 42.000000 
0.000000 6.000000 43.000000 
0.000000 6.000000 44.000000 
0.000000 6.000000 45.000000 
0.000000 6.000000 46.000000 
0.000000 6.000000 47.000000 
0.000000 6.000000 48.000000 
0.000000 6.000000 49.000000 
0.000000 6.000000 50.000000 
0.000000 6.000000 51.000000 
0.000000 6.000000 52.000000 
0.000000 6.000000 53.000000 
0.000000 6.000000 54.000000 
0.000000 6.000000 55.000000 
0.000000 6.000000 56.000000 
0.000000 6.000000 57.000000 
0.000000 6.000000 58.000000 
0.000000 6.000000 59.000000 
0.000000 6.000000 60.000000 
0.000000 6.000000 61.000000 
0.000000 6.000000 62.000000 
0.000000 6.000000 63.000000 
0.000000 6.000000 64.000000 
0.000000 6.000000 65.000000 
0.000000 6.000000 66.000000 
0.000000 6.000000 67.000000 
0.000000 6.000000 68.000000 
0.000000 6.000000 69.000000 
0.000000 6.000000 70.000000 
0.000000 6.000000 71.000000 
0.000000 6.000000 72.000000 
0.000000 6.000000 73.000000 
0.000000 6.000000 74.000000 
0.000000 6.000000 75.000000 
0.000000 6.000000 76.000000 
0.000000 6.000000 77.000000 
0.000000 6.000000 78.000000 
0.000000 6.000000 79.000000 
0.000000 6.000000 80.000000 
0.000000 6.000000 81.000000 
0.000000 6.000000 82.000000 
0.000000 6.000000 83.000000 
0.000000 6.000000 84.000000 
0.000000 6.000000 85.000000 
0.000000 6.000000 86.000000 
0.000000 6.000000 87.000000 
0.000000 6.000000 88.000000 
0.000000 6.000000 89.000000 
0.000000 6.000000 90.000000 
0.000000 6.000000 91.000000 
0.000000 6.000000 92.000000 
0.000000 6.000000 93.000000 
0.000000 6.000000 94.000000 
0.000000 6.000000 95.000000 
0.000000 6.000000 96.000000 
0.000000 6.000000 97.000000 
0.000000 6.000000 98.000000 
0.000000 6.000000 99.000000 
0.000000 6.000000 100.000000 
0.000000 7.000000 0.000000 
0.000000 7.000000 1.000000 
0.000000 7.000000 2.000000 
0.000000 7.000000 3.000000 
0.000000 7.000000 4.000000 
0.000000 7.000000 5.000000 
0.000000 7.000000 6.000000 
0.000000 7.000000 7.000000 
0.000000 7.000000 8.000000 
0.000000 7.000000 9.000000 
0.000000 7.000000 10.000000 
0.000000 7.000000 11.000000 
0.000000 7.000000 12.000000 
0.000000 7.000000 13.000000 
0.000000 7.000000 14.000000 
0.000000 7.000000 15.000000 
0.000000 7.000000 16.000000 
0.000000 7.000000 17.000000 
0.000000 7.000000 18.000000 
0.000000 7.000000 19.000000 
0.000000 7.000000 20.000000 
0.000000 7.000000 21.000000 
0.000000 7.000000 22.000000 
0.000000 7.000000 23.000000 
0.000000 7.000000 24.000000 
0.000000 7.000000 25.000000 
0.000000 7.000000 26.000000 
0.000000 7.000000 27.000000 
0.000000 7.000000 28.000000 
0.000000 7.000000 29.000000 
0.000000 7.000000 30.000000 
0.000000 7.000000 31.000000 
0.000000 7.000000 32.000000 
0.000000 7.000000 33.000000 
0.000000 7.000000 34.000000 
0.000000 7.000000 35.000000 
0.000000 7.000000 36.000000 
0.000000 7.000000 37.000000 
0.000000 7.000000 38.000000 
0.000000 7.000000 39.000000 
0.000000 7.000000 40.000000 
0.000000 7.000000 41.000000 
0.000000 7.000000 42.000000 
0.000000 7.000000 43.000000 
0.000000 7.000000 44.000000 
0.000000 7.000000 45.000000 
0.000000 7.000000 46.000000 
0.000000 7.000000 47.000000 
0.000000 7.000000 48.000000 
0.000000 7.000000 49.000000 
0.000000 7.000000 50.000000 
0.000000 7.000000 51.000000 
0.000000 7.000000 52.000000 
0.000000 7.000000 53.000000 
0.000000 7.000000 54.000000 
0.000000 7.000000 55.000000 
0.000000 7.000000 56.000000 
0.000000 7.000000 57.000000 
0.000000 7.000000 58.000000 
0.000000 7.000000 59.000000 
0.000000 7.000000 60.000000 
0.000000 7.000000 61.000000 
0.000000 7.000000 62.000000 
0.000000 7.000000 63.000000 
0.000000 7.000000 64.000000 
0.000000 7.000000 65.000000 
0.000000 7.000000 66.000000 
0.000000 7.000000 67.000000 
0.000000 7.000000 68.000000 
0.000000 7.000000 69.000000 
0.000000 7.000000 70.000000 
0.000000 7.000000 71.000000 
0.000000 7.000000 72.000000 
0.000000 7.000000 73.000000 
0.000000 7.000000 74.000000 
0.000000 7.000000 75.000000 
0.000000 7.000000 76.000000 
0.000000 7.000000 77.000000 
0.000000 7.000000 78.000000 
0.000000 7.000000 79.000000 
0.000000 7.000000 80.000000 
0.000000 7.000000 81.000000 
0.000000 7.000000 82.000000 
0.000000 7.000000 83.000000 
0.000000 7.000000 84.000000 
0.000000 7.000000 85.000000 
0.000000 7.000000 86.000000 
0.000000 7.000000 87.000000 
0.000000 7.000000 88.000000 
0.000000 7.000000 89.000000 
0.000000 7.000000 90.000000 
0.000000 7.000000 91.000000 
0.000000 7.000000 92.000000 
0.000000 7.000000 93.000000 
0.000000 7.000000 94.000000 
0.000000 7.000000 95.000000 
0.000000 7.000000 96.000000 
0.000000 7.000000 97.000000 
0.000000 7.000000 98.000000 
0.000000 7.000000 99.000000 
0.000000 7.000000 100.000000 
0.000000 8.000000 0.000000 
0.000000 8.000000 1.000000 
0.000000 8.000000 2.000000 
0.000000 8.000000 3.000000 
0.000000 8.000000 4.000000 
0.000000 8.000000 5.000000 
0.000000 8.000000 6.000000 
0.000000 8.000000 7.000000 
0.000000 8.000000 8.000000 
0.000000 8.000000 9.000000 
0.000000 8.000000 10.000000 
0.000000 8.000000 11.000000 
0.000000 8.000000 12.000000 
0.000000 8.000000 13.000000 
0.000000 8.000000 14.000000 
0.000000 8.000000 15.000000 
0.000000 8.000000 16.000000 
0.000000 8.000000 17.000000 
0.000000 8.000000 18.000000 
0.000000 8.000000 19.000000 
0.000000 8.000000 20.000000 
0.000000 8.000000 21.000000 
0.000000 8.000000 22.000000 
0.000000 8.000000 23.000000 
0.000000 8.000000 24.000000 
0.000000 8.000000 25.000000 
0.000000 8.000000 26.000000 
0.000000 8.000000 27.000000 
0.000000 8.000000 28.000000 
0.000000 8.000000 29.000000 
0.000000 8.000000 30.000000 
0.000000 8.000000 31.000000 
0.000000 8.000000 32.000000 
0.000000 8.000000 33.000000 
0.000000 8.000000 34.000000 
0.000000 8.000000 35.000000 
0.000000 8.000000 36.000000 
0.000000 8.000000 37.000000 
0.000000 8.000000 38.000000 
0.000000 8.000000 39.000000 
0.000000 8.000000 40.000000 
0.000000 8.000000 41.000000 
0.000000 8.000000 42.000000 
0.000000 8.000000 43.000000 
0.000000 8.000000 44.000000 
0.000000 8.000000 45.000000 
0.000000 8.000000 46.000000 
0.000000 8.000000 47.000000 
0.000000 8.000000 48.000000 
0.000000 8.000000 49.000000 
0.000000 8.000000 50.000000 
0.000000 8.000000 51.000000 
0.000000 8.000000 52.000000 
0.000000 8.000000 53.000000 
0.000000 8.000000 54.000000 
0.000000 8.000000 55.000000 
0.000000 8.000000 56.000000 
0.000000 8.000000 57.000000 
0.000000 8.000000 58.000000 
0.000000 8.000000 59.000000 
0.000000 8.000000 60.000000 
0.000000 8.000000 61.000000 
0.000000 8.000000 62.000000 
0.000000 8.000000 63.000000 
0.000000 8.000000 64.000000 
0.000000 8.000000 65.000000 
0.000000 8.000000 66.000000 
0.000000 8.000000 67.000000 
0.000000 8.000000 68.000000 
0.000000 8.000000 69.000000 
0.000000 8.000000 70.000000 
0.000000 8.000000 71.000000 
0.000000 8.000000 72.000000 
0.000000 8.000000 73.000000 
0.000000 8.000000 74.000000 
0.000000 8.000000 75.000000 
0.000000 8.000000 76.000000 
0.000000 8.000000 77.000000 
0.000000 8.000000 78.000000 
0.000000 8.000000 79.000000 
0.000000 8.000000 80.000000 
0.000000 8.000000 81.000000 
0.000000 8.000000 82.000000 
0.000000 8.000000 83.000000 
0.000000 8.000000 84.000000 
0.000000 8.000000 85.000000 
0.000000 8.000000 86.000000 
0.000000 8.000000 87.000000 
0.000000 8.000000 88.000000 
0.000000 8.000000 89.000000 
0.000000 8.000000 90.000000 
0.000000 8.000000 91.000000 
0.000000 8.000000 92.000000 
0.000000 8.000000 93.000000 
0.000000 8.000000 94.000000 
0.000000 8.000000 95.000000 
0.000000 8.000000 96.000000 
0.000000 8.000000 97.000000 
0.000000 8.000000 98.000000 
0.000000 8.000000 99.000000 
0.000000 8.000000 100.000000 
0.000000 9.000000 0.000000 
0.000000 9.000000 1.000000 
0.000000 9.000000 2.000000 
0.000000 9.000000 3.000000 
0.000000 9.000000 4.000000 
0.000000 9.000000 5.000000 
0.000000 9.000000 6.000000 
0.000000 9.000000 7.000000 
0.000000 9.000000 8.000000 
0.000000 9.000000 9.000000 
0.000000 9.000000 10.000000 
0.000000 9.000000 11.000000 
0.000000 9.000000 12.000000 
0.000000 9.000000 13.000000 
0.000000 9.000000 14.000000 
0.000000 9.000000 15.000000 
0.000000 9.000000 16.000000 
0.000000 9.000000 17.000000 
0.000000 9.000000 18.000000 
0.000000 9.000000 19.000000 
0.000000 9.000000 20.000000 
0.000000 9.000000 21.000000 
0.000000 9.000000 22.000000 
0.000000 9.000000 23.000000 
0.000000 9.000000 24.000000 
0.000000 9.000000 25.000000 
0.000000 9.000000 26.000000 
0.000000 9.000000 27.000000 
0.000000 9.000000 28.000000 
0.000000 9.000000 29.000000 
0.000000 9.000000 30.000000 
0.000000 9.000000 31.000000 
0.000000 9.000000 32.000000 
0.000000 9.000000 33.000000 
0.000000 9.000000 34.000000 
0.000000 9.000000 35.000000 
0.000000 9.000000 36.000000 
0.000000 9.000000 37.000000 
0.000000 9.000000 38.000000 
0.000000 9.000000 39.000000 
0.000000 9.000000 40.000000 
0.000000 9.000000 41.000000 
0.000000 9.000000 42.000000 
0.000000 9.000000 43.000000 
0.000000 9.000000 44.000000 
0.000000 9.000000 45.000000 
0.000000 9.000000 46.000000 
0.000000 9.000000 47.000000 
0.000000 9.000000 48.000000 
0.000000 9.000000 49.000000 
0.000000 9.000000 50.000000 
0.000000 9.000000 51.000000 
0.000000 9.000000 52.000000 
0.000000 9.000000 53.000000 
0.000000 9.000000 54.000000 
0.000000 9.000000 55.000000 
0.000000 9.000000 56.000000 
0.000000 9.000000 57.000000 
0.000000 9.000000 58.000000 
0.000000 9.000000 59.000000 
0.000000 9.000000 60.000000 
0.000000 9.000000 61.000000 
0.000000 9.000000 62.000000 
0.000000 9.000000 63.000000 
0.000000 9.000000 64.000000 
0.000000 9.000000 65.000000 
0.000000 9.000000 66.000000 
0.000000 9.000000 67.000000 
0.000000 9.000000 68.000000 
0.000000 9.000000 69.000000 
0.000000 9.000000 70.000000 
0.000000 9.000000 71.000000 
0.000000 9.000000 72.000000 
0.000000 9.000000 73.000000 
0.000000 9.000000 74.000000 
0.000000 9.000000 75.000000 
0.000000 9.000000 76.000000 
0.000000 9.000000 77.000000 
0.000000 9.000000 78.000000 
0.000000 9.000000 79.000000 
0.000000 9.000000 80.000000 
0.000000 9.000000 81.000000 
0.000000 9.000000 82.000000 
0.000000 9.000000 83.000000 
0.000000 9.000000 84.000000 
0.000000 9.000000 85.000000 
0.000000 9.000000 86.000000 
0.000000 9.000000 87.000000 
0.000000 9.000000 88.000000 
0.000000 9.000000 89.000000 
0.000000 9.000000 90.000000 
0.000000 9.000000 91.000000 
0.000000 9.000000 92.000000 
0.000000 9.000000 93.000000 
0.000000 9.000000 94.000000 
0.000000 9.000000 95.000000 
0.000000 9.000000 96.000000 
0.000000 9.000000 97.000000 
0.000000 9.000000 98.000000 
0.000000 9.000000 99.000000 
0.000000 9.000000 100.000000 
0.000000 10.000000 0.000000 
0.000000 10.000000 1.000000 
0.000000 10.000000 2.000000 
0.000000 10.000000 3.000000 
0.000000 10.000000 4.000000 
0.000000 10.000000 5.000000 
0.000000 10.000000 6.000000 
0.000000 10.000000 7.000000 
0.000000 10.000000 8.000000 
0.000000 10.000000 9.000000 
0.000000 10.000000 10.000000 
0.000000 10.000000 11.000000 
0.000000 10.000000 12.000000 
0.000000 10.000000 13.000000 
0.000000 10.000000 14.000000 
0.000000 10.000000 15.000000 
0.000000 10.000000 16.000000 
0.000000 10.000000 17.000000 
0.000000 10.000000 18.000000 
0.000000 10.000000 19.000000 
0.000000 10.000000 20.000000 
0.000000 10.000000 21.000000 
0.000000 10.000000 22.000000 
0.000000 10.000000 23.000000 
0.000000 10.000000 24.000000 
0.000000 10.000000 25.000000 
0.000000 10.000000 26.000000 
0.000000 10.000000 27.000000 
0.000000 10.000000 28.000000 
0.000000 10.000000 29.000000 
0.000000 10.000000 30.000000 
0.000000 10.000000 31.000000 
0.000000 10.000000 32.000000 
0.000000 10.000000 33.000000 
0.000000 10.000000 34.000000 
0.000000 10.000000 35.000000 
0.000000 10.000000 36.000000 
0.000000 10.000000 37.000000 
0.000000 10.000000 38.000000 
0.000000 10.000000 39.000000 
0.000000 10.000000 40.000000 
0.000000 10.000000 41.000000 
0.000000 10.000000 42.000000 
0.000000 10.000000 43.000000 
0.000000 10.000000 44.000000 
0.000000 10.000000 45.000000 
0.000000 10.000000 46.000000 
0.000000 10.000000 47.000000 
0.000000 10.000000 48.000000 
0.000000 10.000000 49.000000 
0.000000 10.000000 50.000000 
0.000000 10.000000 51.000000 
0.000000 10.000000 52.000000 
0.000000 10.000000 53.000000 
0.000000 10.000000 54.000000 
0.000000 10.000000 55.000000 
0.000000 10.000000 56.000000 
0.000000 10.000000 57.000000 
0.000000 10.000000 58.000000 
0.000000 10.000000 59.000000 
0.000000 10.000000 60.000000 
0.000000 10.000000 61.000000 
0.000000 10.000000 62.000000 
0.000000 10.000000 63.000000 
0.000000 10.000000 64.000000 
0.000000 10.000000 65.000000 
0.000000 10.000000 66.000000 
0.000000 10.000000 67.000000 
0.000000 10.000000 68.000000 
0.000000 10.000000 69.000000 
0.000000 10.000000 70.000000 
0.000000 10.000000 71.000000 
0.000000 10.000000 72.000000 
0.000000 10.000000 73.000000 
0.000000 10.000000 74.000000 
0.000000 10.000000 75.000000 
0.000000 10.000000 76.000000 
0.000000 10.000000 77.000000 
0.000000 10.000000 78.000000 
0.000000 10.000000 79.000000 
0.000000 10.000000 80.000000 
0.000000 10.000000 81.000000 
0.000000 10.000000 82.000000 
0.000000 10.000000 83.000000 
0.000000 10.000000 84.000000 
0.000000 10.000000 85.000000 
0.000000 10.000000 86.000000 
0.000000 10.000000 87.000000 
0.000000 10.000000 88.000000 
0.000000 10.000000 89.000000 
0.000000 10.000000 90.000000 
0.000000 10.000000 91.000000 
0.000000 10.000000 92.000000 
0.000000 10.000000 93.000000 
0.000000 10.000000 94.000000 
0.000000 10.000000 95.000000 
0.000000 10.000000 96.000000 
0.000000 10.000000 97.000000 
0.000000 10.000000 98.000000 
0.000000 10.000000 99.000000 
0.000000 10.000000 100.000000 
0.000000 11.000000 0.000000 
0.000000 11.000000 1.000000 
0.000000 11.000000 2.000000 
0.000000 11.000000 3.000000 
0.000000 11.000000 4.000000 
0.000000 11.000000 5.000000 
0.000000 11.000000 6.000000 
0.000000 11.000000 7.000000 
0.000000 11.000000 8.000000 
0.000000 11.000000 9.000000 
0.000000 11.000000 10.000000 
0.000000 11.000000 11.000000 
0.000000 11.000000 12.000000 
0.000000 11.000000 13.000000 
0.000000 11.000000 14.000000 
0.000000 11.000000 15.000000 
0.000000 11.000000 16.000000 
0.000000 11.000000 17.000000 
0.000000 11.000000 18.000000 
0.000000 11.000000 19.000000 
0.000000 11.000000 20.000000 
0.000000 11.000000 21.000000 
0.000000 11.000000 22.000000 
0.000000 11.000000 23.000000 
0.000000 11.000000 24.000000 
0.000000 11.000000 25.000000 
0.000000 11.000000 26.000000 
0.000000 11.000000 27.000000 
0.000000 11.000000 28.000000 
0.000000 11.000000 29.000000 
0.000000 11.000000 30.000000 
0.000000 11.000000 31.000000 
0.000000 11.000000 32.000000 
0.000000 11.000000 33.000000 
0.000000 11.000000 34.000000 
0.000000 11.000000 35.000000 
0.000000 11.000000 36.000000 
0.000000 11.000000 37.000000 
0.000000 11.000000 38.000000 
0.000000 11.000000 39.000000 
0.000000 11.000000 40.000000 
0.000000 11.000000 41.000000 
0.000000 11.000000 42.000000 
0.000000 11.000000 43.000000 
0.000000 11.000000 44.000000 
0.000000 11.000000 45.000000 
0.000000 11.000000 46.000000 
0.000000 11.000000 47.000000 
0.000000 11.000000 48.000000 
0.000000 11.000000 49.000000 
0.000000 11.000000 50.000000 
0.000000 11.000000 51.000000 
0.000000 11.000000 52.000000 
0.000000 11.000000 53.000000 
0.000000 11.000000 54.000000 
0.000000 11.000000 55.000000 
0.000000 11.000000 56.000000 
0.000000 11.000000 57.000000 
0.000000 11.000000 58.000000 
0.000000 11.000000 59.000000 
0.000000 11.000000 60.000000 
0.000000 11.000000 61.000000 
0.000000 11.000000 62.000000 
0.000000 11.000000 63.000000 
0.000000 11.000000 64.000000 
0.000000 11.000000 65.000000 
0.000000 11.000000 66.000000 
0.000000 11.000000 67.000000 
0.000000 11.000000 68.000000 
0.000000 11.000000 69.000000 
0.000000 11.000000 70.000000 
0.000000 11.000000 71.000000 
0.000000 11.000000 72.000000 
0.000000 11.000000 73.000000 
0.000000 11.000000 74.000000 
0.000000 11.000000 75.000000 
0.000000 11.000000 76.000000 
0.000000 11.000000 77.000000 
0.000000 11.000000 78.000000 
0.000000 11.000000 79.000000 
0.000000 11.000000 80.000000 
0.000000 11.000000 81.000000 
0.000000 11.000000 82.000000 
0.000000 11.000000 83.000000 
0.000000 11.000000 84.000000 
0.000000 11.000000 85.000000 
0.000000 11.000000 86.000000 
0.000000 11.000000 87.000000 
0.000000 11.000000 88.000000 
0.000000 11.000000 89.000000 
0.000000 11.000000 90.000000 
0.000000 11.000000 91.000000 
0.000000 11.000000 92.000000 
0.000000 11.000000 93.000000 
0.000000 11.000000 94.000000 
0.000000 11.000000 95.000000 
0.000000 11.000000 96.000000 
0.000000 11.000000 97.000000 
0.000000 11.000000 98.000000 
0.000000 11.000000 99.000000 
0.000000 11.000000 100.000000 
0.000000 12.000000 0.000000 
0.000000 12.000000 1.000000 
0.000000 12.000000 2.000000 
0.000000 12.000000 3.000000 
0.000000 12.000000 4.000000 
0.000000 12.000000 5.000000 
0.000000 12.000000 6.000000 
0.000000 12.000000 7.000000 
0.000000 12.000000 8.000000 
0.000000 12.000000 9.000000 
0.000000 12.000000 10.000000 
0.000000 12.000000 11.000000 
0.000000 12.000000 12.000000 
0.000000 12.000000 13.000000 
0.000000 12.000000 14.000000 
0.000000 12.000000 15.000000 
0.000000 12.000000 16.000000 
0.000000 12.000000 17.000000 
0.000000 12.000000 18.000000 
0.000000 12.000000 19.000000 
0.000000 12.000000 20.000000 
0.000000 12.000000 21.000000 
0.000000 12.000000 22.000000 
0.000000 12.000000 23.000000 
0.000000 12.000000 24.000000 
0.000000 12.000000 25.000000 
0.000000 12.000000 26.000000 
0.000000 12.000000 27.000000 
0.000000 12.000000 28.000000 
0.000000 12.000000 29.000000 
0.000000 12.000000 30.000000 
0.000000 12.000000 31.000000 
0.000000 12.000000 32.000000 
0.000000 12.000000 33.000000 
0.000000 12.000000 34.000000 
0.000000 12.000000 35.000000 
0.000000 12.000000 36.000000 
0.000000 12.000000 37.000000 
0.000000 12.000000 38.000000 
0.000000 12.000000 39.000000 
0.000000 12.000000 40.000000 
0.000000 12.000000 41.000000 
0.000000 12.000000 42.000000 
0.000000 12.000000 43.000000 
0.000000 12.000000 44.000000 
0.000000 12.000000 45.000000 
0.000000 12.000000 46.000000 
0.000000 12.000000 47.000000 
0.000000 12.000000 48.000000 
0.000000 12.000000 49.000000 
0.000000 12.000000 50.000000 
0.000000 12.000000 51.000000 
0.000000 12.000000 52.000000 
0.000000 12.000000 53.000000 
0.000000 12.000000 54.000000 
0.000000 12.000000 55.000000 
0.000000 12.000000 56.000000 
0.000000 12.000000 57.000000 
0.000000 12.000000 58.000000 
0.000000 12.000000 59.000000 
0.000000 12.000000 60.000000 
0.000000 12.000000 61.000000 
0.000000 12.000000 62.000000 
0.000000 12.000000 63.000000 
0.000000 12.000000 64.000000 
0.000000 12.000000 65.000000 
0.000000 12.000000 66.000000 
0.000000 12.000000 67.000000 
0.000000 12.000000 68.000000 
0.000000 12.000000 69.000000 
0.000000 12.000000 70.000000 
0.000000 12.000000 71.000000 
0.000000 12.000000 72.000000 
0.000000 12.000000 73.000000 
0.000000 12.000000 74.000000 
0.000000 12.000000 75.000000 
0.000000 12.000000 76.000000 
0.000000 12.000000 77.000000 
0.000000 12.000000 78.000000 
0.000000 12.000000 79.000000 
0.000000 12.000000 80.000000 
0.000000 12.000000 81.000000 
0.000000 12.000000 82.000000 
0.000000 12.000000 83.000000 
0.000000 12.000000 84.000000 
0.000000 12.000000 85.000000 
0.000000 12.000000 86.000000 
0.000000 12.000000 87.000000 
0.000000 12.000000 88.000000 
0.000000 12.000000 89.000000 
0.000000 12.000000 90.000000 
0.000000 12.000000 91.000000 
0.000000 12.000000 92.000000 
0.000000 12.000000 93.000000 
0.000000 12.000000 94.000000 
0.000000 12.000000 95.000000 
0.000000 12.000000 96.000000 
0.000000 12.000000 97.000000 
0.000000 12.000000 98.000000 
0.000000 12.000000 99.000000 
0.000000 12.000000 100.000000 
0.000000 13.000000 0.000000 
0.000000 13.000000 1.000000 
0.000000 13.000000 2.000000 
0.000000 13.000000 3.000000 
0.000000 13.000000 4.000000 
0.000000 13.000000 5.000000 
0.000000 13.000000 6.000000 
0.000000 13.000000 7.000000 
0.000000 13.000000 8.000000 
0.000000 13.000000 9.000000 
0.000000 13.000000 10.000000 
0.000000 13.000000 11.000000 
0.000000 13.000000 12.000000 
0.000000 13.000000 13.000000 
0.000000 13.000000 14.000000 
0.000000 13.000000 15.000000 
0.000000 13.000000 16.000000 
0.000000 13.000000 17.000000 
0.000000 13.000000 18.000000 
0.000000 13.000000 19.000000 
0.000000 13.000000 20.000000 
0.000000 13.000000 21.000000 
0.000000 13.000000 22.000000 
0.000000 13.000000 23.000000 
0.000000 13.000000 24.000000 
0.000000 13.000000 25.000000 
0.000000 13.000000 26.000000 
0.000000 13.000000 27.000000 
0.000000 13.000000 28.000000 
0.000000 13.000000 29.000000 
0.000000 13.000000 30.000000 
0.000000 13.000000 31.000000 
0.000000 13.000000 32.000000 
0.000000 13.000000 33.000000 
0.000000 13.000000 34.000000 
0.000000 13.000000 35.000000 
0.000000 13.000000 36.000000 
0.000000 13.000000 37.000000 
0.000000 13.000000 38.000000 
0.000000 13.000000 39.000000 
0.000000 13.000000 40.000000 
0.000000 13.000000 41.000000 
0.000000 13.000000 42.000000 
0.000000 13.000000 43.000000 
0.000000 13.000000 44.000000 
0.000000 13.000000 45.000000 
0.000000 13.000000 46.000000 
0.000000 13.000000 47.000000 
0.000000 13.000000 48.000000 
0.000000 13.000000 49.000000 
0.000000 13.000000 50.000000 
0.000000 13.000000 51.000000 
0.000000 13.000000 52.000000 
0.000000 13.000000 53.000000 
0.000000 13.000000 54.000000 
0.000000 13.000000 55.000000 
0.000000 13.000000 56.000000 
0.000000 13.000000 57.000000 
0.000000 13.000000 58.000000 
0.000000 13.000000 59.000000 
0.000000 13.000000 60.000000 
0.000000 13.000000 61.000000 
0.000000 13.000000 62.000000 
0.000000 13.000000 63.000000 
0.000000 13.000000 64.000000 
0.000000 13.000000 65.000000 
0.000000 13.000000 66.000000 
0.000000 13.000000 67.000000 
0.000000 13.000000 68.000000 
0.000000 13.000000 69.000000 
0.000000 13.000000 70.000000 
0.000000 13.000000 71.000000 
0.000000 13.000000 72.000000 
0.000000 13.000000 73.000000 
0.000000 13.000000 74.000000 
0.000000 13.000000 75.000000 
0.000000 13.000000 76.000000 
0.000000 13.000000 77.000000 
0.000000 13.000000 78.000000 
0.000000 13.000000 79.000000 
0.000000 13.000000 80.000000 
0.000000 13.000000 81.000000 
0.000000 13.000000 82.000000 
0.000000 13.000000 83.000000 
0.000000 13.000000 84.000000 
0.000000 13.000000 85.000000 
0.000000 13.000000 86.000000 
0.000000 13.000000 87.000000 
0.000000 13.000000 88.000000 
0.000000 13.000000 89.000000 
0.000000 13.000000 90.000000 
0.000000 13.000000 91.000000 
0.000000 13.000000 92.000000 
0.000000 13.000000 93.000000 
0.000000 13.000000 94.000000 
0.000000 13.000000 95.000000 
0.000000 13.000000 96.000000 
0.000000 13.000000 97.000000 
0.000000 13.000000 98.000000 
0.000000 13.000000 99.000000 
0.000000 13.000000 100.000000 
0.000000 14.000000 0.000000 
0.000000 14.000000 1.000000 
0.000000 14.000000 2.000000 
0.000000 14.000000 3.000000 
0.000000 14.000000 4.000000 
0.000000 14.000000 5.000000 
0.000000 14.000000 6.000000 
0.000000 14.000000 7.000000 
0.000000 14.000000 8.000000 
0.000000 14.000000 9.000000 
0.000000 14.000000 10.000000 
0.000000 14.000000 11.000000 
0.000000 14.000000 12.000000 
0.000000 14.000000 13.000000 
0.000000 14.000000 14.000000 
0.000000 14.000000 15.000000 
0.000000 14.000000 16.000000 
0.000000 14.000000 17.000000 
0.000000 14.000000 18.000000 
0.000000 14.000000 19.000000 
0.000000 14.000000 20.000000 
0.000000 14.000000 21.000000 
0.000000 14.000000 22.000000 
0.000000 14.000000 23.000000 
0.000000 14.000000 24.000000 
0.000000 14.000000 25.000000 
0.000000 14.000000 26.000000 
0.000000 14.000000 27.000000 
0.000000 14.000000 28.000000 
0.000000 14.000000 29.000000 
0.000000 14.000000 30.000000 
0.000000 14.000000 31.000000 
0.000000 14.000000 32.000000 
0.000000 14.000000 33.000000 
0.000000 14.000000 34.000000 
0.000000 14.000000 35.000000 
0.000000 14.000000 36.000000 
0.000000 14.000000 37.000000 
0.000000 14.000000 38.000000 
0.000000 14.000000 39.000000 
0.000000 14.000000 40.000000 
0.000000 14.000000 41.000000 
0.000000 14.000000 42.000000 
0.000000 14.000000 43.000000 
0.000000 14.000000 44.000000 
0.000000 14.000000 45.000000 
0.000000 14.000000 46.000000 
0.000000 14.000000 47.000000 
0.000000 14.000000 48.000000 
0.000000 14.000000 49.000000 
0.000000 14.000000 50.000000 
0.000000 14.000000 51.000000 
0.000000 14.000000 52.000000 
0.000000 14.000000 53.000000 
0.000000 14.000000 54.000000 
0.000000 14.000000 55.000000 
0.000000 14.000000 56.000000 
0.000000 14.000000 57.000000 
0.000000 14.000000 58.000000 
0.000000 14.000000 59.000000 
0.000000 14.000000 60.000000 
0.000000 14.000000 61.000000 
0.000000 14.000000 62.000000 
0.000000 14.000000 63.000000 
0.000000 14.000000 64.000000 
0.000000 14.000000 65.000000 
0.000000 14.000000 66.000000 
0.000000 14.000000 67.000000 
0.000000 14.000000 68.000000 
0.000000 14.000000 69.000000 
0.000000 14.000000 70.000000 
0.000000 14.000000 71.000000 
0.000000 14.000000 72.000000 
0.000000 14.000000 73.000000 
0.000000 14.000000 74.000000 
0.000000 14.000000 75.000000 
0.000000 14.000000 76.000000 
0.000000 14.000000 77.000000 
0.000000 14.000000 78.000000 
0.000000 14.000000 79.000000 
0.000000 14.000000 80.000000 
0.000000 14.000000 81.000000 
0.000000 14.000000 82.000000 
0.000000 14.000000 83.000000 
0.000000 14.000000 84.000000 
0.000000 14.000000 85.000000 
0.000000 14.000000 86.000000 
0.000000 14.000000 87.000000 
0.000000 14.000000 88.000000 
0.000000 14.000000 89.000000 
0.000000 14.000000 90.000000 
0.000000 14.000000 91.000000 
0.000000 14.000000 92.000000 
0.000000 14.000000 93.000000 
0.000000 14.000000 94.000000 
0.000000 14.000000 95.000000 
0.000000 14.000000 96.000000 
0.000000 14.000000 97.000000 
0.000000 14.000000 98.000000 
0.000000 14.000000 99.000000 
0.000000 14.000000 100.000000 
0.000000 15.000000 0.000000 
0.000000 15.000000 1.000000 
0.000000 15.000000 2.000000 
0.000000 15.000000 3.000000 
0.000000 15.000000 4.000000 
0.000000 15.000000 5.000000 
0.000000 15.000000 6.000000 
0.000000 15.000000 7.000000 
0.000000 15.000000 8.000000 
0.000000 15.000000 9.000000 
0.000000 15.000000 10.000000 
0.000000 15.000000 11.000000 
0.000000 15.000000 12.000000 
0.000000 15.000000 13.000000 
0.000000 15.000000 14.000000 
0.000000 15.000000 15.000000 
0.000000 15.000000 16.000000 
0.000000 15.000000 17.000000 
0.000000 15.000000 18.000000 
0.000000 15.000000 19.000000 
0.000000 15.000000 20.000000 
0.000000 15.000000 21.000000 
0.000000 15.000000 22.000000 
0.000000 15.000000 23.000000 
0.000000 15.000000 24.000000 
0.000000 15.000000 25.000000 
0.000000 15.000000 26.000000 
0.000000 15.000000 27.000000 
0.000000 15.000000 28.000000 
0.000000 15.000000 29.000000 
0.000000 15.000000 30.000000 
0.000000 15.000000 31.000000 
0.000000 15.000000 32.000000 
0.000000 15.000000 33.000000 
0.000000 15.000000 34.000000 
0.000000 15.000000 35.000000 
0.000000 15.000000 36.000000 
0.000000 15.000000 37.000000 
0.000000 15.000000 38.000000 
0.000000 15.000000 39.000000 
0.000000 15.000000 40.000000 
0.000000 15.000000 41.000000 
0.000000 15.000000 42.000000 
0.000000 15.000000 43.000000 
0.000000 15.000000 44.000000 
0.000000 15.000000 45.000000 
0.000000 15.000000 46.000000 
0.000000 15.000000 47.000000 
0.000000 15.000000 48.000000 
0.000000 15.000000 49.000000 
0.000000 15.000000 50.000000 
0.000000 15.000000 51.000000 
0.000000 15.000000 52.000000 
0.000000 15.000000 53.000000 
0.000000 15.000000 54.000000 
0.000000 15.000000 55.000000 
0.000000 15.000000 56.000000 
0.000000 15.000000 57.000000 
0.000000 15.000000 58.000000 
0.000000 15.000000 59.000000 
0.000000 15.000000 60.000000 
0.000000 15.000000 61.000000 
0.000000 15.000000 62.000000 
0.000000 15.000000 63.000000 
0.000000 15.000000 64.000000 
0.000000 15.000000 65.000000 
0.000000 15.000000 66.000000 
0.000000 15.000000 67.000000 
0.000000 15.000000 68.000000 
0.000000 15.000000 69.000000 
0.000000 15.000000 70.000000 
0.000000 15.000000 71.000000 
0.000000 15.000000 72.000000 
0.000000 15.000000 73.000000 
0.000000 15.000000 74.000000 
0.000000 15.000000 75.000000 
0.000000 15.000000 76.000000 
0.000000 15.000000 77.000000 
0.000000 15.000000 78.000000 
0.000000 15.000000 79.000000 
0.000000 15.000000 80.000000 
0.000000 15.000000 81.000000 
0.000000 15.000000 82.000000 
0.000000 15.000000 83.000000 
0.000000 15.000000 84.000000 
0.000000 15.000000 85.000000 
0.000000 15.000000 86.000000 
0.000000 15.000000 87.000000 
0.000000 15.000000 88.000000 
0.000000 15.000000 89.000000 
0.000000 15.000000 90.000000 
0.000000 15.000000 91.000000 
0.000000 15.000000 92.000000 
0.000000 15.000000 93.000000 
0.000000 15.000000 94.000000 
0.000000 15.000000 95.000000 
0.000000 15.000000 96.000000 
0.000000 15.000000 97.000000 
0.000000 15.000000 98.000000 
0.000000 15.000000 99.000000 
0.000000 15.000000 100.000000 
0.000000 16.000000 0.000000 
0.000000 16.000000 1.000000 
0.000000 16.000000 2.000000 
0.000000 16.000000 3.000000 
0.000000 16.000000 4.000000 
0.000000 16.000000 5.000000 
0.000000 16.000000 6.000000 
0.000000 16.000000 7.000000 
0.000000 16.000000 8.000000 
0.000000 16.000000 9.000000 
0.000000 16.000000 10.000000 
0.000000 16.000000 11.000000 
0.000000 16.000000 12.000000 
0.000000 16.000000 13.000000 
0.000000 16.000000 14.000000 
0.000000 16.000000 15.000000 
0.000000 16.000000 16.000000 
0.000000 16.000000 17.000000 
0.000000 16.000000 18.000000 
0.000000 16.000000 19.000000 
0.000000 16.000000 20.000000 
0.000000 16.000000 21.000000 
0.000000 16.000000 22.000000 
0.000000 16.000000 23.000000 
0.000000 16.000000 24.000000 
0.000000 16.000000 25.000000 
0.000000 16.000000 26.000000 
0.000000 16.000000 27.000000 
0.000000 16.000000 28.000000 
0.000000 16.000000 29.000000 
0.000000 16.000000 30.000000 
0.000000 16.000000 31.000000 
0.000000 16.000000 32.000000 
0.000000 16.000000 33.000000 
0.000000 16.000000 34.000000 
0.000000 16.000000 35.000000 
0.000000 16.000000 36.000000 
0.000000 16.000000 37.000000 
0.000000 16.000000 38.000000 
0.000000 16.000000 39.000000 
0.000000 16.000000 40.000000 
0.000000 16.000000 41.000000 
0.000000 16.000000 42.000000 
0.000000 16.000000 43.000000 
0.000000 16.000000 44.000000 
0.000000 16.000000 45.000000 
0.000000 16.000000 46.000000 
0.000000 16.000000 47.000000 
0.000000 16.000000 48.000000 
0.000000 16.000000 49.000000 
0.000000 16.000000 50.000000 
0.000000 16.000000 51.000000 
0.000000 16.000000 52.000000 
0.000000 16.000000 53.000000 
0.000000 16.000000 54.000000 
0.000000 16.000000 55.000000 
0.000000 16.000000 56.000000 
0.000000 16.000000 57.000000 
0.000000 16.000000 58.000000 
0.000000 16.000000 59.000000 
0.000000 16.000000 60.000000 
0.000000 16.000000 61.000000 
0.000000 16.000000 62.000000 
0.000000 16.000000 63.000000 
0.000000 16.000000 64.000000 
0.000000 16.000000 65.000000 
0.000000 16.000000 66.000000 
0.000000 16.000000 67.000000 
0.000000 16.000000 68.000000 
0.000000 16.000000 69.000000 
0.000000 16.000000 70.000000 
0.000000 16.000000 71.000000 
0.000000 16.000000 72.000000 
0.000000 16.000000 73.000000 
0.000000 16.000000 74.000000 
0.000000 16.000000 75.000000 
0.000000 16.000000 76.000000 
0.000000 16.000000 77.000000 
0.000000 16.000000 78.000000 
0.000000 16.000000 79.000000 
0.000000 16.000000 80.000000 
0.000000 16.000000 81.000000 
0.000000 16.000000 82.000000 
0.000000 16.000000 83.000000 
0.000000 16.000000 84.000000 
0.000000 16.000000 85.000000 
0.000000 16.000000 86.000000 
0.000000 16.000000 87.000000 
0.000000 16.000000 88.000000 
0.000000 16.000000 89.000000 
0.000000 16.000000 90.000000 
0.000000 16.000000 91.000000 
0.000000 16.000000 92.000000 
0.000000 16.000000 93.000000 
0.000000 16.000000 94.000000 
0.000000 16.000000 95.000000 
0.000000 16.000000 96.000000 
0.000000 16.000000 97.000000 
0.000000 16.000000 98.000000 
0.000000 16.000000 99.000000 
0.000000 16.000000 100.000000 
0.000000 17.000000 0.000000 
0.000000 17.000000 1.000000 
0.000000 17.000000 2.000000 
0.000000 17.000000 3.000000 
0.000000 17.000000 4.000000 
0.000000 17.000000 5.000000 
0.000000 17.000000 6.000000 
0.000000 17.000000 7.000000 
0.000000 17.000000 8.000000 
0.000000 17.000000 9.000000 
0.000000 17.000000 10.000000 
0.000000 17.000000 11.000000 
0.000000 17.000000 12.000000 
0.000000 17.000000 13.000000 
0.000000 17.000000 14.000000 
0.000000 17.000000 15.000000 
0.000000 17.000000 16.000000 
0.000000 17.000000 17.000000 
0.000000 17.000000 18.000000 
0.000000 17.000000 19.000000 
0.000000 17.000000 20.000000 
0.000000 17.000000 21.000000 
0.000000 17.000000 22.000000 
0.000000 17.000000 23.000000 
0.000000 17.000000 24.000000 
0.000000 17.000000 25.000000 
0.000000 17.000000 26.000000 
0.000000 17.000000 27.000000 
0.000000 17.000000 28.000000 
0.000000 17.000000 29.000000 
0.000000 17.000000 30.000000 
0.000000 17.000000 31.000000 
0.000000 17.000000 32.000000 
0.000000 17.000000 33.000000 
0.000000 17.000000 34.000000 
0.000000 17.000000 35.000000 
0.000000 17.000000 36.000000 
0.000000 17.000000 37.000000 
0.000000 17.000000 38.000000 
0.000000 17.000000 39.000000 
0.000000 17.000000 40.000000 
0.000000 17.000000 41.000000 
0.000000 17.000000 42.000000 
0.000000 17.000000 43.000000 
0.000000 17.000000 44.000000 
0.000000 17.000000 45.000000 
0.000000 17.000000 46.000000 
0.000000 17.000000 47.000000 
0.000000 17.000000 48.000000 
0.000000 17.000000 49.000000 
0.000000 17.000000 50.000000 
0.000000 17.000000 51.000000 
0.000000 17.000000 52.000000 
0.000000 17.000000 53.000000 
0.000000 17.000000 54.000000 
0.000000 17.000000 55.000000 
0.000000 17.000000 56.000000 
0.000000 17.000000 57.000000 
0.000000 17.000000 58.000000 
0.000000 17.000000 59.000000 
0.000000 17.000000 60.000000 
0.000000 17.000000 61.000000 
0.000000 17.000000 62.000000 
0.000000 17.000000 63.000000 
0.000000 17.000000 64.000000 
0.000000 17.000000 65.000000 
0.000000 17.000000 66.000000 
0.000000 17.000000 67.000000 
0.000000 17.000000 68.000000 
0.000000 17.000000 69.000000 
0.000000 17.000000 70.000000 
0.000000 17.000000 71.000000 
0.000000 17.000000 72.000000 
0.000000 17.000000 73.000000 
0.000000 17.000000 74.000000 
0.000000 17.000000 75.000000 
0.000000 17.000000 76.000000 
0.000000 17.000000 77.000000 
0.000000 17.000000 78.000000 
0.000000 17.000000 79.000000 
0.000000 17.000000 80.000000 
0.000000 17.000000 81.000000 
0.000000 17.000000 82.000000 
0.000000 17.000000 83.000000 
0.000000 17.000000 84.000000 
0.000000 17.000000 85.000000 
0.000000 17.000000 86.000000 
0.000000 17.000000 87.000000 
0.000000 17.000000 88.000000 
0.000000 17.000000 89.000000 
0.000000 17.000000 90.000000 
0.000000 17.000000 91.000000 
0.000000 17.000000 92.000000 
0.000000 17.000000 93.000000 
0.000000 17.000000 94.000000 
0.000000 17.000000 95.000000 
0.000000 17.000000 96.000000 
0.000000 17.000000 97.000000 
0.000000 17.000000 98.000000 
0.000000 17.000000 99.000000 
0.000000 17.000000 100.000000 
0.000000 18.000000 0.000000 
0.000000 18.000000 1.000000 
0.000000 18.000000 2.000000 
0.000000 18.000000 3.000000 
0.000000 18.000000 4.000000 
0.000000 18.000000 5.000000 
0.000000 18.000000 6.000000 
0.000000 18.000000 7.000000 
0.000000 18.000000 8.000000 
0.000000 18.000000 9.000000 
0.000000 18.000000 10.000000 
0.000000 18.000000 11.000000 
0.000000 18.000000 12.000000 
0.000000 18.000000 13.000000 
0.000000 18.000000 14.000000 
0.000000 18.000000 15.000000 
0.000000 18.000000 16.000000 
0.000000 18.000000 17.000000 
0.000000 18.000000 18.000000 
0.000000 18.000000 19.000000 
0.000000 18.000000 20.000000 
0.000000 18.000000 21.000000 
0.000000 18.000000 22.000000 
0.000000 18.000000 23.000000 
0.000000 18.000000 24.000000 
0.000000 18.000000 25.000000 
0.000000 18.000000 26.000000 
0.000000 18.000000 27.000000 
0.000000 18.000000 28.000000 
0.000000 18.000000 29.000000 
0.000000 18.000000 30.000000 
0.000000 18.000000 31.000000 
0.000000 18.000000 32.000000 
0.000000 18.000000 33.000000 
0.000000 18.000000 34.000000 
0.000000 18.000000 35.000000 
0.000000 18.000000 36.000000 
0.000000 18.000000 37.000000 
0.000000 18.000000 38.000000 
0.000000 18.000000 39.000000 
0.000000 18.000000 40.000000 
0.000000 18.000000 41.000000 
0.000000 18.000000 42.000000 
0.000000 18.000000 43.000000 
0.000000 18.000000 44.000000 
0.000000 18.000000 45.000000 
0.000000 18.000000 46.000000 
0.000000 18.000000 47.000000 
0.000000 18.000000 48.000000 
0.000000 18.000000 49.000000 
0.000000 18.000000 50.000000 
0.000000 18.000000 51.000000 
0.000000 18.000000 52.000000 
0.000000 18.000000 53.000000 
0.000000 18.000000 54.000000 
0.000000 18.000000 55.000000 
0.000000 18.000000 56.000000 
0.000000 18.000000 57.000000 
0.000000 18.000000 58.000000 
0.000000 18.000000 59.000000 
0.000000 18.000000 60.000000 
0.000000 18.000000 61.000000 
0.000000 18.000000 62.000000 
0.000000 18.000000 63.000000 
0.000000 18.000000 64.000000 
0.000000 18.000000 65.000000 
0.000000 18.000000 66.000000 
0.000000 18.000000 67.000000 
0.000000 18.000000 68.000000 
0.000000 18.000000 69.000000 
0.000000 18.000000 70.000000 
0.000000 18.000000 71.000000 
0.000000 18.000000 72.000000 
0.000000 18.000000 73.000000 
0.000000 18.000000 74.000000 
0.000000 18.000000 75.000000 
0.000000 18.000000 76.000000 
0.000000 18.000000 77.000000 
0.000000 18.000000 78.000000 
0.000000 18.000000 79.000000 
0.000000 18.000000 80.000000 
0.000000 18.000000 81.000000 
0.000000 18.000000 82.000000 
0.000000 18.000000 83.000000 
0.000000 18.000000 84.000000 
0.000000 18.000000 85.000000 
0.000000 18.000000 86.000000 
0.000000 18.000000 87.000000 
0.000000 18.000000 88.000000 
0.000000 18.000000 89.000000 
0.000000 18.000000 90.000000 
0.000000 18.000000 91.000000 
0.000000 18.000000 92.000000 
0.000000 18.000000 93.000000 
0.000000 18.000000 94.000000 
0.000000 18.000000 95.000000 
0.000000 18.000000 96.000000 
0.000000 18.000000 97.000000 
0.000000 18.000000 98.000000 
0.000000 18.000000 99.000000 
0.000000 18.000000 100.000000 
0.000000 19.000000 0.000000 
0.000000 19.000000 1.000000 
0.000000 19.000000 2.000000 
0.000000 19.000000 3.000000 
0.000000 19.000000 4.000000 
0.000000 19.000000 5.000000 
0.000000 19.000000 6.000000 
0.000000 19.000000 7.000000 
0.000000 19.000000 8.000000 
0.000000 19.000000 9.000000 
0.000000 19.000000 10.000000 
0.000000 19.000000 11.000000 
0.000000 19.000000 12.000000 
0.000000 19.000000 13.000000 
0.000000 19.000000 14.000000 
0.000000 19.000000 15.000000 
0.000000 19.000000 16.000000 
0.000000 19.000000 17.000000 
0.000000 19.000000 18.000000 
0.000000 19.000000 19.000000 
0.000000 19.000000 20.000000 
0.000000 19.000000 21.000000 
0.000000 19.000000 22.000000 
0.000000 19.000000 23.000000 
0.000000 19.000000 24.000000 
0.000000 19.000000 25.000000 
0.000000 19.000000 26.000000 
0.000000 19.000000 27.000000 
0.000000 19.000000 28.000000 
0.000000 19.000000 29.000000 
0.000000 19.000000 30.000000 
0.000000 19.000000 31.000000 
0.000000 19.000000 32.000000 
0.000000 19.000000 33.000000 
0.000000 19.000000 34.000000 
0.000000 19.000000 35.000000 
0.000000 19.000000 36.000000 
0.000000 19.000000 37.000000 
0.000000 19.000000 38.000000 
0.000000 19.000000 39.000000 
0.000000 19.000000 40.000000 
0.000000 19.000000 41.000000 
0.000000 19.000000 42.000000 
0.000000 19.000000 43.000000 
0.000000 19.000000 44.000000 
0.000000 19.000000 45.000000 
0.000000 19.000000 46.000000 
0.000000 19.000000 47.000000 
0.000000 19.000000 48.000000 
0.000000 19.000000 49.000000 
0.000000 19.000000 50.000000 
0.000000 19.000000 51.000000 
0.000000 19.000000 52.000000 
0.000000 19.000000 53.000000 
0.000000 19.000000 54.000000 
0.000000 19.000000 55.000000 
0.000000 19.000000 56.000000 
0.000000 19.000000 57.000000 
0.000000 19.000000 58.000000 
0.000000 19.000000 59.000000 
0.000000 19.000000 60.000000 
0.000000 19.000000 61.000000 
0.000000 19.000000 62.000000 
0.000000 19.000000 63.000000 
0.000000 19.000000 64.000000 
0.000000 19.000000 65.000000 
0.000000 19.000000 66.000000 
0.000000 19.000000 67.000000 
0.000000 19.000000 68.000000 
0.000000 19.000000 69.000000 
0.000000 19.000000 70.000000 
0.000000 19.000000 71.000000 
0.000000 19.000000 72.000000 
0.000000 19.000000 73.000000 
0.000000 19.000000 74.000000 
0.000000 19.000000 75.000000 
0.000000 19.000000 76.000000 
0.000000 19.000000 77.000000 
0.000000 19.000000 78.000000 
0.000000 19.000000 79.000000 
0.000000 19.000000 80.000000 
0.000000 19.000000 81.000000 
0.000000 19.000000 82.000000 
0.000000 19.000000 83.000000 
0.000000 19.000000 84.000000 
0.000000 19.000000 85.000000 
0.000000 19.000000 86.000000 
0.000000 19.000000 87.000000 
0.000000 19.000000 88.000000 
0.000000 19.000000 89.000000 
0.000000 19.000000 90.000000 
0.000000 19.000000 91.000000 
0.000000 19.000000 92.000000 
0.000000 19.000000 93.000000 
0.000000 19.000000 94.000000 
0.000000 19.000000 95.000000 
0.000000 19.000000 96.000000 
0.000000 19.000000 97.000000 
0.000000 19.000000 98.000000 
0.000000 19.000000 99.000000 
0.000000 19.000000 100.000000 
0.000000 20.000000 0.000000 
0.000000 20.000000 1.000000 
0.000000 20.000000 2.000000 
0.000000 20.000000 3.000000 
0.000000 20.000000 4.000000 
0.000000 20.000000 5.000000 
0.000000 20.000000 6.000000 
0.000000 20.000000 7.000000 
0.000000 20.000000 8.000000 
0.000000 20.000000 9.000000 
0.000000 20.000000 10.000000 
0.000000 20.000000 11.000000 
0.000000 20.000000 12.000000 
0.000000 20.000000 13.000000 
0.000000 20.000000 14.000000 
0.000000 20.000000 15.000000 
0.000000 20.000000 16.000000 
0.000000 20.000000 17.000000 
0.000000 20.000000 18.000000 
0.000000 20.000000 19.000000 
0.000000 20.000000 20.000000 
0.000000 20.000000 21.000000 
0.000000 20.000000 22.000000 
0.000000 20.000000 23.000000 
0.000000 20.000000 24.000000 
0.000000 20.000000 25.000000 
0.000000 20.000000 26.000000 
0.000000 20.000000 27.000000 
0.000000 20.000000 28.000000 
0.000000 20.000000 29.000000 
0.000000 20.000000 30.000000 
0.000000 20.000000 31.000000 
0.000000 20.000000 32.000000 
0.000000 20.000000 33.000000 
0.000000 20.000000 34.000000 
0.000000 20.000000 35.000000 
0.000000 20.000000 36.000000 
0.000000 20.000000 37.000000 
0.000000 20.000000 38.000000 
0.000000 20.000000 39.000000 
0.000000 20.000000 40.000000 
0.000000 20.000000 41.000000 
0.000000 20.000000 42.000000 
0.000000 20.000000 43.000000 
0.000000 20.000000 44.000000 
0.000000 20.000000 45.000000 
0.000000 20.000000 46.000000 
0.000000 20.000000 47.000000 
0.000000 20.000000 48.000000 
0.000000 20.000000 49.000000 
0.000000 20.000000 50.000000 
0.000000 20.000000 51.000000 
0.000000 20.000000 52.000000 
0.000000 20.000000 53.000000 
0.000000 20.000000 54.000000 
0.000000 20.000000 55.000000 
0.000000 20.000000 56.000000 
0.000000 20.000000 57.000000 
0.000000 20.000000 58.000000 
0.000000 20.000000 59.000000 
0.000000 20.000000 60.000000 
0.000000 20.000000 61.000000 
0.000000 20.000000 62.000000 
0.000000 20.000000 63.000000 
0.000000 20.000000 64.000000 
0.000000 20.000000 65.000000 
0.000000 20.000000 66.000000 
0.000000 20.000000 67.000000 
0.000000 20.000000 68.000000 
0.000000 20.000000 69.000000 
0.000000 20.000000 70.000000 
0.000000 20.000000 71.000000 
0.000000 20.000000 72.000000 
0.000000 20.000000 73.000000 
0.000000 20.000000 74.000000 
0.000000 20.000000 75.000000 
0.000000 20.000000 76.000000 
0.000000 20.000000 77.000000 
0.000000 20.000000 78.000000 
0.000000 20.000000 79.000000 
0.000000 20.000000 80.000000 
0.000000 20.000000 81.000000 
0.000000 20.000000 82.000000 
0.000000 20.000000 83.000000 
0.000000 20.000000 84.000000 
0.000000 20.000000 85.000000 
0.000000 20.000000 86.000000 
0.000000 20.000000 87.000000 
0.000000 20.000000 88.000000 
0.000000 20.000000 89.000000 
0.000000 20.000000 90.000000 
0.000000 20.000000 91.000000 
0.000000 20.000000 92.000000 
0.000000 20.000000 93.000000 
0.000000 20.000000 94.000000 
0.000000 20.000000 95.000000 
0.000000 20.000000 96.000000 
0.000000 20.000000 97.000000 
0.000000 20.000000 98.000000 
0.000000 20.000000 99.000000 
0.000000 20.000000 100.000000 
0.000000 21.000000 0.000000 
0.000000 21.000000 1.000000 
0.000000 21.000000 2.000000 
0.000000 21.000000 3.000000 
0.000000 21.000000 4.000000 
0.000000 21.000000 5.000000 
0.000000 21.000000 6.000000 
0.000000 21.000000 7.000000 
0.000000 21.000000 8.000000 
0.000000 21.000000 9.000000 
0.000000 21.000000 10.000000 
0.000000 21.000000 11.000000 
0.000000 21.000000 12.000000 
0.000000 21.000000 13.000000 
0.000000 21.000000 14.000000 
0.000000 21.000000 15.000000 
0.000000 21.000000 16.000000 
0.000000 21.000000 17.000000 
0.000000 21.000000 18.000000 
0.000000 21.000000 19.000000 
0.000000 21.000000 20.000000 
0.000000 21.000000 21.000000 
0.000000 21.000000 22.000000 
0.000000 21.000000 23.000000 
0.000000 21.000000 24.000000 
0.000000 21.000000 25.000000 
0.000000 21.000000 26.000000 
0.000000 21.000000 27.000000 
0.000000 21.000000 28.000000 
0.000000 21.000000 29.000000 
0.000000 21.000000 30.000000 
0.000000 21.000000 31.000000 
0.000000 21.000000 32.000000 
0.000000 21.000000 33.000000 
0.000000 21.000000 34.000000 
0.000000 21.000000 35.000000 
0.000000 21.000000 36.000000 
0.000000 21.000000 37.000000 
0.000000 21.000000 38.000000 
0.000000 21.000000 39.000000 
0.000000 21.000000 40.000000 
0.000000 21.000000 41.000000 
0.000000 21.000000 42.000000 
0.000000 21.000000 43.000000 
0.000000 21.000000 44.000000 
0.000000 21.000000 45.000000 
0.000000 21.000000 46.000000 
0.000000 21.000000 47.000000 
0.000000 21.000000 48.000000 
0.000000 21.000000 49.000000 
0.000000 21.000000 50.000000 
0.000000 21.000000 51.000000 
0.000000 21.000000 52.000000 
0.000000 21.000000 53.000000 
0.000000 21.000000 54.000000 
0.000000 21.000000 55.000000 
0.000000 21.000000 56.000000 
0.000000 21.000000 57.000000 
0.000000 21.000000 58.000000 
0.000000 21.000000 59.000000 
0.000000 21.000000 60.000000 
0.000000 21.000000 61.000000 
0.000000 21.000000 62.000000 
0.000000 21.000000 63.000000 
0.000000 21.000000 64.000000 
0.000000 21.000000 65.000000 
0.000000 21.000000 66.000000 
0.000000 21.000000 67.000000 
0.000000 21.000000 68.000000 
0.000000 21.000000 69.000000 
0.000000 21.000000 70.000000 
0.000000 21.000000 71.000000 
0.000000 21.000000 72.000000 
0.000000 21.000000 73.000000 
0.000000 21.000000 74.000000 
0.000000 21.000000 75.000000 
0.000000 21.000000 76.000000 
0.000000 21.000000 77.000000 
0.000000 21.000000 78.000000 
0.000000 21.000000 79.000000 
0.000000 21.000000 80.000000 
0.000000 21.000000 81.000000 
0.000000 21.000000 82.000000 
0.000000 21.000000 83.000000 
0.000000 21.000000 84.000000 
0.000000 21.000000 85.000000 
0.000000 21.000000 86.000000 
0.000000 21.000000 87.000000 
0.000000 21.000000 88.000000 
0.000000 21.000000 89.000000 
0.000000 21.000000 90.000000 
0.000000 21.000000 91.000000 
0.000000 21.000000 92.000000 
0.000000 21.000000 93.000000 
0.000000 21.000000 94.000000 
0.000000 21.000000 95.000000 
0.000000 21.000000 96.000000 
0.000000 21.000000 97.000000 
0.000000 21.000000 98.000000 
0.000000 21.000000 99.000000 
0.000000 21.000000 100.000000 
0.000000 22.000000 0.000000 
0.000000 22.000000 1.000000 
0.000000 22.000000 2.000000 
0.000000 22.000000 3.000000 
0.000000 22.000000 4.000000 
0.000000 22.000000 5.000000 
0.000000 22.000000 6.000000 
0.000000 22.000000 7.000000 
0.000000 22.000000 8.000000 
0.000000 22.000000 9.000000 
0.000000 22.000000 10.000000 
0.000000 22.000000 11.000000 
0.000000 22.000000 12.000000 
0.000000 22.000000 13.000000 
0.000000 22.000000 14.000000 
0.000000 22.000000 15.000000 
0.000000 22.000000 16.000000 
0.000000 22.000000 17.000000 
0.000000 22.000000 18.000000 
0.000000 22.000000 19.000000 
0.000000 22.000000 20.000000 
0.000000 22.000000 21.000000 
0.000000 22.000000 22.000000 
0.000000 22.000000 23.000000 
0.000000 22.000000 24.000000 
0.000000 22.000000 25.000000 
0.000000 22.000000 26.000000 
0.000000 22.000000 27.000000 
0.000000 22.000000 28.000000 
0.000000 22.000000 29.000000 
0.000000 22.000000 30.000000 
0.000000 22.000000 31.000000 
0.000000 22.000000 32.000000 
0.000000 22.000000 33.000000 
0.000000 22.000000 34.000000 
0.000000 22.000000 35.000000 
0.000000 22.000000 36.000000 
0.000000 22.000000 37.000000 
0.000000 22.000000 38.000000 
0.000000 22.000000 39.000000 
0.000000 22.000000 40.000000 
0.000000 22.000000 41.000000 
0.000000 22.000000 42.000000 
0.000000 22.000000 43.000000 
0.000000 22.000000 44.000000 
0.000000 22.000000 45.000000 
0.000000 22.000000 46.000000 
0.000000 22.000000 47.000000 
0.000000 22.000000 48.000000 
0.000000 22.000000 49.000000 
0.000000 22.000000 50.000000 
0.000000 22.000000 51.000000 
0.000000 22.000000 52.000000 
0.000000 22.000000 53.000000 
0.000000 22.000000 54.000000 
0.000000 22.000000 55.000000 
0.000000 22.000000 56.000000 
0.000000 22.000000 57.000000 
0.000000 22.000000 58.000000 
0.000000 22.000000 59.000000 
0.000000 22.000000 60.000000 
0.000000 22.000000 61.000000 
0.000000 22.000000 62.000000 
0.000000 22.000000 63.000000 
0.000000 22.000000 64.000000 
0.000000 22.000000 65.000000 
0.000000 22.000000 66.000000 
0.000000 22.000000 67.000000 
0.000000 22.000000 68.000000 
0.000000 22.000000 69.000000 
0.000000 22.000000 70.000000 
0.000000 22.000000 71.000000 
0.000000 22.000000 72.000000 
0.000000 22.000000 73.000000 
0.000000 22.000000 74.000000 
0.000000 22.000000 75.000000 
0.000000 22.000000 76.000000 
0.000000 22.000000 77.000000 
0.000000 22.000000 78.000000 
0.000000 22.000000 79.000000 
0.000000 22.000000 80.000000 
0.000000 22.000000 81.000000 
0.000000 22.000000 82.000000 
0.000000 22.000000 83.000000 
0.000000 22.000000 84.000000 
0.000000 22.000000 85.000000 
0.000000 22.000000 86.000000 
0.000000 22.000000 87.000000 
0.000000 22.000000 88.000000 
0.000000 22.000000 89.000000 
0.000000 22.000000 90.000000 
0.000000 22.000000 91.000000 
0.000000 22.000000 92.000000 
0.000000 22.000000 93.000000 
0.000000 22.000000 94.000000 
0.000000 22.000000 95.000000 
0.000000 22.000000 96.000000 
0.000000 22.000000 97.000000 
0.000000 22.000000 98.000000 
0.000000 22.000000 99.000000 
0.000000 22.000000 100.000000 
0.000000 23.000000 0.000000 
0.000000 23.000000 1.000000 
0.000000 23.000000 2.000000 
0.000000 23.000000 3.000000 
0.000000 23.000000 4.000000 
0.000000 23.000000 5.000000 
0.000000 23.000000 6.000000 
0.000000 23.000000 7.000000 
0.000000 23.000000 8.000000 
0.000000 23.000000 9.000000 
0.000000 23.000000 10.000000 
0.000000 23.000000 11.000000 
0.000000 23.000000 12.000000 
0.000000 23.000000 13.000000 
0.000000 23.000000 14.000000 
0.000000 23.000000 15.000000 
0.000000 23.000000 16.000000 
0.000000 23.000000 17.000000 
0.000000 23.000000 18.000000 
0.000000 23.000000 19.000000 
0.000000 23.000000 20.000000 
0.000000 23.000000 21.000000 
0.000000 23.000000 22.000000 
0.000000 23.000000 23.000000 
0.000000 23.000000 24.000000 
0.000000 23.000000 25.000000 
0.000000 23.000000 26.000000 
0.000000 23.000000 27.000000 
0.000000 23.000000 28.000000 
0.000000 23.000000 29.000000 
0.000000 23.000000 30.000000 
0.000000 23.000000 31.000000 
0.000000 23.000000 32.000000 
0.000000 23.000000 33.000000 
0.000000 23.000000 34.000000 
0.000000 23.000000 35.000000 
0.000000 23.000000 36.000000 
0.000000 23.000000 37.000000 
0.000000 23.000000 38.000000 
0.000000 23.000000 39.000000 
0.000000 23.000000 40.000000 
0.000000 23.000000 41.000000 
0.000000 23.000000 42.000000 
0.000000 23.000000 43.000000 
0.000000 23.000000 44.000000 
0.000000 23.000000 45.000000 
0.000000 23.000000 46.000000 
0.000000 23.000000 47.000000 
0.000000 23.000000 48.000000 
0.000000 23.000000 49.000000 
0.000000 23.000000 50.000000 
0.000000 23.000000 51.000000 
0.000000 23.000000 52.000000 
0.000000 23.000000 53.000000 
0.000000 23.000000 54.000000 
0.000000 23.000000 55.000000 
0.000000 23.000000 56.000000 
0.000000 23.000000 57.000000 
0.000000 23.000000 58.000000 
0.000000 23.000000 59.000000 
0.000000 23.000000 60.000000 
0.000000 23.000000 61.000000 
0.000000 23.000000 62.000000 
0.000000 23.000000 63.000000 
0.000000 23.000000 64.000000 
0.000000 23.000000 65.000000 
0.000000 23.000000 66.000000 
0.000000 23.000000 67.000000 
0.000000 23.000000 68.000000 
0.000000 23.000000 69.000000 
0.000000 23.000000 70.000000 
0.000000 23.000000 71.000000 
0.000000 23.000000 72.000000 
0.000000 23.000000 73.000000 
0.000000 23.000000 74.000000 
0.000000 23.000000 75.000000 
0.000000 23.000000 76.000000 
0.000000 23.000000 77.000000 
0.000000 23.000000 78.000000 
0.000000 23.000000 79.000000 
0.000000 23.000000 80.000000 
0.000000 23.000000 81.000000 
0.000000 23.000000 82.000000 
0.000000 23.000000 83.000000 
0.000000 23.000000 84.000000 
0.000000 23.000000 85.000000 
0.000000 23.000000 86.000000 
0.000000 23.000000 87.000000 
0.000000 23.000000 88.000000 
0.000000 23.000000 89.000000 
0.000000 23.000000 90.000000 
0.000000 23.000000 91.000000 
0.000000 23.000000 92.000000 
0.000000 23.000000 93.000000 
0.000000 23.000000 94.000000 
0.000000 23.000000 95.000000 
0.000000 23.000000 96.000000 
0.000000 23.000000 97.000000 
0.000000 23.000000 98.000000 
0.000000 23.000000 99.000000 
0.000000 23.000000 100.000000 
0.000000 24.000000 0.000000 
0.000000 24.000000 1.000000 
0.000000 24.000000 2.000000 
0.000000 24.000000 3.000000 
0.000000 24.000000 4.000000 
0.000000 24.000000 5.000000 
0.000000 24.000000 6.000000 
0.000000 24.000000 7.000000 
0.000000 24.000000 8.000000 
0.000000 24.000000 9.000000 
0.000000 24.000000 10.000000 
0.000000 24.000000 11.000000 
0.000000 24.000000 12.000000 
0.000000 24.000000 13.000000 
0.000000 24.000000 14.000000 
0.000000 24.000000 15.000000 
0.000000 24.000000 16.000000 
0.000000 24.000000 17.000000 
0.000000 24.000000 18.000000 
0.000000 24.000000 19.000000 
0.000000 24.000000 20.000000 
0.000000 24.000000 21.000000 
0.000000 24.000000 22.000000 
0.000000 24.000000 23.000000 
0.000000 24.000000 24.000000 
0.000000 24.000000 25.000000 
0.000000 24.000000 26.000000 
0.000000 24.000000 27.000000 
0.000000 24.000000 28.000000 
0.000000 24.000000 29.000000 
0.000000 24.000000 30.000000 
0.000000 24.000000 31.000000 
0.000000 24.000000 32.000000 
0.000000 24.000000 33.000000 
0.000000 24.000000 34.000000 
0.000000 24.000000 35.000000 
0.000000 24.000000 36.000000 
0.000000 24.000000 37.000000 
0.000000 24.000000 38.000000 
0.000000 24.000000 39.000000 
0.000000 24.000000 40.000000 
0.000000 24.000000 41.000000 
0.000000 24.000000 42.000000 
0.000000 24.000000 43.000000 
0.000000 24.000000 44.000000 
0.000000 24.000000 45.000000 
0.000000 24.000000 46.000000 
0.000000 24.000000 47.000000 
0.000000 24.000000 48.000000 
0.000000 24.000000 49.000000 
0.000000 24.000000 50.000000 
0.000000 24.000000 51.000000 
0.000000 24.000000 52.000000 
0.000000 24.000000 53.000000 
0.000000 24.000000 54.000000 
0.000000 24.000000 55.000000 
0.000000 24.000000 56.000000 
0.000000 24.000000 57.000000 
0.000000 24.000000 58.000000 
0.000000 24.000000 59.000000 
0.000000 24.000000 60.000000 
0.000000 24.000000 61.000000 
0.000000 24.000000 62.000000 
0.000000 24.000000 63.000000 
0.000000 24.000000 64.000000 
0.000000 24.000000 65.000000 
0.000000 24.000000 66.000000 
0.000000 24.000000 67.000000 
0.000000 24.000000 68.000000 
0.000000 24.000000 69.000000 
0.000000 24.000000 70.000000 
0.000000 24.000000 71.000000 
0.000000 24.000000 72.000000 
0.000000 24.000000 73.000000 
0.000000 24.000000 74.000000 
0.000000 24.000000 75.000000 
0.000000 24.000000 76.000000 
0.000000 24.000000 77.000000 
0.000000 24.000000 78.000000 
0.000000 24.000000 79.000000 
0.000000 24.000000 80.000000 
0.000000 24.000000 81.000000 
0.000000 24.000000 82.000000 
0.000000 24.000000 83.000000 
0.000000 24.000000 84.000000 
0.000000 24.000000 85.000000 
0.000000 24.000000 86.000000 
0.000000 24.000000 87.000000 
0.000000 24.000000 88.000000 
0.000000 24.000000 89.000000 
0.000000 24.000000 90.000000 
0.000000 24.000000 91.000000 
0.000000 24.000000 92.000000 
0.000000 24.000000 93.000000 
0.000000 24.000000 94.000000 
0.000000 24.000000 95.000000 
0.000000 24.000000 96.000000 
0.000000 24.000000 97.000000 
0.000000 24.000000 98.000000 
0.000000 24.000000 99.000000 
0.000000 24.000000 100.000000 
0.000000 25.000000 0.000000 
0.000000 25.000000 1.000000 
0.000000 25.000000 2.000000 
0.000000 25.000000 3.000000 
0.000000 25.000000 4.000000 
0.000000 25.000000 5.000000 
0.000000 25.000000 6.000000 
0.000000 25.000000 7.000000 
0.000000 25.000000 8.000000 
0.000000 25.000000 9.000000 
0.000000 25.000000 10.000000 
0.000000 25.000000 11.000000 
0.000000 25.000000 12.000000 
0.000000 25.000000 13.000000 
0.000000 25.000000 14.000000 
0.000000 25.000000 15.000000 
0.000000 25.000000 16.000000 
0.000000 25.000000 17.000000 
0.000000 25.000000 18.000000 
0.000000 25.000000 19.000000 
0.000000 25.000000 20.000000 
0.000000 25.000000 21.000000 
0.000000 25.000000 22.000000 
0.000000 25.000000 23.000000 
0.000000 25.000000 24.000000 
0.000000 25.000000 25.000000 
0.000000 25.000000 26.000000 
0.000000 25.000000 27.000000 
0.000000 25.000000 28.000000 
0.000000 25.000000 29.000000 
0.000000 25.000000 30.000000 
0.000000 25.000000 31.000000 
0.000000 25.000000 32.000000 
0.000000 25.000000 33.000000 
0.000000 25.000000 34.000000 
0.000000 25.000000 35.000000 
0.000000 25.000000 36.000000 
0.000000 25.000000 37.000000 
0.000000 25.000000 38.000000 
0.000000 25.000000 39.000000 
0.000000 25.000000 40.000000 
0.000000 25.000000 41.000000 
0.000000 25.000000 42.000000 
0.000000 25.000000 43.000000 
0.000000 25.000000 44.000000 
0.000000 25.000000 45.000000 
0.000000 25.000000 46.000000 
0.000000 25.000000 47.000000 
0.000000 25.000000 48.000000 
0.000000 25.000000 49.000000 
0.000000 25.000000 50.000000 
0.000000 25.000000 51.000000 
0.000000 25.000000 52.000000 
0.000000 25.000000 53.000000 
0.000000 25.000000 54.000000 
0.000000 25.000000 55.000000 
0.000000 25.000000 56.000000 
0.000000 25.000000 57.000000 
0.000000 25.000000 58.000000 
0.000000 25.000000 59.000000 
0.000000 25.000000 60.000000 
0.000000 25.000000 61.000000 
0.000000 25.000000 62.000000 
0.000000 25.000000 63.000000 
0.000000 25.000000 64.000000 
0.000000 25.000000 65.000000 
0.000000 25.000000 66.000000 
0.000000 25.000000 67.000000 
0.000000 25.000000 68.000000 
0.000000 25.000000 69.000000 
0.000000 25.000000 70.000000 
0.000000 25.000000 71.000000 
0.000000 25.000000 72.000000 
0.000000 25.000000 73.000000 
0.000000 25.000000 74.000000 
0.000000 25.000000 75.000000 
0.000000 25.000000 76.000000 
0.000000 25.000000 77.000000 
0.000000 25.000000 78.000000 
0.000000 25.000000 79.000000 
0.000000 25.000000 80.000000 
0.000000 25.000000 81.000000 
0.000000 25.000000 82.000000 
0.000000 25.000000 83.000000 
0.000000 25.000000 84.000000 
0.000000 25.000000 85.000000 
0.000000 25.000000 86.000000 
0.000000 25.000000 87.000000 
0.000000 25.000000 88.000000 
0.000000 25.000000 89.000000 
0.000000 25.000000 90.000000 
0.000000 25.000000 91.000000 
0.000000 25.000000 92.000000 
0.000000 25.000000 93.000000 
0.000000 25.000000 94.000000 
0.000000 25.000000 95.000000 
0.000000 25.000000 96.000000 
0.000000 25.000000 97.000000 
0.000000 25.000000 98.000000 
0.000000 25.000000 99.000000 
0.000000 25.000000 100.000000 
0.000000 26.000000 0.000000 
0.000000 26.000000 1.000000 
0.000000 26.000000 2.000000 
0.000000 26.000000 3.000000 
0.000000 26.000000 4.000000 
0.000000 26.000000 5.000000 
0.000000 26.000000 6.000000 
0.000000 26.000000 7.000000 
0.000000 26.000000 8.000000 
0.000000 26.000000 9.000000 
0.000000 26.000000 10.000000 
0.000000 26.000000 11.000000 
0.000000 26.000000 12.000000 
0.000000 26.000000 13.000000 
0.000000 26.000000 14.000000 
0.000000 26.000000 15.000000 
0.000000 26.000000 16.000000 
0.000000 26.000000 17.000000 
0.000000 26.000000 18.000000 
0.000000 26.000000 19.000000 
0.000000 26.000000 20.000000 
0.000000 26.000000 21.000000 
0.000000 26.000000 22.000000 
0.000000 26.000000 23.000000 
0.000000 26.000000 24.000000 
0.000000 26.000000 25.000000 
0.000000 26.000000 26.000000 
0.000000 26.000000 27.000000 
0.000000 26.000000 28.000000 
0.000000 26.000000 29.000000 
0.000000 26.000000 30.000000 
0.000000 26.000000 31.000000 
0.000000 26.000000 32.000000 
0.000000 26.000000 33.000000 
0.000000 26.000000 34.000000 
0.000000 26.000000 35.000000 
0.000000 26.000000 36.000000 
0.000000 26.000000 37.000000 
0.000000 26.000000 38.000000 
0.000000 26.000000 39.000000 
0.000000 26.000000 40.000000 
0.000000 26.000000 41.000000 
0.000000 26.000000 42.000000 
0.000000 26.000000 43.000000 
0.000000 26.000000 44.000000 
0.000000 26.000000 45.000000 
0.000000 26.000000 46.000000 
0.000000 26.000000 47.000000 
0.000000 26.000000 48.000000 
0.000000 26.000000 49.000000 
0.000000 26.000000 50.000000 
0.000000 26.000000 51.000000 
0.000000 26.000000 52.000000 
0.000000 26.000000 53.000000 
0.000000 26.000000 54.000000 
0.000000 26.000000 55.000000 
0.000000 26.000000 56.000000 
0.000000 26.000000 57.000000 
0.000000 26.000000 58.000000 
0.000000 26.000000 59.000000 
0.000000 26.000000 60.000000 
0.000000 26.000000 61.000000 
0.000000 26.000000 62.000000 
0.000000 26.000000 63.000000 
0.000000 26.000000 64.000000 
0.000000 26.000000 65.000000 
0.000000 26.000000 66.000000 
0.000000 26.000000 67.000000 
0.000000 26.000000 68.000000 
0.000000 26.000000 69.000000 
0.000000 26.000000 70.000000 
0.000000 26.000000 71.000000 
0.000000 26.000000 72.000000 
0.000000 26.000000 73.000000 
0.000000 26.000000 74.000000 
0.000000 26.000000 75.000000 
0.000000 26.000000 76.000000 
0.000000 26.000000 77.000000 
0.000000 26.000000 78.000000 
0.000000 26.000000 79.000000 
0.000000 26.000000 80.000000 
0.000000 26.000000 81.000000 
0.000000 26.000000 82.000000 
0.000000 26.000000 83.000000 
0.000000 26.000000 84.000000 
0.000000 26.000000 85.000000 
0.000000 26.000000 86.000000 
0.000000 26.000000 87.000000 
0.000000 26.000000 88.000000 
0.000000 26.000000 89.000000 
0.000000 26.000000 90.000000 
0.000000 26.000000 91.000000 
0.000000 26.000000 92.000000 
0.000000 26.000000 93.000000 
0.000000 26.000000 94.000000 
0.000000 26.000000 95.000000 
0.000000 26.000000 96.000000 
0.000000 26.000000 97.000000 
0.000000 26.000000 98.000000 
0.000000 26.000000 99.000000 
0.000000 26.000000 100.000000 
0.000000 27.000000 0.000000 
0.000000 27.000000 1.000000 
0.000000 27.000000 2.000000 
0.000000 27.000000 3.000000 
0.000000 27.000000 4.000000 
0.000000 27.000000 5.000000 
0.000000 27.000000 6.000000 
0.000000 27.000000 7.000000 
0.000000 27.000000 8.000000 
0.000000 27.000000 9.000000 
0.000000 27.000000 10.000000 
0.000000 27.000000 11.000000 
0.000000 27.000000 12.000000 
0.000000 27.000000 13.000000 
0.000000 27.000000 14.000000 
0.000000 27.000000 15.000000 
0.000000 27.000000 16.000000 
0.000000 27.000000 17.000000 
0.000000 27.000000 18.000000 
0.000000 27.000000 19.000000 
0.000000 27.000000 20.000000 
0.000000 27.000000 21.000000 
0.000000 27.000000 22.000000 
0.000000 27.000000 23.000000 
0.000000 27.000000 24.000000 
0.000000 27.000000 25.000000 
0.000000 27.000000 26.000000 
0.000000 27.000000 27.000000 
0.000000 27.000000 28.000000 
0.000000 27.000000 29.000000 
0.000000 27.000000 30.000000 
0.000000 27.000000 31.000000 
0.000000 27.000000 32.000000 
0.000000 27.000000 33.000000 
0.000000 27.000000 34.000000 
0.000000 27.000000 35.000000 
0.000000 27.000000 36.000000 
0.000000 27.000000 37.000000 
0.000000 27.000000 38.000000 
0.000000 27.000000 39.000000 
0.000000 27.000000 40.000000 
0.000000 27.000000 41.000000 
0.000000 27.000000 42.000000 
0.000000 27.000000 43.000000 
0.000000 27.000000 44.000000 
0.000000 27.000000 45.000000 
0.000000 27.000000 46.000000 
0.000000 27.000000 47.000000 
0.000000 27.000000 48.000000 
0.000000 27.000000 49.000000 
0.000000 27.000000 50.000000 
0.000000 27.000000 51.000000 
0.000000 27.000000 52.000000 
0.000000 27.000000 53.000000 
0.000000 27.000000 54.000000 
0.000000 27.000000 55.000000 
0.000000 27.000000 56.000000 
0.000000 27.000000 57.000000 
0.000000 27.000000 58.000000 
0.000000 27.000000 59.000000 
0.000000 27.000000 60.000000 
0.000000 27.000000 61.000000 
0.000000 27.000000 62.000000 
0.000000 27.000000 63.000000 
0.000000 27.000000 64.000000 
0.000000 27.000000 65.000000 
0.000000 27.000000 66.000000 
0.000000 27.000000 67.000000 
0.000000 27.000000 68.000000 
0.000000 27.000000 69.000000 
0.000000 27.000000 70.000000 
0.000000 27.000000 71.000000 
0.000000 27.000000 72.000000 
0.000000 27.000000 73.000000 
0.000000 27.000000 74.000000 
0.000000 27.000000 75.000000 
0.000000 27.000000 76.000000 
0.000000 27.000000 77.000000 
0.000000 27.000000 78.000000 
0.000000 27.000000 79.000000 
0.000000 27.000000 80.000000 
0.000000 27.000000 81.000000 
0.000000 27.000000 82.000000 
0.000000 27.000000 83.000000 
0.000000 27.000000 84.000000 
0.000000 27.000000 85.000000 
0.000000 27.000000 86.000000 
0.000000 27.000000 87.000000 
0.000000 27.000000 88.000000 
0.000000 27.000000 89.000000 
0.000000 27.000000 90.000000 
0.000000 27.000000 91.000000 
0.000000 27.000000 92.000000 
0.000000 27.000000 93.000000 
0.000000 27.000000 94.000000 
0.000000 27.000000 95.000000 
0.000000 27.000000 96.000000 
0.000000 27.000000 97.000000 
0.000000 27.000000 98.000000 
0.000000 27.000000 99.000000 
0.000000 27.000000 100.000000 
0.000000 28.000000 0.000000 
0.000000 28.000000 1.000000 
0.000000 28.000000 2.000000 
0.000000 28.000000 3.000000 
0.000000 28.000000 4.000000 
0.000000 28.000000 5.000000 
0.000000 28.000000 6.000000 
0.000000 28.000000 7.000000 
0.000000 28.000000 8.000000 
0.000000 28.000000 9.000000 
0.000000 28.000000 10.000000 
0.000000 28.000000 11.000000 
0.000000 28.000000 12.000000 
0.000000 28.000000 13.000000 
0.000000 28.000000 14.000000 
0.000000 28.000000 15.000000 
0.000000 28.000000 16.000000 
0.000000 28.000000 17.000000 
0.000000 28.000000 18.000000 
0.000000 28.000000 19.000000 
0.000000 28.000000 20.000000 
0.000000 28.000000 21.000000 
0.000000 28.000000 22.000000 
0.000000 28.000000 23.000000 
0.000000 28.000000 24.000000 
0.000000 28.000000 25.000000 
0.000000 28.000000 26.000000 
0.000000 28.000000 27.000000 
0.000000 28.000000 28.000000 
0.000000 28.000000 29.000000 
0.000000 28.000000 30.000000 
0.000000 28.000000 31.000000 
0.000000 28.000000 32.000000 
0.000000 28.000000 33.000000 
0.000000 28.000000 34.000000 
0.000000 28.000000 35.000000 
0.000000 28.000000 36.000000 
0.000000 28.000000 37.000000 
0.000000 28.000000 38.000000 
0.000000 28.000000 39.000000 
0.000000 28.000000 40.000000 
0.000000 28.000000 41.000000 
0.000000 28.000000 42.000000 
0.000000 28.000000 43.000000 
0.000000 28.000000 44.000000 
0.000000 28.000000 45.000000 
0.000000 28.000000 46.000000 
0.000000 28.000000 47.000000 
0.000000 28.000000 48.000000 
0.000000 28.000000 49.000000 
0.000000 28.000000 50.000000 
0.000000 28.000000 51.000000 
0.000000 28.000000 52.000000 
0.000000 28.000000 53.000000 
0.000000 28.000000 54.000000 
0.000000 28.000000 55.000000 
0.000000 28.000000 56.000000 
0.000000 28.000000 57.000000 
0.000000 28.000000 58.000000 
0.000000 28.000000 59.000000 
0.000000 28.000000 60.000000 
0.000000 28.000000 61.000000 
0.000000 28.000000 62.000000 
0.000000 28.000000 63.000000 
0.000000 28.000000 64.000000 
0.000000 28.000000 65.000000 
0.000000 28.000000 66.000000 
0.000000 28.000000 67.000000 
0.000000 28.000000 68.000000 
0.000000 28.000000 69.000000 
0.000000 28.000000 70.000000 
0.000000 28.000000 71.000000 
0.000000 28.000000 72.000000 
0.000000 28.000000 73.000000 
0.000000 28.000000 74.000000 
0.000000 28.000000 75.000000 
0.000000 28.000000 76.000000 
0.000000 28.000000 77.000000 
0.000000 28.000000 78.000000 
0.000000 28.000000 79.000000 
0.000000 28.000000 80.000000 
0.000000 28.000000 81.000000 
0.000000 28.000000 82.000000 
0.000000 28.000000 83.000000 
0.000000 28.000000 84.000000 
0.000000 28.000000 85.000000 
0.000000 28.000000 86.000000 
0.000000 28.000000 87.000000 
0.000000 28.000000 88.000000 
0.000000 28.000000 89.000000 
0.000000 28.000000 90.000000 
0.000000 28.000000 91.000000 
0.000000 28.000000 92.000000 
0.000000 28.000000 93.000000 
0.000000 28.000000 94.000000 
0.000000 28.000000 95.000000 
0.000000 28.000000 96.000000 
0.000000 28.000000 97.000000 
0.000000 28.000000 98.000000 
0.000000 28.000000 99.000000 
0.000000 28.000000 100.000000 
0.000000 29.000000 0.000000 
0.000000 29.000000 1.000000 
0.000000 29.000000 2.000000 
0.000000 29.000000 3.000000 
0.000000 29.000000 4.000000 
0.000000 29.000000 5.000000 
0.000000 29.000000 6.000000 
0.000000 29.000000 7.000000 
0.000000 29.000000 8.000000 
0.000000 29.000000 9.000000 
0.000000 29.000000 10.000000 
0.000000 29.000000 11.000000 
0.000000 29.000000 12.000000 
0.000000 29.000000 13.000000 
0.000000 29.000000 14.000000 
0.000000 29.000000 15.000000 
0.000000 29.000000 16.000000 
0.000000 29.000000 17.000000 
0.000000 29.000000 18.000000 
0.000000 29.000000 19.000000 
0.000000 29.000000 20.000000 
0.000000 29.000000 21.000000 
0.000000 29.000000 22.000000 
0.000000 29.000000 23.000000 
0.000000 29.000000 24.000000 
0.000000 29.000000 25.000000 
0.000000 29.000000 26.000000 
0.000000 29.000000 27.000000 
0.000000 29.000000 28.000000 
0.000000 29.000000 29.000000 
0.000000 29.000000 30.000000 
0.000000 29.000000 31.000000 
0.000000 29.000000 32.000000 
0.000000 29.000000 33.000000 
0.000000 29.000000 34.000000 
0.000000 29.000000 35.000000 
0.000000 29.000000 36.000000 
0.000000 29.000000 37.000000 
0.000000 29.000000 38.000000 
0.000000 29.000000 39.000000 
0.000000 29.000000 40.000000 
0.000000 29.000000 41.000000 
0.000000 29.000000 42.000000 
0.000000 29.000000 43.000000 
0.000000 29.000000 44.000000 
0.000000 29.000000 45.000000 
0.000000 29.000000 46.000000 
0.000000 29.000000 47.000000 
0.000000 29.000000 48.000000 
0.000000 29.000000 49.000000 
0.000000 29.000000 50.000000 
0.000000 29.000000 51.000000 
0.000000 29.000000 52.000000 
0.000000 29.000000 53.000000 
0.000000 29.000000 54.000000 
0.000000 29.000000 55.000000 
0.000000 29.000000 56.000000 
0.000000 29.000000 57.000000 
0.000000 29.000000 58.000000 
0.000000 29.000000 59.000000 
0.000000 29.000000 60.000000 
0.000000 29.000000 61.000000 
0.000000 29.000000 62.000000 
0.000000 29.000000 63.000000 
0.000000 29.000000 64.000000 
0.000000 29.000000 65.000000 
0.000000 29.000000 66.000000 
0.000000 29.000000 67.000000 
0.000000 29.000000 68.000000 
0.000000 29.000000 69.000000 
0.000000 29.000000 70.000000 
0.000000 29.000000 71.000000 
0.000000 29.000000 72.000000 
0.000000 29.000000 73.000000 
0.000000 29.000000 74.000000 
0.000000 29.000000 75.000000 
0.000000 29.000000 76.000000 
0.000000 29.000000 77.000000 
0.000000 29.000000 78.000000 
0.000000 29.000000 79.000000 
0.000000 29.000000 80.000000 
0.000000 29.000000 81.000000 
0.000000 29.000000 82.000000 
0.000000 29.000000 83.000000 
0.000000 29.000000 84.000000 
0.000000 29.000000 85.000000 
0.000000 29.000000 86.000000 
0.000000 29.000000 87.000000 
0.000000 29.000000 88.000000 
0.000000 29.000000 89.000000 
0.000000 29.000000 90.000000 
0.000000 29.000000 91.000000 
0.000000 29.000000 92.000000 
0.000000 29.000000 93.000000 
0.000000 29.000000 94.000000 
0.000000 29.000000 95.000000 
0.000000 29.000000 96.000000 
0.000000 29.000000 97.000000 
0.000000 29.000000 98.000000 
0.000000 29.000000 99.000000 
0.000000 29.000000 100.000000 
0.000000 30.000000 0.000000 
0.000000 30.000000 1.000000 
0.000000 30.000000 2.000000 
0.000000 30.000000 3.000000 
0.000000 30.000000 4.000000 
0.000000 30.000000 5.000000 
0.000000 30.000000 6.000000 
0.000000 30.000000 7.000000 
0.000000 30.000000 8.000000 
0.000000 30.000000 9.000000 
0.000000 30.000000 10.000000 
0.000000 30.000000 11.000000 
0.000000 30.000000 12.000000 
0.000000 30.000000 13.000000 
0.000000 30.000000 14.000000 
0.000000 30.000000 15.000000 
0.000000 30.000000 16.000000 
0.000000 30.000000 17.000000 
0.000000 30.000000 18.000000 
0.000000 30.000000 19.000000 
0.000000 30.000000 20.000000 
0.000000 30.000000 21.000000 
0.000000 30.000000 22.000000 
0.000000 30.000000 23.000000 
0.000000 30.000000 24.000000 
0.000000 30.000000 25.000000 
0.000000 30.000000 26.000000 
0.000000 30.000000 27.000000 
0.000000 30.000000 28.000000 
0.000000 30.000000 29.000000 
0.000000 30.000000 30.000000 
0.000000 30.000000 31.000000 
0.000000 30.000000 32.000000 
0.000000 30.000000 33.000000 
0.000000 30.000000 34.000000 
0.000000 30.000000 35.000000 
0.000000 30.000000 36.000000 
0.000000 30.000000 37.000000 
0.000000 30.000000 38.000000 
0.000000 30.000000 39.000000 
0.000000 30.000000 40.000000 
0.000000 30.000000 41.000000 
0.000000 30.000000 42.000000 
0.000000 30.000000 43.000000 
0.000000 30.000000 44.000000 
0.000000 30.000000 45.000000 
0.000000 30.000000 46.000000 
0.000000 30.000000 47.000000 
0.000000 30.000000 48.000000 
0.000000 30.000000 49.000000 
0.000000 30.000000 50.000000 
0.000000 30.000000 51.000000 
0.000000 30.000000 52.000000 
0.000000 30.000000 53.000000 
0.000000 30.000000 54.000000 
0.000000 30.000000 55.000000 
0.000000 30.000000 56.000000 
0.000000 30.000000 57.000000 
0.000000 30.000000 58.000000 
0.000000 30.000000 59.000000 
0.000000 30.000000 60.000000 
0.000000 30.000000 61.000000 
0.000000 30.000000 62.000000 
0.000000 30.000000 63.000000 
0.000000 30.000000 64.000000 
0.000000 30.000000 65.000000 
0.000000 30.000000 66.000000 
0.000000 30.000000 67.000000 
0.000000 30.000000 68.000000 
0.000000 30.000000 69.000000 
0.000000 30.000000 70.000000 
0.000000 30.000000 71.000000 
0.000000 30.000000 72.000000 
0.000000 30.000000 73.000000 
0.000000 30.000000 74.000000 
0.000000 30.000000 75.000000 
0.000000 30.000000 76.000000 
0.000000 30.000000 77.000000 
0.000000 30.000000 78.000000 
0.000000 30.000000 79.000000 
0.000000 30.000000 80.000000 
0.000000 30.000000 81.000000 
0.000000 30.000000 82.000000 
0.000000 30.000000 83.000000 
0.000000 30.000000 84.000000 
0.000000 30.000000 85.000000 
0.000000 30.000000 86.000000 
0.000000 30.000000 87.000000 
0.000000 30.000000 88.000000 
0.000000 30.000000 89.000000 
0.000000 30.000000 90.000000 
0.000000 30.000000 91.000000 
0.000000 30.000000 92.000000 
0.000000 30.000000 93.000000 
0.000000 30.000000 94.000000 
0.000000 30.000000 95.000000 
0.000000 30.000000 96.000000 
0.000000 30.000000 97.000000 
0.000000 30.000000 98.000000 
0.000000 30.000000 99.000000 
0.000000 30.000000 100.000000 
0.000000 31.000000 0.000000 
0.000000 31.000000 1.000000 
0.000000 31.000000 2.000000 
0.000000 31.000000 3.000000 
0.000000 31.000000 4.000000 
0.000000 31.000000 5.000000 
0.000000 31.000000 6.000000 
0.000000 31.000000 7.000000 
0.000000 31.000000 8.000000 
0.000000 31.000000 9.000000 
0.000000 31.000000 10.000000 
0.000000 31.000000 11.000000 
0.000000 31.000000 12.000000 
0.000000 31.000000 13.000000 
0.000000 31.000000 14.000000 
0.000000 31.000000 15.000000 
0.000000 31.000000 16.000000 
0.000000 31.000000 17.000000 
0.000000 31.000000 18.000000 
0.000000 31.000000 19.000000 
0.000000 31.000000 20.000000 
0.000000 31.000000 21.000000 
0.000000 31.000000 22.000000 
0.000000 31.000000 23.000000 
0.000000 31.000000 24.000000 
0.000000 31.000000 25.000000 
0.000000 31.000000 26.000000 
0.000000 31.000000 27.000000 
0.000000 31.000000 28.000000 
0.000000 31.000000 29.000000 
0.000000 31.000000 30.000000 
0.000000 31.000000 31.000000 
0.000000 31.000000 32.000000 
0.000000 31.000000 33.000000 
0.000000 31.000000 34.000000 
0.000000 31.000000 35.000000 
0.000000 31.000000 36.000000 
0.000000 31.000000 37.000000 
0.000000 31.000000 38.000000 
0.000000 31.000000 39.000000 
0.000000 31.000000 40.000000 
0.000000 31.000000 41.000000 
0.000000 31.000000 42.000000 
0.000000 31.000000 43.000000 
0.000000 31.000000 44.000000 
0.000000 31.000000 45.000000 
0.000000 31.000000 46.000000 
0.000000 31.000000 47.000000 
0.000000 31.000000 48.000000 
0.000000 31.000000 49.000000 
0.000000 31.000000 50.000000 
0.000000 31.000000 51.000000 
0.000000 31.000000 52.000000 
0.000000 31.000000 53.000000 
0.000000 31.000000 54.000000 
0.000000 31.000000 55.000000 
0.000000 31.000000 56.000000 
0.000000 31.000000 57.000000 
0.000000 31.000000 58.000000 
0.000000 31.000000 59.000000 
0.000000 31.000000 60.000000 
0.000000 31.000000 61.000000 
0.000000 31.000000 62.000000 
0.000000 31.000000 63.000000 
0.000000 31.000000 64.000000 
0.000000 31.000000 65.000000 
0.000000 31.000000 66.000000 
0.000000 31.000000 67.000000 
0.000000 31.000000 68.000000 
0.000000 31.000000 69.000000 
0.000000 31.000000 70.000000 
0.000000 31.000000 71.000000 
0.000000 31.000000 72.000000 
0.000000 31.000000 73.000000 
0.000000 31.000000 74.000000 
0.000000 31.000000 75.000000 
0.000000 31.000000 76.000000 
0.000000 31.000000 77.000000 
0.000000 31.000000 78.000000 
0.000000 31.000000 79.000000 
0.000000 31.000000 80.000000 
0.000000 31.000000 81.000000 
0.000000 31.000000 82.000000 
0.000000 31.000000 83.000000 
0.000000 31.000000 84.000000 
0.000000 31.000000 85.000000 
0.000000 31.000000 86.000000 
0.000000 31.000000 87.000000 
0.000000 31.000000 88.000000 
0.000000 31.000000 89.000000 
0.000000 31.000000 90.000000 
0.000000 31.000000 91.000000 
0.000000 31.000000 92.000000 
0.000000 31.000000 93.000000 
0.000000 31.000000 94.000000 
0.000000 31.000000 95.000000 
0.000000 31.000000 96.000000 
0.000000 31.000000 97.000000 
0.000000 31.000000 98.000000 
0.000000 31.000000 99.000000 
0.000000 31.000000 100.000000 
0.000000 32.000000 0.000000 
0.000000 32.000000 1.000000 
0.000000 32.000000 2.000000 
0.000000 32.000000 3.000000 
0.000000 32.000000 4.000000 
0.000000 32.000000 5.000000 
0.000000 32.000000 6.000000 
0.000000 32.000000 7.000000 
0.000000 32.000000 8.000000 
0.000000 32.000000 9.000000 
0.000000 32.000000 10.000000 
0.000000 32.000000 11.000000 
0.000000 32.000000 12.000000 
0.000000 32.000000 13.000000 
0.000000 32.000000 14.000000 
0.000000 32.000000 15.000000 
0.000000 32.000000 16.000000 
0.000000 32.000000 17.000000 
0.000000 32.000000 18.000000 
0.000000 32.000000 19.000000 
0.000000 32.000000 20.000000 
0.000000 32.000000 21.000000 
0.000000 32.000000 22.000000 
0.000000 32.000000 23.000000 
0.000000 32.000000 24.000000 
0.000000 32.000000 25.000000 
0.000000 32.000000 26.000000 
0.000000 32.000000 27.000000 
0.000000 32.000000 28.000000 
0.000000 32.000000 29.000000 
0.000000 32.000000 30.000000 
0.000000 32.000000 31.000000 
0.000000 32.000000 32.000000 
0.000000 32.000000 33.000000 
0.000000 32.000000 34.000000 
0.000000 32.000000 35.000000 
0.000000 32.000000 36.000000 
0.000000 32.000000 37.000000 
0.000000 32.000000 38.000000 
0.000000 32.000000 39.000000 
0.000000 32.000000 40.000000 
0.000000 32.000000 41.000000 
0.000000 32.000000 42.000000 
0.000000 32.000000 43.000000 
0.000000 32.000000 44.000000 
0.000000 32.000000 45.000000 
0.000000 32.000000 46.000000 
0.000000 32.000000 47.000000 
0.000000 32.000000 48.000000 
0.000000 32.000000 49.000000 
0.000000 32.000000 50.000000 
0.000000 32.000000 51.000000 
0.000000 32.000000 52.000000 
0.000000 32.000000 53.000000 
0.000000 32.000000 54.000000 
0.000000 32.000000 55.000000 
0.000000 32.000000 56.000000 
0.000000 32.000000 57.000000 
0.000000 32.000000 58.000000 
0.000000 32.000000 59.000000 
0.000000 32.000000 60.000000 
0.000000 32.000000 61.000000 
0.000000 32.000000 62.000000 
0.000000 32.000000 63.000000 
0.000000 32.000000 64.000000 
0.000000 32.000000 65.000000 
0.000000 32.000000 66.000000 
0.000000 32.000000 67.000000 
0.000000 32.000000 68.000000 
0.000000 32.000000 69.000000 
0.000000 32.000000 70.000000 
0.000000 32.000000 71.000000 
0.000000 32.000000 72.000000 
0.000000 32.000000 73.000000 
0.000000 32.000000 74.000000 
0.000000 32.000000 75.000000 
0.000000 32.000000 76.000000 
0.000000 32.000000 77.000000 
0.000000 32.000000 78.000000 
0.000000 32.000000 79.000000 
0.000000 32.000000 80.000000 
0.000000 32.000000 81.000000 
0.000000 32.000000 82.000000 
0.000000 32.000000 83.000000 
0.000000 32.000000 84.000000 
0.000000 32.000000 85.000000 
0.000000 32.000000 86.000000 
0.000000 32.000000 87.000000 
0.000000 32.000000 88.000000 
0.000000 32.000000 89.000000 
0.000000 32.000000 90.000000 
0.000000 32.000000 91.000000 
0.000000 32.000000 92.000000 
0.000000 32.000000 93.000000 
0.000000 32.000000 94.000000 
0.000000 32.000000 95.000000 
0.000000 32.000000 96.000000 
0.000000 32.000000 97.000000 
0.000000 32.000000 98.000000 
0.000000 32.000000 99.000000 
0.000000 32.000000 100.000000 
0.000000 33.000000 0.000000 
0.000000 33.000000 1.000000 
0.000000 33.000000 2.000000 
0.000000 33.000000 3.000000 
0.000000 33.000000 4.000000 
0.000000 33.000000 5.000000 
0.000000 33.000000 6.000000 
0.000000 33.000000 7.000000 
0.000000 33.000000 8.000000 
0.000000 33.000000 9.000000 
0.000000 33.000000 10.000000 
0.000000 33.000000 11.000000 
0.000000 33.000000 12.000000 
0.000000 33.000000 13.000000 
0.000000 33.000000 14.000000 
0.000000 33.000000 15.000000 
0.000000 33.000000 16.000000 
0.000000 33.000000 17.000000 
0.000000 33.000000 18.000000 
0.000000 33.000000 19.000000 
0.000000 33.000000 20.000000 
0.000000 33.000000 21.000000 
0.000000 33.000000 22.000000 
0.000000 33.000000 23.000000 
0.000000 33.000000 24.000000 
0.000000 33.000000 25.000000 
0.000000 33.000000 26.000000 
0.000000 33.000000 27.000000 
0.000000 33.000000 28.000000 
0.000000 33.000000 29.000000 
0.000000 33.000000 30.000000 
0.000000 33.000000 31.000000 
0.000000 33.000000 32.000000 
0.000000 33.000000 33.000000 
0.000000 33.000000 34.000000 
0.000000 33.000000 35.000000 
0.000000 33.000000 36.000000 
0.000000 33.000000 37.000000 
0.000000 33.000000 38.000000 
0.000000 33.000000 39.000000 
0.000000 33.000000 40.000000 
0.000000 33.000000 41.000000 
0.000000 33.000000 42.000000 
0.000000 33.000000 43.000000 
0.000000 33.000000 44.000000 
0.000000 33.000000 45.000000 
0.000000 33.000000 46.000000 
0.000000 33.000000 47.000000 
0.000000 33.000000 48.000000 
0.000000 33.000000 49.000000 
0.000000 33.000000 50.000000 
0.000000 33.000000 51.000000 
0.000000 33.000000 52.000000 
0.000000 33.000000 53.000000 
0.000000 33.000000 54.000000 
0.000000 33.000000 55.000000 
0.000000 33.000000 56.000000 
0.000000 33.000000 57.000000 
0.000000 33.000000 58.000000 
0.000000 33.000000 59.000000 
0.000000 33.000000 60.000000 
0.000000 33.000000 61.000000 
0.000000 33.000000 62.000000 
0.000000 33.000000 63.000000 
0.000000 33.000000 64.000000 
0.000000 33.000000 65.000000 
0.000000 33.000000 66.000000 
0.000000 33.000000 67.000000 
0.000000 33.000000 68.000000 
0.000000 33.000000 69.000000 
0.000000 33.000000 70.000000 
0.000000 33.000000 71.000000 
0.000000 33.000000 72.000000 
0.000000 33.000000 73.000000 
0.000000 33.000000 74.000000 
0.000000 33.000000 75.000000 
0.000000 33.000000 76.000000 
0.000000 33.000000 77.000000 
0.000000 33.000000 78.000000 
0.000000 33.000000 79.000000 
0.000000 33.000000 80.000000 
0.000000 33.000000 81.000000 
0.000000 33.000000 82.000000 
0.000000 33.000000 83.000000 
0.000000 33.000000 84.000000 
0.000000 33.000000 85.000000 
0.000000 33.000000 86.000000 
0.000000 33.000000 87.000000 
0.000000 33.000000 88.000000 
0.000000 33.000000 89.000000 
0.000000 33.000000 90.000000 
0.000000 33.000000 91.000000 
0.000000 33.000000 92.000000 
0.000000 33.000000 93.000000 
0.000000 33.000000 94.000000 
0.000000 33.000000 95.000000 
0.000000 33.000000 96.000000 
0.000000 33.000000 97.000000 
0.000000 33.000000 98.000000 
0.000000 33.000000 99.000000 
0.000000 33.000000 100.000000 
0.000000 34.000000 0.000000 
0.000000 34.000000 1.000000 
0.000000 34.000000 2.000000 
0.000000 34.000000 3.000000 
0.000000 34.000000 4.000000 
0.000000 34.000000 5.000000 
0.000000 34.000000 6.000000 
0.000000 34.000000 7.000000 
0.000000 34.000000 8.000000 
0.000000 34.000000 9.000000 
0.000000 34.000000 10.000000 
0.000000 34.000000 11.000000 
0.000000 34.000000 12.000000 
0.000000 34.000000 13.000000 
0.000000 34.000000 14.000000 
0.000000 34.000000 15.000000 
0.000000 34.000000 16.000000 
0.000000 34.000000 17.000000 
0.000000 34.000000 18.000000 
0.000000 34.000000 19.000000 
0.000000 34.000000 20.000000 
0.000000 34.000000 21.000000 
0.000000 34.000000 22.000000 
0.000000 34.000000 23.000000 
0.000000 34.000000 24.000000 
0.000000 34.000000 25.000000 
0.000000 34.000000 26.000000 
0.000000 34.000000 27.000000 
0.000000 34.000000 28.000000 
0.000000 34.000000 29.000000 
0.000000 34.000000 30.000000 
0.000000 34.000000 31.000000 
0.000000 34.000000 32.000000 
0.000000 34.000000 33.000000 
0.000000 34.000000 34.000000 
0.000000 34.000000 35.000000 
0.000000 34.000000 36.000000 
0.000000 34.000000 37.000000 
0.000000 34.000000 38.000000 
0.000000 34.000000 39.000000 
0.000000 34.000000 40.000000 
0.000000 34.000000 41.000000 
0.000000 34.000000 42.000000 
0.000000 34.000000 43.000000 
0.000000 34.000000 44.000000 
0.000000 34.000000 45.000000 
0.000000 34.000000 46.000000 
0.000000 34.000000 47.000000 
0.000000 34.000000 48.000000 
0.000000 34.000000 49.000000 
0.000000 34.000000 50.000000 
0.000000 34.000000 51.000000 
0.000000 34.000000 52.000000 
0.000000 34.000000 53.000000 
0.000000 34.000000 54.000000 
0.000000 34.000000 55.000000 
0.000000 34.000000 56.000000 
0.000000 34.000000 57.000000 
0.000000 34.000000 58.000000 
0.000000 34.000000 59.000000 
0.000000 34.000000 60.000000 
0.000000 34.000000 61.000000 
0.000000 34.000000 62.000000 
0.000000 34.000000 63.000000 
0.000000 34.000000 64.000000 
0.000000 34.000000 65.000000 
0.000000 34.000000 66.000000 
0.000000 34.000000 67.000000 
0.000000 34.000000 68.000000 
0.000000 34.000000 69.000000 
0.000000 34.000000 70.000000 
0.000000 34.000000 71.000000 
0.000000 34.000000 72.000000 
0.000000 34.000000 73.000000 
0.000000 34.000000 74.000000 
0.000000 34.000000 75.000000 
0.000000 34.000000 76.000000 
0.000000 34.000000 77.000000 
0.000000 34.000000 78.000000 
0.000000 34.000000 79.000000 
0.000000 34.000000 80.000000 
0.000000 34.000000 81.000000 
0.000000 34.000000 82.000000 
0.000000 34.000000 83.000000 
0.000000 34.000000 84.000000 
0.000000 34.000000 85.000000 
0.000000 34.000000 86.000000 
0.000000 34.000000 87.000000 
0.000000 34.000000 88.000000 
0.000000 34.000000 89.000000 
0.000000 34.000000 90.000000 
0.000000 34.000000 91.000000 
0.000000 34.000000 92.000000 
0.000000 34.000000 93.000000 
0.000000 34.000000 94.000000 
0.000000 34.000000 95.000000 
0.000000 34.000000 96.000000 
0.000000 34.000000 97.000000 
0.000000 34.000000 98.000000 
0.000000 34.000000 99.000000 
0.000000 34.000000 100.000000 
0.000000 35.000000 0.000000 
0.000000 35.000000 1.000000 
0.000000 35.000000 2.000000 
0.000000 35.000000 3.000000 
0.000000 35.000000 4.000000 
0.000000 35.000000 5.000000 
0.000000 35.000000 6.000000 
0.000000 35.000000 7.000000 
0.000000 35.000000 8.000000 
0.000000 35.000000 9.000000 
0.000000 35.000000 10.000000 
0.000000 35.000000 11.000000 
0.000000 35.000000 12.000000 
0.000000 35.000000 13.000000 
0.000000 35.000000 14.000000 
0.000000 35.000000 15.000000 
0.000000 35.000000 16.000000 
0.000000 35.000000 17.000000 
0.000000 35.000000 18.000000 
0.000000 35.000000 19.000000 
0.000000 35.000000 20.000000 
0.000000 35.000000 21.000000 
0.000000 35.000000 22.000000 
0.000000 35.000000 23.000000 
0.000000 35.000000 24.000000 
0.000000 35.000000 25.000000 
0.000000 35.000000 26.000000 
0.000000 35.000000 27.000000 
0.000000 35.000000 28.000000 
0.000000 35.000000 29.000000 
0.000000 35.000000 30.000000 
0.000000 35.000000 31.000000 
0.000000 35.000000 32.000000 
0.000000 35.000000 33.000000 
0.000000 35.000000 34.000000 
0.000000 35.000000 35.000000 
0.000000 35.000000 36.000000 
0.000000 35.000000 37.000000 
0.000000 35.000000 38.000000 
0.000000 35.000000 39.000000 
0.000000 35.000000 40.000000 
0.000000 35.000000 41.000000 
0.000000 35.000000 42.000000 
0.000000 35.000000 43.000000 
0.000000 35.000000 44.000000 
0.000000 35.000000 45.000000 
0.000000 35.000000 46.000000 
0.000000 35.000000 47.000000 
0.000000 35.000000 48.000000 
0.000000 35.000000 49.000000 
0.000000 35.000000 50.000000 
0.000000 35.000000 51.000000 
0.000000 35.000000 52.000000 
0.000000 35.000000 53.000000 
0.000000 35.000000 54.000000 
0.000000 35.000000 55.000000 
0.000000 35.000000 56.000000 
0.000000 35.000000 57.000000 
0.000000 35.000000 58.000000 
0.000000 35.000000 59.000000 
0.000000 35.000000 60.000000 
0.000000 35.000000 61.000000 
0.000000 35.000000 62.000000 
0.000000 35.000000 63.000000 
0.000000 35.000000 64.000000 
0.000000 35.000000 65.000000 
0.000000 35.000000 66.000000 
0.000000 35.000000 67.000000 
0.000000 35.000000 68.000000 
0.000000 35.000000 69.000000 
0.000000 35.000000 70.000000 
0.000000 35.000000 71.000000 
0.000000 35.000000 72.000000 
0.000000 35.000000 73.000000 
0.000000 35.000000 74.000000 
0.000000 35.000000 75.000000 
0.000000 35.000000 76.000000 
0.000000 35.000000 77.000000 
0.000000 35.000000 78.000000 
0.000000 35.000000 79.000000 
0.000000 35.000000 80.000000 
0.000000 35.000000 81.000000 
0.000000 35.000000 82.000000 
0.000000 35.000000 83.000000 
0.000000 35.000000 84.000000 
0.000000 35.000000 85.000000 
0.000000 35.000000 86.000000 
0.000000 35.000000 87.000000 
0.000000 35.000000 88.000000 
0.000000 35.000000 89.000000 
0.000000 35.000000 90.000000 
0.000000 35.000000 91.000000 
0.000000 35.000000 92.000000 
0.000000 35.000000 93.000000 
0.000000 35.000000 94.000000 
0.000000 35.000000 95.000000 
0.000000 35.000000 96.000000 
0.000000 35.000000 97.000000 
0.000000 35.000000 98.000000 
0.000000 35.000000 99.000000 
0.000000 35.000000 100.000000 
0.000000 36.000000 0.000000 
0.000000 36.000000 1.000000 
0.000000 36.000000 2.000000 
0.000000 36.000000 3.000000 
0.000000 36.000000 4.000000 
0.000000 36.000000 5.000000 
0.000000 36.000000 6.000000 
0.000000 36.000000 7.000000 
0.000000 36.000000 8.000000 
0.000000 36.000000 9.000000 
0.000000 36.000000 10.000000 
0.000000 36.000000 11.000000 
0.000000 36.000000 12.000000 
0.000000 36.000000 13.000000 
0.000000 36.000000 14.000000 
0.000000 36.000000 15.000000 
0.000000 36.000000 16.000000 
0.000000 36.000000 17.000000 
0.000000 36.000000 18.000000 
0.000000 36.000000 19.000000 
0.000000 36.000000 20.000000 
0.000000 36.000000 21.000000 
0.000000 36.000000 22.000000 
0.000000 36.000000 23.000000 
0.000000 36.000000 24.000000 
0.000000 36.000000 25.000000 
0.000000 36.000000 26.000000 
0.000000 36.000000 27.000000 
0.000000 36.000000 28.000000 
0.000000 36.000000 29.000000 
0.000000 36.000000 30.000000 
0.000000 36.000000 31.000000 
0.000000 36.000000 32.000000 
0.000000 36.000000 33.000000 
0.000000 36.000000 34.000000 
0.000000 36.000000 35.000000 
0.000000 36.000000 36.000000 
0.000000 36.000000 37.000000 
0.000000 36.000000 38.000000 
0.000000 36.000000 39.000000 
0.000000 36.000000 40.000000 
0.000000 36.000000 41.000000 
0.000000 36.000000 42.000000 
0.000000 36.000000 43.000000 
0.000000 36.000000 44.000000 
0.000000 36.000000 45.000000 
0.000000 36.000000 46.000000 
0.000000 36.000000 47.000000 
0.000000 36.000000 48.000000 
0.000000 36.000000 49.000000 
0.000000 36.000000 50.000000 
0.000000 36.000000 51.000000 
0.000000 36.000000 52.000000 
0.000000 36.000000 53.000000 
0.000000 36.000000 54.000000 
0.000000 36.000000 55.000000 
0.000000 36.000000 56.000000 
0.000000 36.000000 57.000000 
0.000000 36.000000 58.000000 
0.000000 36.000000 59.000000 
0.000000 36.000000 60.000000 
0.000000 36.000000 61.000000 
0.000000 36.000000 62.000000 
0.000000 36.000000 63.000000 
0.000000 36.000000 64.000000 
0.000000 36.000000 65.000000 
0.000000 36.000000 66.000000 
0.000000 36.000000 67.000000 
0.000000 36.000000 68.000000 
0.000000 36.000000 69.000000 
0.000000 36.000000 70.000000 
0.000000 36.000000 71.000000 
0.000000 36.000000 72.000000 
0.000000 36.000000 73.000000 
0.000000 36.000000 74.000000 
0.000000 36.000000 75.000000 
0.000000 36.000000 76.000000 
0.000000 36.000000 77.000000 
0.000000 36.000000 78.000000 
0.000000 36.000000 79.000000 
0.000000 36.000000 80.000000 
0.000000 36.000000 81.000000 
0.000000 36.000000 82.000000 
0.000000 36.000000 83.000000 
0.000000 36.000000 84.000000 
0.000000 36.000000 85.000000 
0.000000 36.000000 86.000000 
0.000000 36.000000 87.000000 
0.000000 36.000000 88.000000 
0.000000 36.000000 89.000000 
0.000000 36.000000 90.000000 
0.000000 36.000000 91.000000 
0.000000 36.000000 92.000000 
0.000000 36.000000 93.000000 
0.000000 36.000000 94.000000 
0.000000 36.000000 95.000000 
0.000000 36.000000 96.000000 
0.000000 36.000000 97.000000 
0.000000 36.000000 98.000000 
0.000000 36.000000 99.000000 
0.000000 36.000000 100.000000 
0.000000 37.000000 0.000000 
0.000000 37.000000 1.000000 
0.000000 37.000000 2.000000 
0.000000 37.000000 3.000000 
0.000000 37.000000 4.000000 
0.000000 37.000000 5.000000 
0.000000 37.000000 6.000000 
0.000000 37.000000 7.000000 
0.000000 37.000000 8.000000 
0.000000 37.000000 9.000000 
0.000000 37.000000 10.000000 
0.000000 37.000000 11.000000 
0.000000 37.000000 12.000000 
0.000000 37.000000 13.000000 
0.000000 37.000000 14.000000 
0.000000 37.000000 15.000000 
0.000000 37.000000 16.000000 
0.000000 37.000000 17.000000 
0.000000 37.000000 18.000000 
0.000000 37.000000 19.000000 
0.000000 37.000000 20.000000 
0.000000 37.000000 21.000000 
0.000000 37.000000 22.000000 
0.000000 37.000000 23.000000 
0.000000 37.000000 24.000000 
0.000000 37.000000 25.000000 
0.000000 37.000000 26.000000 
0.000000 37.000000 27.000000 
0.000000 37.000000 28.000000 
0.000000 37.000000 29.000000 
0.000000 37.000000 30.000000 
0.000000 37.000000 31.000000 
0.000000 37.000000 32.000000 
0.000000 37.000000 33.000000 
0.000000 37.000000 34.000000 
0.000000 37.000000 35.000000 
0.000000 37.000000 36.000000 
0.000000 37.000000 37.000000 
0.000000 37.000000 38.000000 
0.000000 37.000000 39.000000 
0.000000 37.000000 40.000000 
0.000000 37.000000 41.000000 
0.000000 37.000000 42.000000 
0.000000 37.000000 43.000000 
0.000000 37.000000 44.000000 
0.000000 37.000000 45.000000 
0.000000 37.000000 46.000000 
0.000000 37.000000 47.000000 
0.000000 37.000000 48.000000 
0.000000 37.000000 49.000000 
0.000000 37.000000 50.000000 
0.000000 37.000000 51.000000 
0.000000 37.000000 52.000000 
0.000000 37.000000 53.000000 
0.000000 37.000000 54.000000 
0.000000 37.000000 55.000000 
0.000000 37.000000 56.000000 
0.000000 37.000000 57.000000 
0.000000 37.000000 58.000000 
0.000000 37.000000 59.000000 
0.000000 37.000000 60.000000 
0.000000 37.000000 61.000000 
0.000000 37.000000 62.000000 
0.000000 37.000000 63.000000 
0.000000 37.000000 64.000000 
0.000000 37.000000 65.000000 
0.000000 37.000000 66.000000 
0.000000 37.000000 67.000000 
0.000000 37.000000 68.000000 
0.000000 37.000000 69.000000 
0.000000 37.000000 70.000000 
0.000000 37.000000 71.000000 
0.000000 37.000000 72.000000 
0.000000 37.000000 73.000000 
0.000000 37.000000 74.000000 
0.000000 37.000000 75.000000 
0.000000 37.000000 76.000000 
0.000000 37.000000 77.000000 
0.000000 37.000000 78.000000 
0.000000 37.000000 79.000000 
0.000000 37.000000 80.000000 
0.000000 37.000000 81.000000 
0.000000 37.000000 82.000000 
0.000000 37.000000 83.000000 
0.000000 37.000000 84.000000 
0.000000 37.000000 85.000000 
0.000000 37.000000 86.000000 
0.000000 37.000000 87.000000 
0.000000 37.000000 88.000000 
0.000000 37.000000 89.000000 
0.000000 37.000000 90.000000 
0.000000 37.000000 91.000000 
0.000000 37.000000 92.000000 
0.000000 37.000000 93.000000 
0.000000 37.000000 94.000000 
0.000000 37.000000 95.000000 
0.000000 37.000000 96.000000 
0.000000 37.000000 97.000000 
0.000000 37.000000 98.000000 
0.000000 37.000000 99.000000 
0.000000 37.000000 100.000000 
0.000000 38.000000 0.000000 
0.000000 38.000000 1.000000 
0.000000 38.000000 2.000000 
0.000000 38.000000 3.000000 
0.000000 38.000000 4.000000 
0.000000 38.000000 5.000000 
0.000000 38.000000 6.000000 
0.000000 38.000000 7.000000 
0.000000 38.000000 8.000000 
0.000000 38.000000 9.000000 
0.000000 38.000000 10.000000 
0.000000 38.000000 11.000000 
0.000000 38.000000 12.000000 
0.000000 38.000000 13.000000 
0.000000 38.000000 14.000000 
0.000000 38.000000 15.000000 
0.000000 38.000000 16.000000 
0.000000 38.000000 17.000000 
0.000000 38.000000 18.000000 
0.000000 38.000000 19.000000 
0.000000 38.000000 20.000000 
0.000000 38.000000 21.000000 
0.000000 38.000000 22.000000 
0.000000 38.000000 23.000000 
0.000000 38.000000 24.000000 
0.000000 38.000000 25.000000 
0.000000 38.000000 26.000000 
0.000000 38.000000 27.000000 
0.000000 38.000000 28.000000 
0.000000 38.000000 29.000000 
0.000000 38.000000 30.000000 
0.000000 38.000000 31.000000 
0.000000 38.000000 32.000000 
0.000000 38.000000 33.000000 
0.000000 38.000000 34.000000 
0.000000 38.000000 35.000000 
0.000000 38.000000 36.000000 
0.000000 38.000000 37.000000 
0.000000 38.000000 38.000000 
0.000000 38.000000 39.000000 
0.000000 38.000000 40.000000 
0.000000 38.000000 41.000000 
0.000000 38.000000 42.000000 
0.000000 38.000000 43.000000 
0.000000 38.000000 44.000000 
0.000000 38.000000 45.000000 
0.000000 38.000000 46.000000 
0.000000 38.000000 47.000000 
0.000000 38.000000 48.000000 
0.000000 38.000000 49.000000 
0.000000 38.000000 50.000000 
0.000000 38.000000 51.000000 
0.000000 38.000000 52.000000 
0.000000 38.000000 53.000000 
0.000000 38.000000 54.000000 
0.000000 38.000000 55.000000 
0.000000 38.000000 56.000000 
0.000000 38.000000 57.000000 
0.000000 38.000000 58.000000 
0.000000 38.000000 59.000000 
0.000000 38.000000 60.000000 
0.000000 38.000000 61.000000 
0.000000 38.000000 62.000000 
0.000000 38.000000 63.000000 
0.000000 38.000000 64.000000 
0.000000 38.000000 65.000000 
0.000000 38.000000 66.000000 
0.000000 38.000000 67.000000 
0.000000 38.000000 68.000000 
0.000000 38.000000 69.000000 
0.000000 38.000000 70.000000 
0.000000 38.000000 71.000000 
0.000000 38.000000 72.000000 
0.000000 38.000000 73.000000 
0.000000 38.000000 74.000000 
0.000000 38.000000 75.000000 
0.000000 38.000000 76.000000 
0.000000 38.000000 77.000000 
0.000000 38.000000 78.000000 
0.000000 38.000000 79.000000 
0.000000 38.000000 80.000000 
0.000000 38.000000 81.000000 
0.000000 38.000000 82.000000 
0.000000 38.000000 83.000000 
0.000000 38.000000 84.000000 
0.000000 38.000000 85.000000 
0.000000 38.000000 86.000000 
0.000000 38.000000 87.000000 
0.000000 38.000000 88.000000 
0.000000 38.000000 89.000000 
0.000000 38.000000 90.000000 
0.000000 38.000000 91.000000 
0.000000 38.000000 92.000000 
0.000000 38.000000 93.000000 
0.000000 38.000000 94.000000 
0.000000 38.000000 95.000000 
0.000000 38.000000 96.000000 
0.000000 38.000000 97.000000 
0.000000 38.000000 98.000000 
0.000000 38.000000 99.000000 
0.000000 38.000000 100.000000 
0.000000 39.000000 0.000000 
0.000000 39.000000 1.000000 
0.000000 39.000000 2.000000 
0.000000 39.000000 3.000000 
0.000000 39.000000 4.000000 
0.000000 39.000000 5.000000 
0.000000 39.000000 6.000000 
0.000000 39.000000 7.000000 
0.000000 39.000000 8.000000 
0.000000 39.000000 9.000000 
0.000000 39.000000 10.000000 
0.000000 39.000000 11.000000 
0.000000 39.000000 12.000000 
0.000000 39.000000 13.000000 
0.000000 39.000000 14.000000 
0.000000 39.000000 15.000000 
0.000000 39.000000 16.000000 
0.000000 39.000000 17.000000 
0.000000 39.000000 18.000000 
0.000000 39.000000 19.000000 
0.000000 39.000000 20.000000 
0.000000 39.000000 21.000000 
0.000000 39.000000 22.000000 
0.000000 39.000000 23.000000 
0.000000 39.000000 24.000000 
0.000000 39.000000 25.000000 
0.000000 39.000000 26.000000 
0.000000 39.000000 27.000000 
0.000000 39.000000 28.000000 
0.000000 39.000000 29.000000 
0.000000 39.000000 30.000000 
0.000000 39.000000 31.000000 
0.000000 39.000000 32.000000 
0.000000 39.000000 33.000000 
0.000000 39.000000 34.000000 
0.000000 39.000000 35.000000 
0.000000 39.000000 36.000000 
0.000000 39.000000 37.000000 
0.000000 39.000000 38.000000 
0.000000 39.000000 39.000000 
0.000000 39.000000 40.000000 
0.000000 39.000000 41.000000 
0.000000 39.000000 42.000000 
0.000000 39.000000 43.000000 
0.000000 39.000000 44.000000 
0.000000 39.000000 45.000000 
0.000000 39.000000 46.000000 
0.000000 39.000000 47.000000 
0.000000 39.000000 48.000000 
0.000000 39.000000 49.000000 
0.000000 39.000000 50.000000 
0.000000 39.000000 51.000000 
0.000000 39.000000 52.000000 
0.000000 39.000000 53.000000 
0.000000 39.000000 54.000000 
0.000000 39.000000 55.000000 
0.000000 39.000000 56.000000 
0.000000 39.000000 57.000000 
0.000000 39.000000 58.000000 
0.000000 39.000000 59.000000 
0.000000 39.000000 60.000000 
0.000000 39.000000 61.000000 
0.000000 39.000000 62.000000 
0.000000 39.000000 63.000000 
0.000000 39.000000 64.000000 
0.000000 39.000000 65.000000 
0.000000 39.000000 66.000000 
0.000000 39.000000 67.000000 
0.000000 39.000000 68.000000 
0.000000 39.000000 69.000000 
0.000000 39.000000 70.000000 
0.000000 39.000000 71.000000 
0.000000 39.000000 72.000000 
0.000000 39.000000 73.000000 
0.000000 39.000000 74.000000 
0.000000 39.000000 75.000000 
0.000000 39.000000 76.000000 
0.000000 39.000000 77.000000 
0.000000 39.000000 78.000000 
0.000000 39.000000 79.000000 
0.000000 39.000000 80.000000 
0.000000 39.000000 81.000000 
0.000000 39.000000 82.000000 
0.000000 39.000000 83.000000 
0.000000 39.000000 84.000000 
0.000000 39.000000 85.000000 
0.000000 39.000000 86.000000 
0.000000 39.000000 87.000000 
0.000000 39.000000 88.000000 
0.000000 39.000000 89.000000 
0.000000 39.000000 90.000000 
0.000000 39.000000 91.000000 
0.000000 39.000000 92.000000 
0.000000 39.000000 93.000000 
0.000000 39.000000 94.000000 
0.000000 39.000000 95.000000 
0.000000 39.000000 96.000000 
0.000000 39.000000 97.000000 
0.000000 39.000000 98.000000 
0.000000 39.000000 99.000000 
0.000000 39.000000 100.000000 
0.000000 40.000000 0.000000 
0.000000 40.000000 1.000000 
0.000000 40.000000 2.000000 
0.000000 40.000000 3.000000 
0.000000 40.000000 4.000000 
0.000000 40.000000 5.000000 
0.000000 40.000000 6.000000 
0.000000 40.000000 7.000000 
0.000000 40.000000 8.000000 
0.000000 40.000000 9.000000 
0.000000 40.000000 10.000000 
0.000000 40.000000 11.000000 
0.000000 40.000000 12.000000 
0.000000 40.000000 13.000000 
0.000000 40.000000 14.000000 
0.000000 40.000000 15.000000 
0.000000 40.000000 16.000000 
0.000000 40.000000 17.000000 
0.000000 40.000000 18.000000 
0.000000 40.000000 19.000000 
0.000000 40.000000 20.000000 
0.000000 40.000000 21.000000 
0.000000 40.000000 22.000000 
0.000000 40.000000 23.000000 
0.000000 40.000000 24.000000 
0.000000 40.000000 25.000000 
0.000000 40.000000 26.000000 
0.000000 40.000000 27.000000 
0.000000 40.000000 28.000000 
0.000000 40.000000 29.000000 
0.000000 40.000000 30.000000 
0.000000 40.000000 31.000000 
0.000000 40.000000 32.000000 
0.000000 40.000000 33.000000 
0.000000 40.000000 34.000000 
0.000000 40.000000 35.000000 
0.000000 40.000000 36.000000 
0.000000 40.000000 37.000000 
0.000000 40.000000 38.000000 
0.000000 40.000000 39.000000 
0.000000 40.000000 40.000000 
0.000000 40.000000 41.000000 
0.000000 40.000000 42.000000 
0.000000 40.000000 43.000000 
0.000000 40.000000 44.000000 
0.000000 40.000000 45.000000 
0.000000 40.000000 46.000000 
0.000000 40.000000 47.000000 
0.000000 40.000000 48.000000 
0.000000 40.000000 49.000000 
0.000000 40.000000 50.000000 
0.000000 40.000000 51.000000 
0.000000 40.000000 52.000000 
0.000000 40.000000 53.000000 
0.000000 40.000000 54.000000 
0.000000 40.000000 55.000000 
0.000000 40.000000 56.000000 
0.000000 40.000000 57.000000 
0.000000 40.000000 58.000000 
0.000000 40.000000 59.000000 
0.000000 40.000000 60.000000 
0.000000 40.000000 61.000000 
0.000000 40.000000 62.000000 
0.000000 40.000000 63.000000 
0.000000 40.000000 64.000000 
0.000000 40.000000 65.000000 
0.000000 40.000000 66.000000 
0.000000 40.000000 67.000000 
0.000000 40.000000 68.000000 
0.000000 40.000000 69.000000 
0.000000 40.000000 70.000000 
0.000000 40.000000 71.000000 
0.000000 40.000000 72.000000 
0.000000 40.000000 73.000000 
0.000000 40.000000 74.000000 
0.000000 40.000000 75.000000 
0.000000 40.000000 76.000000 
0.000000 40.000000 77.000000 
0.000000 40.000000 78.000000 
0.000000 40.000000 79.000000 
0.000000 40.000000 80.000000 
0.000000 40.000000 81.000000 
0.000000 40.000000 82.000000 
0.000000 40.000000 83.000000 
0.000000 40.000000 84.000000 
0.000000 40.000000 85.000000 
0.000000 40.000000 86.000000 
0.000000 40.000000 87.000000 
0.000000 40.000000 88.000000 
0.000000 40.000000 89.000000 
0.000000 40.000000 90.000000 
0.000000 40.000000 91.000000 
0.000000 40.000000 92.000000 
0.000000 40.000000 93.000000 
0.000000 40.000000 94.000000 
0.000000 40.000000 95.000000 
0.000000 40.000000 96.000000 
0.000000 40.000000 97.000000 
0.000000 40.000000 98.000000 
0.000000 40.000000 99.000000 
0.000000 40.000000 100.000000 
0.000000 41.000000 0.000000 
0.000000 41.000000 1.000000 
0.000000 41.000000 2.000000 
0.000000 41.000000 3.000000 
0.000000 41.000000 4.000000 
0.000000 41.000000 5.000000 
0.000000 41.000000 6.000000 
0.000000 41.000000 7.000000 
0.000000 41.000000 8.000000 
0.000000 41.000000 9.000000 
0.000000 41.000000 10.000000 
0.000000 41.000000 11.000000 
0.000000 41.000000 12.000000 
0.000000 41.000000 13.000000 
0.000000 41.000000 14.000000 
0.000000 41.000000 15.000000 
0.000000 41.000000 16.000000 
0.000000 41.000000 17.000000 
0.000000 41.000000 18.000000 
0.000000 41.000000 19.000000 
0.000000 41.000000 20.000000 
0.000000 41.000000 21.000000 
0.000000 41.000000 22.000000 
0.000000 41.000000 23.000000 
0.000000 41.000000 24.000000 
0.000000 41.000000 25.000000 
0.000000 41.000000 26.000000 
0.000000 41.000000 27.000000 
0.000000 41.000000 28.000000 
0.000000 41.000000 29.000000 
0.000000 41.000000 30.000000 
0.000000 41.000000 31.000000 
0.000000 41.000000 32.000000 
0.000000 41.000000 33.000000 
0.000000 41.000000 34.000000 
0.000000 41.000000 35.000000 
0.000000 41.000000 36.000000 
0.000000 41.000000 37.000000 
0.000000 41.000000 38.000000 
0.000000 41.000000 39.000000 
0.000000 41.000000 40.000000 
0.000000 42.000000 0.000000 
0.000000 42.000000 1.000000 
0.000000 42.000000 2.000000 
0.000000 42.000000 3.000000 
0.000000 42.000000 4.000000 
0.000000 42.000000 5.000000 
0.000000 42.000000 6.000000 
0.000000 42.000000 7.000000 
0.000000 42.000000 8.000000 
0.000000 42.000000 9.000000 
0.000000 42.000000 10.000000 
0.000000 42.000000 11.000000 
0.000000 42.000000 12.000000 
0.000000 42.000000 13.000000 
0.000000 42.000000 14.000000 
0.000000 42.000000 15.000000 
0.000000 42.000000 16.000000 
0.000000 42.000000 17.000000 
0.000000 42.000000 18.000000 
0.000000 42.000000 19.000000 
0.000000 42.000000 20.000000 
0.000000 42.000000 21.000000 
0.000000 42.000000 22.000000 
0.000000 42.000000 23.000000 
0.000000 42.000000 24.000000 
0.000000 42.000000 25.000000 
0.000000 42.000000 26.000000 
0.000000 42.000000 27.000000 
0.000000 42.000000 28.000000 
0.000000 42.000000 29.000000 
0.000000 42.000000 30.000000 
0.000000 42.000000 31.000000 
0.000000 42.000000 32.000000 
0.000000 42.000000 33.000000 
0.000000 42.000000 34.000000 
0.000000 42.000000 35.000000 
0.000000 42.000000 36.000000 
0.000000 42.000000 37.000000 
0.000000 42.000000 38.000000 
0.000000 42.000000 39.000000 
0.000000 42.000000 40.000000 
0.000000 43.000000 0.000000 
0.000000 43.000000 1.000000 
0.000000 43.000000 2.000000 
0.000000 43.000000 3.000000 
0.000000 43.000000 4.000000 
0.000000 43.000000 5.000000 
0.000000 43.000000 6.000000 
0.000000 43.000000 7.000000 
0.000000 43.000000 8.000000 
0.000000 43.000000 9.000000 
0.000000 43.000000 10.000000 
0.000000 43.000000 11.000000 
0.000000 43.000000 12.000000 
0.000000 43.000000 13.000000 
0.000000 43.000000 14.000000 
0.000000 43.000000 15.000000 
0.000000 43.000000 16.000000 
0.000000 43.000000 17.000000 
0.000000 43.000000 18.000000 
0.000000 43.000000 19.000000 
0.000000 43.000000 20.000000 
0.000000 43.000000 21.000000 
0.000000 43.000000 22.000000 
0.000000 43.000000 23.000000 
0.000000 43.000000 24.000000 
0.000000 43.000000 25.000000 
0.000000 43.000000 26.000000 
0.000000 43.000000 27.000000 
0.000000 43.000000 28.000000 
0.000000 43.000000 29.000000 
0.000000 43.000000 30.000000 
0.000000 43.000000 31.000000 
0.000000 43.000000 32.000000 
0.000000 43.000000 33.000000 
0.000000 43.000000 34.000000 
0.000000 43.000000 35.000000 
0.000000 43.000000 36.000000 
0.000000 43.000000 37.000000 
0.000000 43.000000 38.000000 
0.000000 43.000000 39.000000 
0.000000 43.000000 40.000000 
0.000000 44.000000 0.000000 
0.000000 44.000000 1.000000 
0.000000 44.000000 2.000000 
0.000000 44.000000 3.000000 
0.000000 44.000000 4.000000 
0.000000 44.000000 5.000000 
0.000000 44.000000 6.000000 
0.000000 44.000000 7.000000 
0.000000 44.000000 8.000000 
0.000000 44.000000 9.000000 
0.000000 44.000000 10.000000 
0.000000 44.000000 11.000000 
0.000000 44.000000 12.000000 
0.000000 44.000000 13.000000 
0.000000 44.000000 14.000000 
0.000000 44.000000 15.000000 
0.000000 44.000000 16.000000 
0.000000 44.000000 17.000000 
0.000000 44.000000 18.000000 
0.000000 44.000000 19.000000 
0.000000 44.000000 20.000000 
0.000000 44.000000 21.000000 
0.000000 44.000000 22.000000 
0.000000 44.000000 23.000000 
0.000000 44.000000 24.000000 
0.000000 44.000000 25.000000 
0.000000 44.000000 26.000000 
0.000000 44.000000 27.000000 
0.000000 44.000000 28.000000 
0.000000 44.000000 29.000000 
0.000000 44.000000 30.000000 
0.000000 44.000000 31.000000 
0.000000 44.000000 32.000000 
0.000000 44.000000 33.000000 
0.000000 44.000000 34.000000 
0.000000 44.000000 35.000000 
0.000000 44.000000 36.000000 
0.000000 44.000000 37.000000 
0.000000 44.000000 38.000000 
0.000000 44.000000 39.000000 
0.000000 44.000000 40.000000 
0.000000 45.000000 0.000000 
0.000000 45.000000 1.000000 
0.000000 45.000000 2.000000 
0.000000 45.000000 3.000000 
0.000000 45.000000 4.000000 
0.000000 45.000000 5.000000 
0.000000 45.000000 6.000000 
0.000000 45.000000 7.000000 
0.000000 45.000000 8.000000 
0.000000 45.000000 9.000000 
0.000000 45.000000 10.000000 
0.000000 45.000000 11.000000 
0.000000 45.000000 12.000000 
0.000000 45.000000 13.000000 
0.000000 45.000000 14.000000 
0.000000 45.000000 15.000000 
0.000000 45.000000 16.000000 
0.000000 45.000000 17.000000 
0.000000 45.000000 18.000000 
0.000000 45.000000 19.000000 
0.000000 45.000000 20.000000 
0.000000 45.000000 21.000000 
0.000000 45.000000 22.000000 
0.000000 45.000000 23.000000 
0.000000 45.000000 24.000000 
0.000000 45.000000 25.000000 
0.000000 45.000000 26.000000 
0.000000 45.000000 27.000000 
0.000000 45.000000 28.000000 
0.000000 45.000000 29.000000 
0.000000 45.000000 30.000000 
0.000000 45.000000 31.000000 
0.000000 45.000000 32.000000 
0.000000 45.000000 33.000000 
0.000000 45.000000 34.000000 
0.000000 45.000000 35.000000 
0.000000 45.000000 36.000000 
0.000000 45.000000 37.000000 
0.000000 45.000000 38.000000 
0.000000 45.000000 39.000000 
0.000000 45.000000 40.000000 
0.000000 46.000000 0.000000 
0.000000 46.000000 1.000000 
0.000000 46.000000 2.000000 
0.000000 46.000000 3.000000 
0.000000 46.000000 4.000000 
0.000000 46.000000 5.000000 
0.000000 46.000000 6.000000 
0.000000 46.000000 7.000000 
0.000000 46.000000 8.000000 
0.000000 46.000000 9.000000 
0.000000 46.000000 10.000000 
0.000000 46.000000 11.000000 
0.000000 46.000000 12.000000 
0.000000 46.000000 13.000000 
0.000000 46.000000 14.000000 
0.000000 46.000000 15.000000 
0.000000 46.000000 16.000000 
0.000000 46.000000 17.000000 
0.000000 46.000000 18.000000 
0.000000 46.000000 19.000000 
0.000000 46.000000 20.000000 
0.000000 46.000000 21.000000 
0.000000 46.000000 22.000000 
0.000000 46.000000 23.000000 
0.000000 46.000000 24.000000 
0.000000 46.000000 25.000000 
0.000000 46.000000 26.000000 
0.000000 46.000000 27.000000 
0.000000 46.000000 28.000000 
0.000000 46.000000 29.000000 
0.000000 46.000000 30.000000 
0.000000 46.000000 31.000000 
0.000000 46.000000 32.000000 
0.000000 46.000000 33.000000 
0.000000 46.000000 34.000000 
0.000000 46.000000 35.000000 
0.000000 46.000000 36.000000 
0.000000 46.000000 37.000000 
0.000000 46.000000 38.000000 
0.000000 46.000000 39.000000 
0.000000 46.000000 40.000000 
0.000000 47.000000 0.000000 
0.000000 47.000000 1.000000 
0.000000 47.000000 2.000000 
0.000000 47.000000 3.000000 
0.000000 47.000000 4.000000 
0.000000 47.000000 5.000000 
0.000000 47.000000 6.000000 
0.000000 47.000000 7.000000 
0.000000 47.000000 8.000000 
0.000000 47.000000 9.000000 
0.000000 47.000000 10.000000 
0.000000 47.000000 11.000000 
0.000000 47.000000 12.000000 
0.000000 47.000000 13.000000 
0.000000 47.000000 14.000000 
0.000000 47.000000 15.000000 
0.000000 47.000000 16.000000 
0.000000 47.000000 17.000000 
0.000000 47.000000 18.000000 
0.000000 47.000000 19.000000 
0.000000 47.000000 20.000000 
0.000000 47.000000 21.000000 
0.000000 47.000000 22.000000 
0.000000 47.000000 23.000000 
0.000000 47.000000 24.000000 
0.000000 47.000000 25.000000 
0.000000 47.000000 26.000000 
0.000000 47.000000 27.000000 
0.000000 47.000000 28.000000 
0.000000 47.000000 29.000000 
0.000000 47.000000 30.000000 
0.000000 47.000000 31.000000 
0.000000 47.000000 32.000000 
0.000000 47.000000 33.000000 
0.000000 47.000000 34.000000 
0.000000 47.000000 35.000000 
0.000000 47.000000 36.000000 
0.000000 47.000000 37.000000 
0.000000 47.000000 38.000000 
0.000000 47.000000 39.000000 
0.000000 47.000000 40.000000 
0.000000 48.000000 0.000000 
0.000000 48.000000 1.000000 
0.000000 48.000000 2.000000 
0.000000 48.000000 3.000000 
0.000000 48.000000 4.000000 
0.000000 48.000000 5.000000 
0.000000 48.000000 6.000000 
0.000000 48.000000 7.000000 
0.000000 48.000000 8.000000 
0.000000 48.000000 9.000000 
0.000000 48.000000 10.000000 
0.000000 48.000000 11.000000 
0.000000 48.000000 12.000000 
0.000000 48.000000 13.000000 
0.000000 48.000000 14.000000 
0.000000 48.000000 15.000000 
0.000000 48.000000 16.000000 
0.000000 48.000000 17.000000 
0.000000 48.000000 18.000000 
0.000000 48.000000 19.000000 
0.000000 48.000000 20.000000 
0.000000 48.000000 21.000000 
0.000000 48.000000 22.000000 
0.000000 48.000000 23.000000 
0.000000 48.000000 24.000000 
0.000000 48.000000 25.000000 
0.000000 48.000000 26.000000 
0.000000 48.000000 27.000000 
0.000000 48.000000 28.000000 
0.000000 48.000000 29.000000 
0.000000 48.000000 30.000000 
0.000000 48.000000 31.000000 
0.000000 48.000000 32.000000 
0.000000 48.000000 33.000000 
0.000000 48.000000 34.000000 
0.000000 48.000000 35.000000 
0.000000 48.000000 36.000000 
0.000000 48.000000 37.000000 
0.000000 48.000000 38.000000 
0.000000 48.000000 39.000000 
0.000000 48.000000 40.000000 
0.000000 49.000000 0.000000 
0.000000 49.000000 1.000000 
0.000000 49.000000 2.000000 
0.000000 49.000000 3.000000 
0.000000 49.000000 4.000000 
0.000000 49.000000 5.000000 
0.000000 49.000000 6.000000 
0.000000 49.000000 7.000000 
0.000000 49.000000 8.000000 
0.000000 49.000000 9.000000 
0.000000 49.000000 10.000000 
0.000000 49.000000 11.000000 
0.000000 49.000000 12.000000 
0.000000 49.000000 13.000000 
0.000000 49.000000 14.000000 
0.000000 49.000000 15.000000 
0.000000 49.000000 16.000000 
0.000000 49.000000 17.000000 
0.000000 49.000000 18.000000 
0.000000 49.000000 19.000000 
0.000000 49.000000 20.000000 
0.000000 49.000000 21.000000 
0.000000 49.000000 22.000000 
0.000000 49.000000 23.000000 
0.000000 49.000000 24.000000 
0.000000 49.000000 25.000000 
0.000000 49.000000 26.000000 
0.000000 49.000000 27.000000 
0.000000 49.000000 28.000000 
0.000000 49.000000 29.000000 
0.000000 49.000000 30.000000 
0.000000 49.000000 31.000000 
0.000000 49.000000 32.000000 
0.000000 49.000000 33.000000 
0.000000 49.000000 34.000000 
0.000000 49.000000 35.000000 
0.000000 49.000000 36.000000 
0.000000 49.000000 37.000000 
0.000000 49.000000 38.000000 
0.000000 49.000000 39.000000 
0.000000 49.000000 40.000000 
0.000000 50.000000 0.000000 
0.000000 50.000000 1.000000 
0.000000 50.000000 2.000000 
0.000000 50.000000 3.000000 
0.000000 50.000000 4.000000 
0.000000 50.000000 5.000000 
0.000000 50.000000 6.000000 
0.000000 50.000000 7.000000 
0.000000 50.000000 8.000000 
0.000000 50.000000 9.000000 
0.000000 50.000000 10.000000 
0.000000 50.000000 11.000000 
0.000000 50.000000 12.000000 
0.000000 50.000000 13.000000 
0.000000 50.000000 14.000000 
0.000000 50.000000 15.000000 
0.000000 50.000000 16.000000 
0.000000 50.000000 17.000000 
0.000000 50.000000 18.000000 
0.000000 50.000000 19.000000 
0.000000 50.000000 20.000000 
0.000000 50.000000 21.000000 
0.000000 50.000000 22.000000 
0.000000 50.000000 23.000000 
0.000000 50.000000 24.000000 
0.000000 50.000000 25.000000 
0.000000 50.000000 26.000000 
0.000000 50.000000 27.000000 
0.000000 50.000000 28.000000 
0.000000 50.000000 29.000000 
0.000000 50.000000 30.000000 
0.000000 50.000000 31.000000 
0.000000 50.000000 32.000000 
0.000000 50.000000 33.000000 
0.000000 50.000000 34.000000 
0.000000 50.000000 35.000000 
0.000000 50.000000 36.000000 
0.000000 50.000000 37.000000 
0.000000 50.000000 38.000000 
0.000000 50.000000 39.000000 
0.000000 50.000000 40.000000 
0.000000 51.000000 0.000000 
0.000000 51.000000 1.000000 
0.000000 51.000000 2.000000 
0.000000 51.000000 3.000000 
0.000000 51.000000 4.000000 
0.000000 51.000000 5.000000 
0.000000 51.000000 6.000000 
0.000000 51.000000 7.000000 
0.000000 51.000000 8.000000 
0.000000 51.000000 9.000000 
0.000000 51.000000 10.000000 
0.000000 51.000000 11.000000 
0.000000 51.000000 12.000000 
0.000000 51.000000 13.000000 
0.000000 51.000000 14.000000 
0.000000 51.000000 15.000000 
0.000000 51.000000 16.000000 
0.000000 51.000000 17.000000 
0.000000 51.000000 18.000000 
0.000000 51.000000 19.000000 
0.000000 51.000000 20.000000 
0.000000 51.000000 21.000000 
0.000000 51.000000 22.000000 
0.000000 51.000000 23.000000 
0.000000 51.000000 24.000000 
0.000000 51.000000 25.000000 
0.000000 51.000000 26.000000 
0.000000 51.000000 27.000000 
0.000000 51.000000 28.000000 
0.000000 51.000000 29.000000 
0.000000 51.000000 30.000000 
0.000000 51.000000 31.000000 
0.000000 51.000000 32.000000 
0.000000 51.000000 33.000000 
0.000000 51.000000 34.000000 
0.000000 51.000000 35.000000 
0.000000 51.000000 36.000000 
0.000000 51.000000 37.000000 
0.000000 51.000000 38.000000 
0.000000 51.000000 39.000000 
0.000000 51.000000 40.000000 
0.000000 52.000000 0.000000 
0.000000 52.000000 1.000000 
0.000000 52.000000 2.000000 
0.000000 52.000000 3.000000 
0.000000 52.000000 4.000000 
0.000000 52.000000 5.000000 
0.000000 52.000000 6.000000 
0.000000 52.000000 7.000000 
0.000000 52.000000 8.000000 
0.000000 52.000000 9.000000 
0.000000 52.000000 10.000000 
0.000000 52.000000 11.000000 
0.000000 52.000000 12.000000 
0.000000 52.000000 13.000000 
0.000000 52.000000 14.000000 
0.000000 52.000000 15.000000 
0.000000 52.000000 16.000000 
0.000000 52.000000 17.000000 
0.000000 52.000000 18.000000 
0.000000 52.000000 19.000000 
0.000000 52.000000 20.000000 
0.000000 52.000000 21.000000 
0.000000 52.000000 22.000000 
0.000000 52.000000 23.000000 
0.000000 52.000000 24.000000 
0.000000 52.000000 25.000000 
0.000000 52.000000 26.000000 
0.000000 52.000000 27.000000 
0.000000 52.000000 28.000000 
0.000000 52.000000 29.000000 
0.000000 52.000000 30.000000 
0.000000 52.000000 31.000000 
0.000000 52.000000 32.000000 
0.000000 52.000000 33.000000 
0.000000 52.000000 34.000000 
0.000000 52.000000 35.000000 
0.000000 52.000000 36.000000 
0.000000 52.000000 37.000000 
0.000000 52.000000 38.000000 
0.000000 52.000000 39.000000 
0.000000 52.000000 40.000000 
0.000000 53.000000 0.000000 
0.000000 53.000000 1.000000 
0.000000 53.000000 2.000000 
0.000000 53.000000 3.000000 
0.000000 53.000000 4.000000 
0.000000 53.000000 5.000000 
0.000000 53.000000 6.000000 
0.000000 53.000000 7.000000 
0.000000 53.000000 8.000000 
0.000000 53.000000 9.000000 
0.000000 53.000000 10.000000 
0.000000 53.000000 11.000000 
0.000000 53.000000 12.000000 
0.000000 53.000000 13.000000 
0.000000 53.000000 14.000000 
0.000000 53.000000 15.000000 
0.000000 53.000000 16.000000 
0.000000 53.000000 17.000000 
0.000000 53.000000 18.000000 
0.000000 53.000000 19.000000 
0.000000 53.000000 20.000000 
0.000000 53.000000 21.000000 
0.000000 53.000000 22.000000 
0.000000 53.000000 23.000000 
0.000000 53.000000 24.000000 
0.000000 53.000000 25.000000 
0.000000 53.000000 26.000000 
0.000000 53.000000 27.000000 
0.000000 53.000000 28.000000 
0.000000 53.000000 29.000000 
0.000000 53.000000 30.000000 
0.000000 53.000000 31.000000 
0.000000 53.000000 32.000000 
0.000000 53.000000 33.000000 
0.000000 53.000000 34.000000 
0.000000 53.000000 35.000000 
0.000000 53.000000 36.000000 
0.000000 53.000000 37.000000 
0.000000 53.000000 38.000000 
0.000000 53.000000 39.000000 
0.000000 53.000000 40.000000 
0.000000 54.000000 0.000000 
0.000000 54.000000 1.000000 
0.000000 54.000000 2.000000 
0.000000 54.000000 3.000000 
0.000000 54.000000 4.000000 
0.000000 54.000000 5.000000 
0.000000 54.000000 6.000000 
0.000000 54.000000 7.000000 
0.000000 54.000000 8.000000 
0.000000 54.000000 9.000000 
0.000000 54.000000 10.000000 
0.000000 54.000000 11.000000 
0.000000 54.000000 12.000000 
0.000000 54.000000 13.000000 
0.000000 54.000000 14.000000 
0.000000 54.000000 15.000000 
0.000000 54.000000 16.000000 
0.000000 54.000000 17.000000 
0.000000 54.000000 18.000000 
0.000000 54.000000 19.000000 
0.000000 54.000000 20.000000 
0.000000 54.000000 21.000000 
0.000000 54.000000 22.000000 
0.000000 54.000000 23.000000 
0.000000 54.000000 24.000000 
0.000000 54.000000 25.000000 
0.000000 54.000000 26.000000 
0.000000 54.000000 27.000000 
0.000000 54.000000 28.000000 
0.000000 54.000000 29.000000 
0.000000 54.000000 30.000000 
0.000000 54.000000 31.000000 
0.000000 54.000000 32.000000 
0.000000 54.000000 33.000000 
0.000000 54.000000 34.000000 
0.000000 54.000000 35.000000 
0.000000 54.000000 36.000000 
0.000000 54.000000 37.000000 
0.000000 54.000000 38.000000 
0.000000 54.000000 39.000000 
0.000000 54.000000 40.000000 
0.000000 55.000000 0.000000 
0.000000 55.000000 1.000000 
0.000000 55.000000 2.000000 
0.000000 55.000000 3.000000 
0.000000 55.000000 4.000000 
0.000000 55.000000 5.000000 
0.000000 55.000000 6.000000 
0.000000 55.000000 7.000000 
0.000000 55.000000 8.000000 
0.000000 55.000000 9.000000 
0.000000 55.000000 10.000000 
0.000000 55.000000 11.000000 
0.000000 55.000000 12.000000 
0.000000 55.000000 13.000000 
0.000000 55.000000 14.000000 
0.000000 55.000000 15.000000 
0.000000 55.000000 16.000000 
0.000000 55.000000 17.000000 
0.000000 55.000000 18.000000 
0.000000 55.000000 19.000000 
0.000000 55.000000 20.000000 
0.000000 55.000000 21.000000 
0.000000 55.000000 22.000000 
0.000000 55.000000 23.000000 
0.000000 55.000000 24.000000 
0.000000 55.000000 25.000000 
0.000000 55.000000 26.000000 
0.000000 55.000000 27.000000 
0.000000 55.000000 28.000000 
0.000000 55.000000 29.000000 
0.000000 55.000000 30.000000 
0.000000 55.000000 31.000000 
0.000000 55.000000 32.000000 
0.000000 55.000000 33.000000 
0.000000 55.000000 34.000000 
0.000000 55.000000 35.000000 
0.000000 55.000000 36.000000 
0.000000 55.000000 37.000000 
0.000000 55.000000 38.000000 
0.000000 55.000000 39.000000 
0.000000 55.000000 40.000000 
0.000000 56.000000 0.000000 
0.000000 56.000000 1.000000 
0.000000 56.000000 2.000000 
0.000000 56.000000 3.000000 
0.000000 56.000000 4.000000 
0.000000 56.000000 5.000000 
0.000000 56.000000 6.000000 
0.000000 56.000000 7.000000 
0.000000 56.000000 8.000000 
0.000000 56.000000 9.000000 
0.000000 56.000000 10.000000 
0.000000 56.000000 11.000000 
0.000000 56.000000 12.000000 
0.000000 56.000000 13.000000 
0.000000 56.000000 14.000000 
0.000000 56.000000 15.000000 
0.000000 56.000000 16.000000 
0.000000 56.000000 17.000000 
0.000000 56.000000 18.000000 
0.000000 56.000000 19.000000 
0.000000 56.000000 20.000000 
0.000000 56.000000 21.000000 
0.000000 56.000000 22.000000 
0.000000 56.000000 23.000000 
0.000000 56.000000 24.000000 
0.000000 56.000000 25.000000 
0.000000 56.000000 26.000000 
0.000000 56.000000 27.000000 
0.000000 56.000000 28.000000 
0.000000 56.000000 29.000000 
0.000000 56.000000 30.000000 
0.000000 56.000000 31.000000 
0.000000 56.000000 32.000000 
0.000000 56.000000 33.000000 
0.000000 56.000000 34.000000 
0.000000 56.000000 35.000000 
0.000000 56.000000 36.000000 
0.000000 56.000000 37.000000 
0.000000 56.000000 38.000000 
0.000000 56.000000 39.000000 
0.000000 56.000000 40.000000 
0.000000 57.000000 0.000000 
0.000000 57.000000 1.000000 
0.000000 57.000000 2.000000 
0.000000 57.000000 3.000000 
0.000000 57.000000 4.000000 
0.000000 57.000000 5.000000 
0.000000 57.000000 6.000000 
0.000000 57.000000 7.000000 
0.000000 57.000000 8.000000 
0.000000 57.000000 9.000000 
0.000000 57.000000 10.000000 
0.000000 57.000000 11.000000 
0.000000 57.000000 12.000000 
0.000000 57.000000 13.000000 
0.000000 57.000000 14.000000 
0.000000 57.000000 15.000000 
0.000000 57.000000 16.000000 
0.000000 57.000000 17.000000 
0.000000 57.000000 18.000000 
0.000000 57.000000 19.000000 
0.000000 57.000000 20.000000 
0.000000 57.000000 21.000000 
0.000000 57.000000 22.000000 
0.000000 57.000000 23.000000 
0.000000 57.000000 24.000000 
0.000000 57.000000 25.000000 
0.000000 57.000000 26.000000 
0.000000 57.000000 27.000000 
0.000000 57.000000 28.000000 
0.000000 57.000000 29.000000 
0.000000 57.000000 30.000000 
0.000000 57.000000 31.000000 
0.000000 57.000000 32.000000 
0.000000 57.000000 33.000000 
0.000000 57.000000 34.000000 
0.000000 57.000000 35.000000 
0.000000 57.000000 36.000000 
0.000000 57.000000 37.000000 
0.000000 57.000000 38.000000 
0.000000 57.000000 39.000000 
0.000000 57.000000 40.000000 
0.000000 58.000000 0.000000 
0.000000 58.000000 1.000000 
0.000000 58.000000 2.000000 
0.000000 58.000000 3.000000 
0.000000 58.000000 4.000000 
0.000000 58.000000 5.000000 
0.000000 58.000000 6.000000 
0.000000 58.000000 7.000000 
0.000000 58.000000 8.000000 
0.000000 58.000000 9.000000 
0.000000 58.000000 10.000000 
0.000000 58.000000 11.000000 
0.000000 58.000000 12.000000 
0.000000 58.000000 13.000000 
0.000000 58.000000 14.000000 
0.000000 58.000000 15.000000 
0.000000 58.000000 16.000000 
0.000000 58.000000 17.000000 
0.000000 58.000000 18.000000 
0.000000 58.000000 19.000000 
0.000000 58.000000 20.000000 
0.000000 58.000000 21.000000 
0.000000 58.000000 22.000000 
0.000000 58.000000 23.000000 
0.000000 58.000000 24.000000 
0.000000 58.000000 25.000000 
0.000000 58.000000 26.000000 
0.000000 58.000000 27.000000 
0.000000 58.000000 28.000000 
0.000000 58.000000 29.000000 
0.000000 58.000000 30.000000 
0.000000 58.000000 31.000000 
0.000000 58.000000 32.000000 
0.000000 58.000000 33.000000 
0.000000 58.000000 34.000000 
0.000000 58.000000 35.000000 
0.000000 58.000000 36.000000 
0.000000 58.000000 37.000000 
0.000000 58.000000 38.000000 
0.000000 58.000000 39.000000 
0.000000 58.000000 40.000000 
0.000000 59.000000 0.000000 
0.000000 59.000000 1.000000 
0.000000 59.000000 2.000000 
0.000000 59.000000 3.000000 
0.000000 59.000000 4.000000 
0.000000 59.000000 5.000000 
0.000000 59.000000 6.000000 
0.000000 59.000000 7.000000 
0.000000 59.000000 8.000000 
0.000000 59.000000 9.000000 
0.000000 59.000000 10.000000 
0.000000 59.000000 11.000000 
0.000000 59.000000 12.000000 
0.000000 59.000000 13.000000 
0.000000 59.000000 14.000000 
0.000000 59.000000 15.000000 
0.000000 59.000000 16.000000 
0.000000 59.000000 17.000000 
0.000000 59.000000 18.000000 
0.000000 59.000000 19.000000 
0.000000 59.000000 20.000000 
0.000000 59.000000 21.000000 
0.000000 59.000000 22.000000 
0.000000 59.000000 23.000000 
0.000000 59.000000 24.000000 
0.000000 59.000000 25.000000 
0.000000 59.000000 26.000000 
0.000000 59.000000 27.000000 
0.000000 59.000000 28.000000 
0.000000 59.000000 29.000000 
0.000000 59.000000 30.000000 
0.000000 59.000000 31.000000 
0.000000 59.000000 32.000000 
0.000000 59.000000 33.000000 
0.000000 59.000000 34.000000 
0.000000 59.000000 35.000000 
0.000000 59.000000 36.000000 
0.000000 59.000000 37.000000 
0.000000 59.000000 38.000000 
0.000000 59.000000 39.000000 
0.000000 59.000000 40.000000 
0.000000 60.000000 0.000000 
0.000000 60.000000 1.000000 
0.000000 60.000000 2.000000 
0.000000 60.000000 3.000000 
0.000000 60.000000 4.000000 
0.000000 60.000000 5.000000 
0.000000 60.000000 6.000000 
0.000000 60.000000 7.000000 
0.000000 60.000000 8.000000 
0.000000 60.000000 9.000000 
0.000000 60.000000 10.000000 
0.000000 60.000000 11.000000 
0.000000 60.000000 12.000000 
0.000000 60.000000 13.000000 
0.000000 60.000000 14.000000 
0.000000 60.000000 15.000000 
0.000000 60.000000 16.000000 
0.000000 60.000000 17.000000 
0.000000 60.000000 18.000000 
0.000000 60.000000 19.000000 
0.000000 60.000000 20.000000 
0.000000 60.000000 21.000000 
0.000000 60.000000 22.000000 
0.000000 60.000000 23.000000 
0.000000 60.000000 24.000000 
0.000000 60.000000 25.000000 
0.000000 60.000000 26.000000 
0.000000 60.000000 27.000000 
0.000000 60.000000 28.000000 
0.000000 60.000000 29.000000 
0.000000 60.000000 30.000000 
0.000000 60.000000 31.000000 
0.000000 60.000000 32.000000 
0.000000 60.000000 33.000000 
0.000000 60.000000 34.000000 
0.000000 60.000000 35.000000 
0.000000 60.000000 36.000000 
0.000000 60.000000 37.000000 
0.000000 60.000000 38.000000 
0.000000 60.000000 39.000000 
0.000000 60.000000 40.000000 
0.000000 61.000000 0.000000 
0.000000 61.000000 1.000000 
0.000000 61.000000 2.000000 
0.000000 61.000000 3.000000 
0.000000 61.000000 4.000000 
0.000000 61.000000 5.000000 
0.000000 61.000000 6.000000 
0.000000 61.000000 7.000000 
0.000000 61.000000 8.000000 
0.000000 61.000000 9.000000 
0.000000 61.000000 10.000000 
0.000000 61.000000 11.000000 
0.000000 61.000000 12.000000 
0.000000 61.000000 13.000000 
0.000000 61.000000 14.000000 
0.000000 61.000000 15.000000 
0.000000 61.000000 16.000000 
0.000000 61.000000 17.000000 
0.000000 61.000000 18.000000 
0.000000 61.000000 19.000000 
0.000000 61.000000 20.000000 
0.000000 61.000000 21.000000 
0.000000 61.000000 22.000000 
0.000000 61.000000 23.000000 
0.000000 61.000000 24.000000 
0.000000 61.000000 25.000000 
0.000000 61.000000 26.000000 
0.000000 61.000000 27.000000 
0.000000 61.000000 28.000000 
0.000000 61.000000 29.000000 
0.000000 61.000000 30.000000 
0.000000 61.000000 31.000000 
0.000000 61.000000 32.000000 
0.000000 61.000000 33.000000 
0.000000 61.000000 34.000000 
0.000000 61.000000 35.000000 
0.000000 61.000000 36.000000 
0.000000 61.000000 37.000000 
0.000000 61.000000 38.000000 
0.000000 61.000000 39.000000 
0.000000 61.000000 40.000000 
0.000000 62.000000 0.000000 
0.000000 62.000000 1.000000 
0.000000 62.000000 2.000000 
0.000000 62.000000 3.000000 
0.000000 62.000000 4.000000 
0.000000 62.000000 5.000000 
0.000000 62.000000 6.000000 
0.000000 62.000000 7.000000 
0.000000 62.000000 8.000000 
0.000000 62.000000 9.000000 
0.000000 62.000000 10.000000 
0.000000 62.000000 11.000000 
0.000000 62.000000 12.000000 
0.000000 62.000000 13.000000 
0.000000 62.000000 14.000000 
0.000000 62.000000 15.000000 
0.000000 62.000000 16.000000 
0.000000 62.000000 17.000000 
0.000000 62.000000 18.000000 
0.000000 62.000000 19.000000 
0.000000 62.000000 20.000000 
0.000000 62.000000 21.000000 
0.000000 62.000000 22.000000 
0.000000 62.000000 23.000000 
0.000000 62.000000 24.000000 
0.000000 62.000000 25.000000 
0.000000 62.000000 26.000000 
0.000000 62.000000 27.000000 
0.000000 62.000000 28.000000 
0.000000 62.000000 29.000000 
0.000000 62.000000 30.000000 
0.000000 62.000000 31.000000 
0.000000 62.000000 32.000000 
0.000000 62.000000 33.000000 
0.000000 62.000000 34.000000 
0.000000 62.000000 35.000000 
0.000000 62.000000 36.000000 
0.000000 62.000000 37.000000 
0.000000 62.000000 38.000000 
0.000000 62.000000 39.000000 
0.000000 62.000000 40.000000 
0.000000 63.000000 0.000000 
0.000000 63.000000 1.000000 
0.000000 63.000000 2.000000 
0.000000 63.000000 3.000000 
0.000000 63.000000 4.000000 
0.000000 63.000000 5.000000 
0.000000 63.000000 6.000000 
0.000000 63.000000 7.000000 
0.000000 63.000000 8.000000 
0.000000 63.000000 9.000000 
0.000000 63.000000 10.000000 
0.000000 63.000000 11.000000 
0.000000 63.000000 12.000000 
0.000000 63.000000 13.000000 
0.000000 63.000000 14.000000 
0.000000 63.000000 15.000000 
0.000000 63.000000 16.000000 
0.000000 63.000000 17.000000 
0.000000 63.000000 18.000000 
0.000000 63.000000 19.000000 
0.000000 63.000000 20.000000 
0.000000 63.000000 21.000000 
0.000000 63.000000 22.000000 
0.000000 63.000000 23.000000 
0.000000 63.000000 24.000000 
0.000000 63.000000 25.000000 
0.000000 63.000000 26.000000 
0.000000 63.000000 27.000000 
0.000000 63.000000 28.000000 
0.000000 63.000000 29.000000 
0.000000 63.000000 30.000000 
0.000000 63.000000 31.000000 
0.000000 63.000000 32.000000 
0.000000 63.000000 33.000000 
0.000000 63.000000 34.000000 
0.000000 63.000000 35.000000 
0.000000 63.000000 36.000000 
0.000000 63.000000 37.000000 
0.000000 63.000000 38.000000 
0.000000 63.000000 39.000000 
0.000000 63.000000 40.000000 
0.000000 64.000000 0.000000 
0.000000 64.000000 1.000000 
0.000000 64.000000 2.000000 
0.000000 64.000000 3.000000 
0.000000 64.000000 4.000000 
0.000000 64.000000 5.000000 
0.000000 64.000000 6.000000 
0.000000 64.000000 7.000000 
0.000000 64.000000 8.000000 
0.000000 64.000000 9.000000 
0.000000 64.000000 10.000000 
0.000000 64.000000 11.000000 
0.000000 64.000000 12.000000 
0.000000 64.000000 13.000000 
0.000000 64.000000 14.000000 
0.000000 64.000000 15.000000 
0.000000 64.000000 16.000000 
0.000000 64.000000 17.000000 
0.000000 64.000000 18.000000 
0.000000 64.000000 19.000000 
0.000000 64.000000 20.000000 
0.000000 64.000000 21.000000 
0.000000 64.000000 22.000000 
0.000000 64.000000 23.000000 
0.000000 64.000000 24.000000 
0.000000 64.000000 25.000000 
0.000000 64.000000 26.000000 
0.000000 64.000000 27.000000 
0.000000 64.000000 28.000000 
0.000000 64.000000 29.000000 
0.000000 64.000000 30.000000 
0.000000 64.000000 31.000000 
0.000000 64.000000 32.000000 
0.000000 64.000000 33.000000 
0.000000 64.000000 34.000000 
0.000000 64.000000 35.000000 
0.000000 64.000000 36.000000 
0.000000 64.000000 37.000000 
0.000000 64.000000 38.000000 
0.000000 64.000000 39.000000 
0.000000 64.000000 40.000000 
0.000000 65.000000 0.000000 
0.000000 65.000000 1.000000 
0.000000 65.000000 2.000000 
0.000000 65.000000 3.000000 
0.000000 65.000000 4.000000 
0.000000 65.000000 5.000000 
0.000000 65.000000 6.000000 
0.000000 65.000000 7.000000 
0.000000 65.000000 8.000000 
0.000000 65.000000 9.000000 
0.000000 65.000000 10.000000 
0.000000 65.000000 11.000000 
0.000000 65.000000 12.000000 
0.000000 65.000000 13.000000 
0.000000 65.000000 14.000000 
0.000000 65.000000 15.000000 
0.000000 65.000000 16.000000 
0.000000 65.000000 17.000000 
0.000000 65.000000 18.000000 
0.000000 65.000000 19.000000 
0.000000 65.000000 20.000000 
0.000000 65.000000 21.000000 
0.000000 65.000000 22.000000 
0.000000 65.000000 23.000000 
0.000000 65.000000 24.000000 
0.000000 65.000000 25.000000 
0.000000 65.000000 26.000000 
0.000000 65.000000 27.000000 
0.000000 65.000000 28.000000 
0.000000 65.000000 29.000000 
0.000000 65.000000 30.000000 
0.000000 65.000000 31.000000 
0.000000 65.000000 32.000000 
0.000000 65.000000 33.000000 
0.000000 65.000000 34.000000 
0.000000 65.000000 35.000000 
0.000000 65.000000 36.000000 
0.000000 65.000000 37.000000 
0.000000 65.000000 38.000000 
0.000000 65.000000 39.000000 
0.000000 65.000000 40.000000 
0.000000 66.000000 0.000000 
0.000000 66.000000 1.000000 
0.000000 66.000000 2.000000 
0.000000 66.000000 3.000000 
0.000000 66.000000 4.000000 
0.000000 66.000000 5.000000 
0.000000 66.000000 6.000000 
0.000000 66.000000 7.000000 
0.000000 66.000000 8.000000 
0.000000 66.000000 9.000000 
0.000000 66.000000 10.000000 
0.000000 66.000000 11.000000 
0.000000 66.000000 12.000000 
0.000000 66.000000 13.000000 
0.000000 66.000000 14.000000 
0.000000 66.000000 15.000000 
0.000000 66.000000 16.000000 
0.000000 66.000000 17.000000 
0.000000 66.000000 18.000000 
0.000000 66.000000 19.000000 
0.000000 66.000000 20.000000 
0.000000 66.000000 21.000000 
0.000000 66.000000 22.000000 
0.000000 66.000000 23.000000 
0.000000 66.000000 24.000000 
0.000000 66.000000 25.000000 
0.000000 66.000000 26.000000 
0.000000 66.000000 27.000000 
0.000000 66.000000 28.000000 
0.000000 66.000000 29.000000 
0.000000 66.000000 30.000000 
0.000000 66.000000 31.000000 
0.000000 66.000000 32.000000 
0.000000 66.000000 33.000000 
0.000000 66.000000 34.000000 
0.000000 66.000000 35.000000 
0.000000 66.000000 36.000000 
0.000000 66.000000 37.000000 
0.000000 66.000000 38.000000 
0.000000 66.000000 39.000000 
0.000000 66.000000 40.000000 
0.000000 67.000000 0.000000 
0.000000 67.000000 1.000000 
0.000000 67.000000 2.000000 
0.000000 67.000000 3.000000 
0.000000 67.000000 4.000000 
0.000000 67.000000 5.000000 
0.000000 67.000000 6.000000 
0.000000 67.000000 7.000000 
0.000000 67.000000 8.000000 
0.000000 67.000000 9.000000 
0.000000 67.000000 10.000000 
0.000000 67.000000 11.000000 
0.000000 67.000000 12.000000 
0.000000 67.000000 13.000000 
0.000000 67.000000 14.000000 
0.000000 67.000000 15.000000 
0.000000 67.000000 16.000000 
0.000000 67.000000 17.000000 
0.000000 67.000000 18.000000 
0.000000 67.000000 19.000000 
0.000000 67.000000 20.000000 
0.000000 67.000000 21.000000 
0.000000 67.000000 22.000000 
0.000000 67.000000 23.000000 
0.000000 67.000000 24.000000 
0.000000 67.000000 25.000000 
0.000000 67.000000 26.000000 
0.000000 67.000000 27.000000 
0.000000 67.000000 28.000000 
0.000000 67.000000 29.000000 
0.000000 67.000000 30.000000 
0.000000 67.000000 31.000000 
0.000000 67.000000 32.000000 
0.000000 67.000000 33.000000 
0.000000 67.000000 34.000000 
0.000000 67.000000 35.000000 
0.000000 67.000000 36.000000 
0.000000 67.000000 37.000000 
0.000000 67.000000 38.000000 
0.000000 67.000000 39.000000 
0.000000 67.000000 40.000000 
0.000000 68.000000 0.000000 
0.000000 68.000000 1.000000 
0.000000 68.000000 2.000000 
0.000000 68.000000 3.000000 
0.000000 68.000000 4.000000 
0.000000 68.000000 5.000000 
0.000000 68.000000 6.000000 
0.000000 68.000000 7.000000 
0.000000 68.000000 8.000000 
0.000000 68.000000 9.000000 
0.000000 68.000000 10.000000 
0.000000 68.000000 11.000000 
0.000000 68.000000 12.000000 
0.000000 68.000000 13.000000 
0.000000 68.000000 14.000000 
0.000000 68.000000 15.000000 
0.000000 68.000000 16.000000 
0.000000 68.000000 17.000000 
0.000000 68.000000 18.000000 
0.000000 68.000000 19.000000 
0.000000 68.000000 20.000000 
0.000000 68.000000 21.000000 
0.000000 68.000000 22.000000 
0.000000 68.000000 23.000000 
0.000000 68.000000 24.000000 
0.000000 68.000000 25.000000 
0.000000 68.000000 26.000000 
0.000000 68.000000 27.000000 
0.000000 68.000000 28.000000 
0.000000 68.000000 29.000000 
0.000000 68.000000 30.000000 
0.000000 68.000000 31.000000 
0.000000 68.000000 32.000000 
0.000000 68.000000 33.000000 
0.000000 68.000000 34.000000 
0.000000 68.000000 35.000000 
0.000000 68.000000 36.000000 
0.000000 68.000000 37.000000 
0.000000 68.000000 38.000000 
0.000000 68.000000 39.000000 
0.000000 68.000000 40.000000 
0.000000 69.000000 0.000000 
0.000000 69.000000 1.000000 
0.000000 69.000000 2.000000 
0.000000 69.000000 3.000000 
0.000000 69.000000 4.000000 
0.000000 69.000000 5.000000 
0.000000 69.000000 6.000000 
0.000000 69.000000 7.000000 
0.000000 69.000000 8.000000 
0.000000 69.000000 9.000000 
0.000000 69.000000 10.000000 
0.000000 69.000000 11.000000 
0.000000 69.000000 12.000000 
0.000000 69.000000 13.000000 
0.000000 69.000000 14.000000 
0.000000 69.000000 15.000000 
0.000000 69.000000 16.000000 
0.000000 69.000000 17.000000 
0.000000 69.000000 18.000000 
0.000000 69.000000 19.000000 
0.000000 69.000000 20.000000 
0.000000 69.000000 21.000000 
0.000000 69.000000 22.000000 
0.000000 69.000000 23.000000 
0.000000 69.000000 24.000000 
0.000000 69.000000 25.000000 
0.000000 69.000000 26.000000 
0.000000 69.000000 27.000000 
0.000000 69.000000 28.000000 
0.000000 69.000000 29.000000 
0.000000 69.000000 30.000000 
0.000000 69.000000 31.000000 
0.000000 69.000000 32.000000 
0.000000 69.000000 33.000000 
0.000000 69.000000 34.000000 
0.000000 69.000000 35.000000 
0.000000 69.000000 36.000000 
0.000000 69.000000 37.000000 
0.000000 69.000000 38.000000 
0.000000 69.000000 39.000000 
0.000000 69.000000 40.000000 
0.000000 70.000000 0.000000 
0.000000 70.000000 1.000000 
0.000000 70.000000 2.000000 
0.000000 70.000000 3.000000 
0.000000 70.000000 4.000000 
0.000000 70.000000 5.000000 
0.000000 70.000000 6.000000 
0.000000 70.000000 7.000000 
0.000000 70.000000 8.000000 
0.000000 70.000000 9.000000 
0.000000 70.000000 10.000000 
0.000000 70.000000 11.000000 
0.000000 70.000000 12.000000 
0.000000 70.000000 13.000000 
0.000000 70.000000 14.000000 
0.000000 70.000000 15.000000 
0.000000 70.000000 16.000000 
0.000000 70.000000 17.000000 
0.000000 70.000000 18.000000 
0.000000 70.000000 19.000000 
0.000000 70.000000 20.000000 
0.000000 70.000000 21.000000 
0.000000 70.000000 22.000000 
0.000000 70.000000 23.000000 
0.000000 70.000000 24.000000 
0.000000 70.000000 25.000000 
0.000000 70.000000 26.000000 
0.000000 70.000000 27.000000 
0.000000 70.000000 28.000000 
0.000000 70.000000 29.000000 
0.000000 70.000000 30.000000 
0.000000 70.000000 31.000000 
0.000000 70.000000 32.000000 
0.000000 70.000000 33.000000 
0.000000 70.000000 34.000000 
0.000000 70.000000 35.000000 
0.000000 70.000000 36.000000 
0.000000 70.000000 37.000000 
0.000000 70.000000 38.000000 
0.000000 70.000000 39.000000 
0.000000 70.000000 40.000000 
0.000000 71.000000 0.000000 
0.000000 71.000000 1.000000 
0.000000 71.000000 2.000000 
0.000000 71.000000 3.000000 
0.000000 71.000000 4.000000 
0.000000 71.000000 5.000000 
0.000000 71.000000 6.000000 
0.000000 71.000000 7.000000 
0.000000 71.000000 8.000000 
0.000000 71.000000 9.000000 
0.000000 71.000000 10.000000 
0.000000 71.000000 11.000000 
0.000000 71.000000 12.000000 
0.000000 71.000000 13.000000 
0.000000 71.000000 14.000000 
0.000000 71.000000 15.000000 
0.000000 71.000000 16.000000 
0.000000 71.000000 17.000000 
0.000000 71.000000 18.000000 
0.000000 71.000000 19.000000 
0.000000 71.000000 20.000000 
0.000000 71.000000 21.000000 
0.000000 71.000000 22.000000 
0.000000 71.000000 23.000000 
0.000000 71.000000 24.000000 
0.000000 71.000000 25.000000 
0.000000 71.000000 26.000000 
0.000000 71.000000 27.000000 
0.000000 71.000000 28.000000 
0.000000 71.000000 29.000000 
0.000000 71.000000 30.000000 
0.000000 71.000000 31.000000 
0.000000 71.000000 32.000000 
0.000000 71.000000 33.000000 
0.000000 71.000000 34.000000 
0.000000 71.000000 35.000000 
0.000000 71.000000 36.000000 
0.000000 71.000000 37.000000 
0.000000 71.000000 38.000000 
0.000000 71.000000 39.000000 
0.000000 71.000000 40.000000 
0.000000 72.000000 0.000000 
0.000000 72.000000 1.000000 
0.000000 72.000000 2.000000 
0.000000 72.000000 3.000000 
0.000000 72.000000 4.000000 
0.000000 72.000000 5.000000 
0.000000 72.000000 6.000000 
0.000000 72.000000 7.000000 
0.000000 72.000000 8.000000 
0.000000 72.000000 9.000000 
0.000000 72.000000 10.000000 
0.000000 72.000000 11.000000 
0.000000 72.000000 12.000000 
0.000000 72.000000 13.000000 
0.000000 72.000000 14.000000 
0.000000 72.000000 15.000000 
0.000000 72.000000 16.000000 
0.000000 72.000000 17.000000 
0.000000 72.000000 18.000000 
0.000000 72.000000 19.000000 
0.000000 72.000000 20.000000 
0.000000 72.000000 21.000000 
0.000000 72.000000 22.000000 
0.000000 72.000000 23.000000 
0.000000 72.000000 24.000000 
0.000000 72.000000 25.000000 
0.000000 72.000000 26.000000 
0.000000 72.000000 27.000000 
0.000000 72.000000 28.000000 
0.000000 72.000000 29.000000 
0.000000 72.000000 30.000000 
0.000000 72.000000 31.000000 
0.000000 72.000000 32.000000 
0.000000 72.000000 33.000000 
0.000000 72.000000 34.000000 
0.000000 72.000000 35.000000 
0.000000 72.000000 36.000000 
0.000000 72.000000 37.000000 
0.000000 72.000000 38.000000 
0.000000 72.000000 39.000000 
0.000000 72.000000 40.000000 
0.000000 73.000000 0.000000 
0.000000 73.000000 1.000000 
0.000000 73.000000 2.000000 
0.000000 73.000000 3.000000 
0.000000 73.000000 4.000000 
0.000000 73.000000 5.000000 
0.000000 73.000000 6.000000 
0.000000 73.000000 7.000000 
0.000000 73.000000 8.000000 
0.000000 73.000000 9.000000 
0.000000 73.000000 10.000000 
0.000000 73.000000 11.000000 
0.000000 73.000000 12.000000 
0.000000 73.000000 13.000000 
0.000000 73.000000 14.000000 
0.000000 73.000000 15.000000 
0.000000 73.000000 16.000000 
0.000000 73.000000 17.000000 
0.000000 73.000000 18.000000 
0.000000 73.000000 19.000000 
0.000000 73.000000 20.000000 
0.000000 73.000000 21.000000 
0.000000 73.000000 22.000000 
0.000000 73.000000 23.000000 
0.000000 73.000000 24.000000 
0.000000 73.000000 25.000000 
0.000000 73.000000 26.000000 
0.000000 73.000000 27.000000 
0.000000 73.000000 28.000000 
0.000000 73.000000 29.000000 
0.000000 73.000000 30.000000 
0.000000 73.000000 31.000000 
0.000000 73.000000 32.000000 
0.000000 73.000000 33.000000 
0.000000 73.000000 34.000000 
0.000000 73.000000 35.000000 
0.000000 73.000000 36.000000 
0.000000 73.000000 37.000000 
0.000000 73.000000 38.000000 
0.000000 73.000000 39.000000 
0.000000 73.000000 40.000000 
0.000000 74.000000 0.000000 
0.000000 74.000000 1.000000 
0.000000 74.000000 2.000000 
0.000000 74.000000 3.000000 
0.000000 74.000000 4.000000 
0.000000 74.000000 5.000000 
0.000000 74.000000 6.000000 
0.000000 74.000000 7.000000 
0.000000 74.000000 8.000000 
0.000000 74.000000 9.000000 
0.000000 74.000000 10.000000 
0.000000 74.000000 11.000000 
0.000000 74.000000 12.000000 
0.000000 74.000000 13.000000 
0.000000 74.000000 14.000000 
0.000000 74.000000 15.000000 
0.000000 74.000000 16.000000 
0.000000 74.000000 17.000000 
0.000000 74.000000 18.000000 
0.000000 74.000000 19.000000 
0.000000 74.000000 20.000000 
0.000000 74.000000 21.000000 
0.000000 74.000000 22.000000 
0.000000 74.000000 23.000000 
0.000000 74.000000 24.000000 
0.000000 74.000000 25.000000 
0.000000 74.000000 26.000000 
0.000000 74.000000 27.000000 
0.000000 74.000000 28.000000 
0.000000 74.000000 29.000000 
0.000000 74.000000 30.000000 
0.000000 74.000000 31.000000 
0.000000 74.000000 32.000000 
0.000000 74.000000 33.000000 
0.000000 74.000000 34.000000 
0.000000 74.000000 35.000000 
0.000000 74.000000 36.000000 
0.000000 74.000000 37.000000 
0.000000 74.000000 38.000000 
0.000000 74.000000 39.000000 
0.000000 74.000000 40.000000 
0.000000 75.000000 0.000000 
0.000000 75.000000 1.000000 
0.000000 75.000000 2.000000 
0.000000 75.000000 3.000000 
0.000000 75.000000 4.000000 
0.000000 75.000000 5.000000 
0.000000 75.000000 6.000000 
0.000000 75.000000 7.000000 
0.000000 75.000000 8.000000 
0.000000 75.000000 9.000000 
0.000000 75.000000 10.000000 
0.000000 75.000000 11.000000 
0.000000 75.000000 12.000000 
0.000000 75.000000 13.000000 
0.000000 75.000000 14.000000 
0.000000 75.000000 15.000000 
0.000000 75.000000 16.000000 
0.000000 75.000000 17.000000 
0.000000 75.000000 18.000000 
0.000000 75.000000 19.000000 
0.000000 75.000000 20.000000 
0.000000 75.000000 21.000000 
0.000000 75.000000 22.000000 
0.000000 75.000000 23.000000 
0.000000 75.000000 24.000000 
0.000000 75.000000 25.000000 
0.000000 75.000000 26.000000 
0.000000 75.000000 27.000000 
0.000000 75.000000 28.000000 
0.000000 75.000000 29.000000 
0.000000 75.000000 30.000000 
0.000000 75.000000 31.000000 
0.000000 75.000000 32.000000 
0.000000 75.000000 33.000000 
0.000000 75.000000 34.000000 
0.000000 75.000000 35.000000 
0.000000 75.000000 36.000000 
0.000000 75.000000 37.000000 
0.000000 75.000000 38.000000 
0.000000 75.000000 39.000000 
0.000000 75.000000 40.000000 
0.000000 76.000000 0.000000 
0.000000 76.000000 1.000000 
0.000000 76.000000 2.000000 
0.000000 76.000000 3.000000 
0.000000 76.000000 4.000000 
0.000000 76.000000 5.000000 
0.000000 76.000000 6.000000 
0.000000 76.000000 7.000000 
0.000000 76.000000 8.000000 
0.000000 76.000000 9.000000 
0.000000 76.000000 10.000000 
0.000000 76.000000 11.000000 
0.000000 76.000000 12.000000 
0.000000 76.000000 13.000000 
0.000000 76.000000 14.000000 
0.000000 76.000000 15.000000 
0.000000 76.000000 16.000000 
0.000000 76.000000 17.000000 
0.000000 76.000000 18.000000 
0.000000 76.000000 19.000000 
0.000000 76.000000 20.000000 
0.000000 76.000000 21.000000 
0.000000 76.000000 22.000000 
0.000000 76.000000 23.000000 
0.000000 76.000000 24.000000 
0.000000 76.000000 25.000000 
0.000000 76.000000 26.000000 
0.000000 76.000000 27.000000 
0.000000 76.000000 28.000000 
0.000000 76.000000 29.000000 
0.000000 76.000000 30.000000 
0.000000 76.000000 31.000000 
0.000000 76.000000 32.000000 
0.000000 76.000000 33.000000 
0.000000 76.000000 34.000000 
0.000000 76.000000 35.000000 
0.000000 76.000000 36.000000 
0.000000 76.000000 37.000000 
0.000000 76.000000 38.000000 
0.000000 76.000000 39.000000 
0.000000 76.000000 40.000000 
0.000000 77.000000 0.000000 
0.000000 77.000000 1.000000 
0.000000 77.000000 2.000000 
0.000000 77.000000 3.000000 
0.000000 77.000000 4.000000 
0.000000 77.000000 5.000000 
0.000000 77.000000 6.000000 
0.000000 77.000000 7.000000 
0.000000 77.000000 8.000000 
0.000000 77.000000 9.000000 
0.000000 77.000000 10.000000 
0.000000 77.000000 11.000000 
0.000000 77.000000 12.000000 
0.000000 77.000000 13.000000 
0.000000 77.000000 14.000000 
0.000000 77.000000 15.000000 
0.000000 77.000000 16.000000 
0.000000 77.000000 17.000000 
0.000000 77.000000 18.000000 
0.000000 77.000000 19.000000 
0.000000 77.000000 20.000000 
0.000000 77.000000 21.000000 
0.000000 77.000000 22.000000 
0.000000 77.000000 23.000000 
0.000000 77.000000 24.000000 
0.000000 77.000000 25.000000 
0.000000 77.000000 26.000000 
0.000000 77.000000 27.000000 
0.000000 77.000000 28.000000 
0.000000 77.000000 29.000000 
0.000000 77.000000 30.000000 
0.000000 77.000000 31.000000 
0.000000 77.000000 32.000000 
0.000000 77.000000 33.000000 
0.000000 77.000000 34.000000 
0.000000 77.000000 35.000000 
0.000000 77.000000 36.000000 
0.000000 77.000000 37.000000 
0.000000 77.000000 38.000000 
0.000000 77.000000 39.000000 
0.000000 77.000000 40.000000 
0.000000 78.000000 0.000000 
0.000000 78.000000 1.000000 
0.000000 78.000000 2.000000 
0.000000 78.000000 3.000000 
0.000000 78.000000 4.000000 
0.000000 78.000000 5.000000 
0.000000 78.000000 6.000000 
0.000000 78.000000 7.000000 
0.000000 78.000000 8.000000 
0.000000 78.000000 9.000000 
0.000000 78.000000 10.000000 
0.000000 78.000000 11.000000 
0.000000 78.000000 12.000000 
0.000000 78.000000 13.000000 
0.000000 78.000000 14.000000 
0.000000 78.000000 15.000000 
0.000000 78.000000 16.000000 
0.000000 78.000000 17.000000 
0.000000 78.000000 18.000000 
0.000000 78.000000 19.000000 
0.000000 78.000000 20.000000 
0.000000 78.000000 21.000000 
0.000000 78.000000 22.000000 
0.000000 78.000000 23.000000 
0.000000 78.000000 24.000000 
0.000000 78.000000 25.000000 
0.000000 78.000000 26.000000 
0.000000 78.000000 27.000000 
0.000000 78.000000 28.000000 
0.000000 78.000000 29.000000 
0.000000 78.000000 30.000000 
0.000000 78.000000 31.000000 
0.000000 78.000000 32.000000 
0.000000 78.000000 33.000000 
0.000000 78.000000 34.000000 
0.000000 78.000000 35.000000 
0.000000 78.000000 36.000000 
0.000000 78.000000 37.000000 
0.000000 78.000000 38.000000 
0.000000 78.000000 39.000000 
0.000000 78.000000 40.000000 
0.000000 79.000000 0.000000 
0.000000 79.000000 1.000000 
0.000000 79.000000 2.000000 
0.000000 79.000000 3.000000 
0.000000 79.000000 4.000000 
0.000000 79.000000 5.000000 
0.000000 79.000000 6.000000 
0.000000 79.000000 7.000000 
0.000000 79.000000 8.000000 
0.000000 79.000000 9.000000 
0.000000 79.000000 10.000000 
0.000000 79.000000 11.000000 
0.000000 79.000000 12.000000 
0.000000 79.000000 13.000000 
0.000000 79.000000 14.000000 
0.000000 79.000000 15.000000 
0.000000 79.000000 16.000000 
0.000000 79.000000 17.000000 
0.000000 79.000000 18.000000 
0.000000 79.000000 19.000000 
0.000000 79.000000 20.000000 
0.000000 79.000000 21.000000 
0.000000 79.000000 22.000000 
0.000000 79.000000 23.000000 
0.000000 79.000000 24.000000 
0.000000 79.000000 25.000000 
0.000000 79.000000 26.000000 
0.000000 79.000000 27.000000 
0.000000 79.000000 28.000000 
0.000000 79.000000 29.000000 
0.000000 79.000000 30.000000 
0.000000 79.000000 31.000000 
0.000000 79.000000 32.000000 
0.000000 79.000000 33.000000 
0.000000 79.000000 34.000000 
0.000000 79.000000 35.000000 
0.000000 79.000000 36.000000 
0.000000 79.000000 37.000000 
0.000000 79.000000 38.000000 
0.000000 79.000000 39.000000 
0.000000 79.000000 40.000000 
0.000000 80.000000 0.000000 
0.000000 80.000000 1.000000 
0.000000 80.000000 2.000000 
0.000000 80.000000 3.000000 
0.000000 80.000000 4.000000 
0.000000 80.000000 5.000000 
0.000000 80.000000 6.000000 
0.000000 80.000000 7.000000 
0.000000 80.000000 8.000000 
0.000000 80.000000 9.000000 
0.000000 80.000000 10.000000 
0.000000 80.000000 11.000000 
0.000000 80.000000 12.000000 
0.000000 80.000000 13.000000 
0.000000 80.000000 14.000000 
0.000000 80.000000 15.000000 
0.000000 80.000000 16.000000 
0.000000 80.000000 17.000000 
0.000000 80.000000 18.000000 
0.000000 80.000000 19.000000 
0.000000 80.000000 20.000000 
0.000000 80.000000 21.000000 
0.000000 80.000000 22.000000 
0.000000 80.000000 23.000000 
0.000000 80.000000 24.000000 
0.000000 80.000000 25.000000 
0.000000 80.000000 26.000000 
0.000000 80.000000 27.000000 
0.000000 80.000000 28.000000 
0.000000 80.000000 29.000000 
0.000000 80.000000 30.000000 
0.000000 80.000000 31.000000 
0.000000 80.000000 32.000000 
0.000000 80.000000 33.000000 
0.000000 80.000000 34.000000 
0.000000 80.000000 35.000000 
0.000000 80.000000 36.000000 
0.000000 80.000000 37.000000 
0.000000 80.000000 38.000000 
0.000000 80.000000 39.000000 
0.000000 80.000000 40.000000 
0.000000 81.000000 0.000000 
0.000000 81.000000 1.000000 
0.000000 81.000000 2.000000 
0.000000 81.000000 3.000000 
0.000000 81.000000 4.000000 
0.000000 81.000000 5.000000 
0.000000 81.000000 6.000000 
0.000000 81.000000 7.000000 
0.000000 81.000000 8.000000 
0.000000 81.000000 9.000000 
0.000000 81.000000 10.000000 
0.000000 81.000000 11.000000 
0.000000 81.000000 12.000000 
0.000000 81.000000 13.000000 
0.000000 81.000000 14.000000 
0.000000 81.000000 15.000000 
0.000000 81.000000 16.000000 
0.000000 81.000000 17.000000 
0.000000 81.000000 18.000000 
0.000000 81.000000 19.000000 
0.000000 81.000000 20.000000 
0.000000 81.000000 21.000000 
0.000000 81.000000 22.000000 
0.000000 81.000000 23.000000 
0.000000 81.000000 24.000000 
0.000000 81.000000 25.000000 
0.000000 81.000000 26.000000 
0.000000 81.000000 27.000000 
0.000000 81.000000 28.000000 
0.000000 81.000000 29.000000 
0.000000 81.000000 30.000000 
0.000000 81.000000 31.000000 
0.000000 81.000000 32.000000 
0.000000 81.000000 33.000000 
0.000000 81.000000 34.000000 
0.000000 81.000000 35.000000 
0.000000 81.000000 36.000000 
0.000000 81.000000 37.000000 
0.000000 81.000000 38.000000 
0.000000 81.000000 39.000000 
0.000000 81.000000 40.000000 
0.000000 82.000000 0.000000 
0.000000 82.000000 1.000000 
0.000000 82.000000 2.000000 
0.000000 82.000000 3.000000 
0.000000 82.000000 4.000000 
0.000000 82.000000 5.000000 
0.000000 82.000000 6.000000 
0.000000 82.000000 7.000000 
0.000000 82.000000 8.000000 
0.000000 82.000000 9.000000 
0.000000 82.000000 10.000000 
0.000000 82.000000 11.000000 
0.000000 82.000000 12.000000 
0.000000 82.000000 13.000000 
0.000000 82.000000 14.000000 
0.000000 82.000000 15.000000 
0.000000 82.000000 16.000000 
0.000000 82.000000 17.000000 
0.000000 82.000000 18.000000 
0.000000 82.000000 19.000000 
0.000000 82.000000 20.000000 
0.000000 82.000000 21.000000 
0.000000 82.000000 22.000000 
0.000000 82.000000 23.000000 
0.000000 82.000000 24.000000 
0.000000 82.000000 25.000000 
0.000000 82.000000 26.000000 
0.000000 82.000000 27.000000 
0.000000 82.000000 28.000000 
0.000000 82.000000 29.000000 
0.000000 82.000000 30.000000 
0.000000 82.000000 31.000000 
0.000000 82.000000 32.000000 
0.000000 82.000000 33.000000 
0.000000 82.000000 34.000000 
0.000000 82.000000 35.000000 
0.000000 82.000000 36.000000 
0.000000 82.000000 37.000000 
0.000000 82.000000 38.000000 
0.000000 82.000000 39.000000 
0.000000 82.000000 40.000000 
0.000000 83.000000 0.000000 
0.000000 83.000000 1.000000 
0.000000 83.000000 2.000000 
0.000000 83.000000 3.000000 
0.000000 83.000000 4.000000 
0.000000 83.000000 5.000000 
0.000000 83.000000 6.000000 
0.000000 83.000000 7.000000 
0.000000 83.000000 8.000000 
0.000000 83.000000 9.000000 
0.000000 83.000000 10.000000 
0.000000 83.000000 11.000000 
0.000000 83.000000 12.000000 
0.000000 83.000000 13.000000 
0.000000 83.000000 14.000000 
0.000000 83.000000 15.000000 
0.000000 83.000000 16.000000 
0.000000 83.000000 17.000000 
0.000000 83.000000 18.000000 
0.000000 83.000000 19.000000 
0.000000 83.000000 20.000000 
0.000000 83.000000 21.000000 
0.000000 83.000000 22.000000 
0.000000 83.000000 23.000000 
0.000000 83.000000 24.000000 
0.000000 83.000000 25.000000 
0.000000 83.000000 26.000000 
0.000000 83.000000 27.000000 
0.000000 83.000000 28.000000 
0.000000 83.000000 29.000000 
0.000000 83.000000 30.000000 
0.000000 83.000000 31.000000 
0.000000 83.000000 32.000000 
0.000000 83.000000 33.000000 
0.000000 83.000000 34.000000 
0.000000 83.000000 35.000000 
0.000000 83.000000 36.000000 
0.000000 83.000000 37.000000 
0.000000 83.000000 38.000000 
0.000000 83.000000 39.000000 
0.000000 83.000000 40.000000 
0.000000 84.000000 0.000000 
0.000000 84.000000 1.000000 
0.000000 84.000000 2.000000 
0.000000 84.000000 3.000000 
0.000000 84.000000 4.000000 
0.000000 84.000000 5.000000 
0.000000 84.000000 6.000000 
0.000000 84.000000 7.000000 
0.000000 84.000000 8.000000 
0.000000 84.000000 9.000000 
0.000000 84.000000 10.000000 
0.000000 84.000000 11.000000 
0.000000 84.000000 12.000000 
0.000000 84.000000 13.000000 
0.000000 84.000000 14.000000 
0.000000 84.000000 15.000000 
0.000000 84.000000 16.000000 
0.000000 84.000000 17.000000 
0.000000 84.000000 18.000000 
0.000000 84.000000 19.000000 
0.000000 84.000000 20.000000 
0.000000 84.000000 21.000000 
0.000000 84.000000 22.000000 
0.000000 84.000000 23.000000 
0.000000 84.000000 24.000000 
0.000000 84.000000 25.000000 
0.000000 84.000000 26.000000 
0.000000 84.000000 27.000000 
0.000000 84.000000 28.000000 
0.000000 84.000000 29.000000 
0.000000 84.000000 30.000000 
0.000000 84.000000 31.000000 
0.000000 84.000000 32.000000 
0.000000 84.000000 33.000000 
0.000000 84.000000 34.000000 
0.000000 84.000000 35.000000 
0.000000 84.000000 36.000000 
0.000000 84.000000 37.000000 
0.000000 84.000000 38.000000 
0.000000 84.000000 39.000000 
0.000000 84.000000 40.000000 
0.000000 85.000000 0.000000 
0.000000 85.000000 1.000000 
0.000000 85.000000 2.000000 
0.000000 85.000000 3.000000 
0.000000 85.000000 4.000000 
0.000000 85.000000 5.000000 
0.000000 85.000000 6.000000 
0.000000 85.000000 7.000000 
0.000000 85.000000 8.000000 
0.000000 85.000000 9.000000 
0.000000 85.000000 10.000000 
0.000000 85.000000 11.000000 
0.000000 85.000000 12.000000 
0.000000 85.000000 13.000000 
0.000000 85.000000 14.000000 
0.000000 85.000000 15.000000 
0.000000 85.000000 16.000000 
0.000000 85.000000 17.000000 
0.000000 85.000000 18.000000 
0.000000 85.000000 19.000000 
0.000000 85.000000 20.000000 
0.000000 85.000000 21.000000 
0.000000 85.000000 22.000000 
0.000000 85.000000 23.000000 
0.000000 85.000000 24.000000 
0.000000 85.000000 25.000000 
0.000000 85.000000 26.000000 
0.000000 85.000000 27.000000 
0.000000 85.000000 28.000000 
0.000000 85.000000 29.000000 
0.000000 85.000000 30.000000 
0.000000 85.000000 31.000000 
0.000000 85.000000 32.000000 
0.000000 85.000000 33.000000 
0.000000 85.000000 34.000000 
0.000000 85.000000 35.000000 
0.000000 85.000000 36.000000 
0.000000 85.000000 37.000000 
0.000000 85.000000 38.000000 
0.000000 85.000000 39.000000 
0.000000 85.000000 40.000000 
0.000000 86.000000 0.000000 
0.000000 86.000000 1.000000 
0.000000 86.000000 2.000000 
0.000000 86.000000 3.000000 
0.000000 86.000000 4.000000 
0.000000 86.000000 5.000000 
0.000000 86.000000 6.000000 
0.000000 86.000000 7.000000 
0.000000 86.000000 8.000000 
0.000000 86.000000 9.000000 
0.000000 86.000000 10.000000 
0.000000 86.000000 11.000000 
0.000000 86.000000 12.000000 
0.000000 86.000000 13.000000 
0.000000 86.000000 14.000000 
0.000000 86.000000 15.000000 
0.000000 86.000000 16.000000 
0.000000 86.000000 17.000000 
0.000000 86.000000 18.000000 
0.000000 86.000000 19.000000 
0.000000 86.000000 20.000000 
0.000000 86.000000 21.000000 
0.000000 86.000000 22.000000 
0.000000 86.000000 23.000000 
0.000000 86.000000 24.000000 
0.000000 86.000000 25.000000 
0.000000 86.000000 26.000000 
0.000000 86.000000 27.000000 
0.000000 86.000000 28.000000 
0.000000 86.000000 29.000000 
0.000000 86.000000 30.000000 
0.000000 86.000000 31.000000 
0.000000 86.000000 32.000000 
0.000000 86.000000 33.000000 
0.000000 86.000000 34.000000 
0.000000 86.000000 35.000000 
0.000000 86.000000 36.000000 
0.000000 86.000000 37.000000 
0.000000 86.000000 38.000000 
0.000000 86.000000 39.000000 
0.000000 86.000000 40.000000 
0.000000 87.000000 0.000000 
0.000000 87.000000 1.000000 
0.000000 87.000000 2.000000 
0.000000 87.000000 3.000000 
0.000000 87.000000 4.000000 
0.000000 87.000000 5.000000 
0.000000 87.000000 6.000000 
0.000000 87.000000 7.000000 
0.000000 87.000000 8.000000 
0.000000 87.000000 9.000000 
0.000000 87.000000 10.000000 
0.000000 87.000000 11.000000 
0.000000 87.000000 12.000000 
0.000000 87.000000 13.000000 
0.000000 87.000000 14.000000 
0.000000 87.000000 15.000000 
0.000000 87.000000 16.000000 
0.000000 87.000000 17.000000 
0.000000 87.000000 18.000000 
0.000000 87.000000 19.000000 
0.000000 87.000000 20.000000 
0.000000 87.000000 21.000000 
0.000000 87.000000 22.000000 
0.000000 87.000000 23.000000 
0.000000 87.000000 24.000000 
0.000000 87.000000 25.000000 
0.000000 87.000000 26.000000 
0.000000 87.000000 27.000000 
0.000000 87.000000 28.000000 
0.000000 87.000000 29.000000 
0.000000 87.000000 30.000000 
0.000000 87.000000 31.000000 
0.000000 87.000000 32.000000 
0.000000 87.000000 33.000000 
0.000000 87.000000 34.000000 
0.000000 87.000000 35.000000 
0.000000 87.000000 36.000000 
0.000000 87.000000 37.000000 
0.000000 87.000000 38.000000 
0.000000 87.000000 39.000000 
0.000000 87.000000 40.000000 
0.000000 88.000000 0.000000 
0.000000 88.000000 1.000000 
0.000000 88.000000 2.000000 
0.000000 88.000000 3.000000 
0.000000 88.000000 4.000000 
0.000000 88.000000 5.000000 
0.000000 88.000000 6.000000 
0.000000 88.000000 7.000000 
0.000000 88.000000 8.000000 
0.000000 88.000000 9.000000 
0.000000 88.000000 10.000000 
0.000000 88.000000 11.000000 
0.000000 88.000000 12.000000 
0.000000 88.000000 13.000000 
0.000000 88.000000 14.000000 
0.000000 88.000000 15.000000 
0.000000 88.000000 16.000000 
0.000000 88.000000 17.000000 
0.000000 88.000000 18.000000 
0.000000 88.000000 19.000000 
0.000000 88.000000 20.000000 
0.000000 88.000000 21.000000 
0.000000 88.000000 22.000000 
0.000000 88.000000 23.000000 
0.000000 88.000000 24.000000 
0.000000 88.000000 25.000000 
0.000000 88.000000 26.000000 
0.000000 88.000000 27.000000 
0.000000 88.000000 28.000000 
0.000000 88.000000 29.000000 
0.000000 88.000000 30.000000 
0.000000 88.000000 31.000000 
0.000000 88.000000 32.000000 
0.000000 88.000000 33.000000 
0.000000 88.000000 34.000000 
0.000000 88.000000 35.000000 
0.000000 88.000000 36.000000 
0.000000 88.000000 37.000000 
0.000000 88.000000 38.000000 
0.000000 88.000000 39.000000 
0.000000 88.000000 40.000000 
0.000000 89.000000 0.000000 
0.000000 89.000000 1.000000 
0.000000 89.000000 2.000000 
0.000000 89.000000 3.000000 
0.000000 89.000000 4.000000 
0.000000 89.000000 5.000000 
0.000000 89.000000 6.000000 
0.000000 89.000000 7.000000 
0.000000 89.000000 8.000000 
0.000000 89.000000 9.000000 
0.000000 89.000000 10.000000 
0.000000 89.000000 11.000000 
0.000000 89.000000 12.000000 
0.000000 89.000000 13.000000 
0.000000 89.000000 14.000000 
0.000000 89.000000 15.000000 
0.000000 89.000000 16.000000 
0.000000 89.000000 17.000000 
0.000000 89.000000 18.000000 
0.000000 89.000000 19.000000 
0.000000 89.000000 20.000000 
0.000000 89.000000 21.000000 
0.000000 89.000000 22.000000 
0.000000 89.000000 23.000000 
0.000000 89.000000 24.000000 
0.000000 89.000000 25.000000 
0.000000 89.000000 26.000000 
0.000000 89.000000 27.000000 
0.000000 89.000000 28.000000 
0.000000 89.000000 29.000000 
0.000000 89.000000 30.000000 
0.000000 89.000000 31.000000 
0.000000 89.000000 32.000000 
0.000000 89.000000 33.000000 
0.000000 89.000000 34.000000 
0.000000 89.000000 35.000000 
0.000000 89.000000 36.000000 
0.000000 89.000000 37.000000 
0.000000 89.000000 38.000000 
0.000000 89.000000 39.000000 
0.000000 89.000000 40.000000 
0.000000 90.000000 0.000000 
0.000000 90.000000 1.000000 
0.000000 90.000000 2.000000 
0.000000 90.000000 3.000000 
0.000000 90.000000 4.000000 
0.000000 90.000000 5.000000 
0.000000 90.000000 6.000000 
0.000000 90.000000 7.000000 
0.000000 90.000000 8.000000 
0.000000 90.000000 9.000000 
0.000000 90.000000 10.000000 
0.000000 90.000000 11.000000 
0.000000 90.000000 12.000000 
0.000000 90.000000 13.000000 
0.000000 90.000000 14.000000 
0.000000 90.000000 15.000000 
0.000000 90.000000 16.000000 
0.000000 90.000000 17.000000 
0.000000 90.000000 18.000000 
0.000000 90.000000 19.000000 
0.000000 90.000000 20.000000 
0.000000 90.000000 21.000000 
0.000000 90.000000 22.000000 
0.000000 90.000000 23.000000 
0.000000 90.000000 24.000000 
0.000000 90.000000 25.000000 
0.000000 90.000000 26.000000 
0.000000 90.000000 27.000000 
0.000000 90.000000 28.000000 
0.000000 90.000000 29.000000 
0.000000 90.000000 30.000000 
0.000000 90.000000 31.000000 
0.000000 90.000000 32.000000 
0.000000 90.000000 33.000000 
0.000000 90.000000 34.000000 
0.000000 90.000000 35.000000 
0.000000 90.000000 36.000000 
0.000000 90.000000 37.000000 
0.000000 90.000000 38.000000 
0.000000 90.000000 39.000000 
0.000000 90.000000 40.000000 
0.000000 91.000000 0.000000 
0.000000 91.000000 1.000000 
0.000000 91.000000 2.000000 
0.000000 91.000000 3.000000 
0.000000 91.000000 4.000000 
0.000000 91.000000 5.000000 
0.000000 91.000000 6.000000 
0.000000 91.000000 7.000000 
0.000000 91.000000 8.000000 
0.000000 91.000000 9.000000 
0.000000 91.000000 10.000000 
0.000000 91.000000 11.000000 
0.000000 91.000000 12.000000 
0.000000 91.000000 13.000000 
0.000000 91.000000 14.000000 
0.000000 91.000000 15.000000 
0.000000 91.000000 16.000000 
0.000000 91.000000 17.000000 
0.000000 91.000000 18.000000 
0.000000 91.000000 19.000000 
0.000000 91.000000 20.000000 
0.000000 91.000000 21.000000 
0.000000 91.000000 22.000000 
0.000000 91.000000 23.000000 
0.000000 91.000000 24.000000 
0.000000 91.000000 25.000000 
0.000000 91.000000 26.000000 
0.000000 91.000000 27.000000 
0.000000 91.000000 28.000000 
0.000000 91.000000 29.000000 
0.000000 91.000000 30.000000 
0.000000 91.000000 31.000000 
0.000000 91.000000 32.000000 
0.000000 91.000000 33.000000 
0.000000 91.000000 34.000000 
0.000000 91.000000 35.000000 
0.000000 91.000000 36.000000 
0.000000 91.000000 37.000000 
0.000000 91.000000 38.000000 
0.000000 91.000000 39.000000 
0.000000 91.000000 40.000000 
0.000000 92.000000 0.000000 
0.000000 92.000000 1.000000 
0.000000 92.000000 2.000000 
0.000000 92.000000 3.000000 
0.000000 92.000000 4.000000 
0.000000 92.000000 5.000000 
0.000000 92.000000 6.000000 
0.000000 92.000000 7.000000 
0.000000 92.000000 8.000000 
0.000000 92.000000 9.000000 
0.000000 92.000000 10.000000 
0.000000 92.000000 11.000000 
0.000000 92.000000 12.000000 
0.000000 92.000000 13.000000 
0.000000 92.000000 14.000000 
0.000000 92.000000 15.000000 
0.000000 92.000000 16.000000 
0.000000 92.000000 17.000000 
0.000000 92.000000 18.000000 
0.000000 92.000000 19.000000 
0.000000 92.000000 20.000000 
0.000000 92.000000 21.000000 
0.000000 92.000000 22.000000 
0.000000 92.000000 23.000000 
0.000000 92.000000 24.000000 
0.000000 92.000000 25.000000 
0.000000 92.000000 26.000000 
0.000000 92.000000 27.000000 
0.000000 92.000000 28.000000 
0.000000 92.000000 29.000000 
0.000000 92.000000 30.000000 
0.000000 92.000000 31.000000 
0.000000 92.000000 32.000000 
0.000000 92.000000 33.000000 
0.000000 92.000000 34.000000 
0.000000 92.000000 35.000000 
0.000000 92.000000 36.000000 
0.000000 92.000000 37.000000 
0.000000 92.000000 38.000000 
0.000000 92.000000 39.000000 
0.000000 92.000000 40.000000 
0.000000 93.000000 0.000000 
0.000000 93.000000 1.000000 
0.000000 93.000000 2.000000 
0.000000 93.000000 3.000000 
0.000000 93.000000 4.000000 
0.000000 93.000000 5.000000 
0.000000 93.000000 6.000000 
0.000000 93.000000 7.000000 
0.000000 93.000000 8.000000 
0.000000 93.000000 9.000000 
0.000000 93.000000 10.000000 
0.000000 93.000000 11.000000 
0.000000 93.000000 12.000000 
0.000000 93.000000 13.000000 
0.000000 93.000000 14.000000 
0.000000 93.000000 15.000000 
0.000000 93.000000 16.000000 
0.000000 93.000000 17.000000 
0.000000 93.000000 18.000000 
0.000000 93.000000 19.000000 
0.000000 93.000000 20.000000 
0.000000 93.000000 21.000000 
0.000000 93.000000 22.000000 
0.000000 93.000000 23.000000 
0.000000 93.000000 24.000000 
0.000000 93.000000 25.000000 
0.000000 93.000000 26.000000 
0.000000 93.000000 27.000000 
0.000000 93.000000 28.000000 
0.000000 93.000000 29.000000 
0.000000 93.000000 30.000000 
0.000000 93.000000 31.000000 
0.000000 93.000000 32.000000 
0.000000 93.000000 33.000000 
0.000000 93.000000 34.000000 
0.000000 93.000000 35.000000 
0.000000 93.000000 36.000000 
0.000000 93.000000 37.000000 
0.000000 93.000000 38.000000 
0.000000 93.000000 39.000000 
0.000000 93.000000 40.000000 
0.000000 94.000000 0.000000 
0.000000 94.000000 1.000000 
0.000000 94.000000 2.000000 
0.000000 94.000000 3.000000 
0.000000 94.000000 4.000000 
0.000000 94.000000 5.000000 
0.000000 94.000000 6.000000 
0.000000 94.000000 7.000000 
0.000000 94.000000 8.000000 
0.000000 94.000000 9.000000 
0.000000 94.000000 10.000000 
0.000000 94.000000 11.000000 
0.000000 94.000000 12.000000 
0.000000 94.000000 13.000000 
0.000000 94.000000 14.000000 
0.000000 94.000000 15.000000 
0.000000 94.000000 16.000000 
0.000000 94.000000 17.000000 
0.000000 94.000000 18.000000 
0.000000 94.000000 19.000000 
0.000000 94.000000 20.000000 
0.000000 94.000000 21.000000 
0.000000 94.000000 22.000000 
0.000000 94.000000 23.000000 
0.000000 94.000000 24.000000 
0.000000 94.000000 25.000000 
0.000000 94.000000 26.000000 
0.000000 94.000000 27.000000 
0.000000 94.000000 28.000000 
0.000000 94.000000 29.000000 
0.000000 94.000000 30.000000 
0.000000 94.000000 31.000000 
0.000000 94.000000 32.000000 
0.000000 94.000000 33.000000 
0.000000 94.000000 34.000000 
0.000000 94.000000 35.000000 
0.000000 94.000000 36.000000 
0.000000 94.000000 37.000000 
0.000000 94.000000 38.000000 
0.000000 94.000000 39.000000 
0.000000 94.000000 40.000000 
0.000000 95.000000 0.000000 
0.000000 95.000000 1.000000 
0.000000 95.000000 2.000000 
0.000000 95.000000 3.000000 
0.000000 95.000000 4.000000 
0.000000 95.000000 5.000000 
0.000000 95.000000 6.000000 
0.000000 95.000000 7.000000 
0.000000 95.000000 8.000000 
0.000000 95.000000 9.000000 
0.000000 95.000000 10.000000 
0.000000 95.000000 11.000000 
0.000000 95.000000 12.000000 
0.000000 95.000000 13.000000 
0.000000 95.000000 14.000000 
0.000000 95.000000 15.000000 
0.000000 95.000000 16.000000 
0.000000 95.000000 17.000000 
0.000000 95.000000 18.000000 
0.000000 95.000000 19.000000 
0.000000 95.000000 20.000000 
0.000000 95.000000 21.000000 
0.000000 95.000000 22.000000 
0.000000 95.000000 23.000000 
0.000000 95.000000 24.000000 
0.000000 95.000000 25.000000 
0.000000 95.000000 26.000000 
0.000000 95.000000 27.000000 
0.000000 95.000000 28.000000 
0.000000 95.000000 29.000000 
0.000000 95.000000 30.000000 
0.000000 95.000000 31.000000 
0.000000 95.000000 32.000000 
0.000000 95.000000 33.000000 
0.000000 95.000000 34.000000 
0.000000 95.000000 35.000000 
0.000000 95.000000 36.000000 
0.000000 95.000000 37.000000 
0.000000 95.000000 38.000000 
0.000000 95.000000 39.000000 
0.000000 95.000000 40.000000 
0.000000 96.000000 0.000000 
0.000000 96.000000 1.000000 
0.000000 96.000000 2.000000 
0.000000 96.000000 3.000000 
0.000000 96.000000 4.000000 
0.000000 96.000000 5.000000 
0.000000 96.000000 6.000000 
0.000000 96.000000 7.000000 
0.000000 96.000000 8.000000 
0.000000 96.000000 9.000000 
0.000000 96.000000 10.000000 
0.000000 96.000000 11.000000 
0.000000 96.000000 12.000000 
0.000000 96.000000 13.000000 
0.000000 96.000000 14.000000 
0.000000 96.000000 15.000000 
0.000000 96.000000 16.000000 
0.000000 96.000000 17.000000 
0.000000 96.000000 18.000000 
0.000000 96.000000 19.000000 
0.000000 96.000000 20.000000 
0.000000 96.000000 21.000000 
0.000000 96.000000 22.000000 
0.000000 96.000000 23.000000 
0.000000 96.000000 24.000000 
0.000000 96.000000 25.000000 
0.000000 96.000000 26.000000 
0.000000 96.000000 27.000000 
0.000000 96.000000 28.000000 
0.000000 96.000000 29.000000 
0.000000 96.000000 30.000000 
0.000000 96.000000 31.000000 
0.000000 96.000000 32.000000 
0.000000 96.000000 33.000000 
0.000000 96.000000 34.000000 
0.000000 96.000000 35.000000 
0.000000 96.000000 36.000000 
0.000000 96.000000 37.000000 
0.000000 96.000000 38.000000 
0.000000 96.000000 39.000000 
0.000000 96.000000 40.000000 
0.000000 97.000000 0.000000 
0.000000 97.000000 1.000000 
0.000000 97.000000 2.000000 
0.000000 97.000000 3.000000 
0.000000 97.000000 4.000000 
0.000000 97.000000 5.000000 
0.000000 97.000000 6.000000 
0.000000 97.000000 7.000000 
0.000000 97.000000 8.000000 
0.000000 97.000000 9.000000 
0.000000 97.000000 10.000000 
0.000000 97.000000 11.000000 
0.000000 97.000000 12.000000 
0.000000 97.000000 13.000000 
0.000000 97.000000 14.000000 
0.000000 97.000000 15.000000 
0.000000 97.000000 16.000000 
0.000000 97.000000 17.000000 
0.000000 97.000000 18.000000 
0.000000 97.000000 19.000000 
0.000000 97.000000 20.000000 
0.000000 97.000000 21.000000 
0.000000 97.000000 22.000000 
0.000000 97.000000 23.000000 
0.000000 97.000000 24.000000 
0.000000 97.000000 25.000000 
0.000000 97.000000 26.000000 
0.000000 97.000000 27.000000 
0.000000 97.000000 28.000000 
0.000000 97.000000 29.000000 
0.000000 97.000000 30.000000 
0.000000 97.000000 31.000000 
0.000000 97.000000 32.000000 
0.000000 97.000000 33.000000 
0.000000 97.000000 34.000000 
0.000000 97.000000 35.000000 
0.000000 97.000000 36.000000 
0.000000 97.000000 37.000000 
0.000000 97.000000 38.000000 
0.000000 97.000000 39.000000 
0.000000 97.000000 40.000000 
0.000000 98.000000 0.000000 
0.000000 98.000000 1.000000 
0.000000 98.000000 2.000000 
0.000000 98.000000 3.000000 
0.000000 98.000000 4.000000 
0.000000 98.000000 5.000000 
0.000000 98.000000 6.000000 
0.000000 98.000000 7.000000 
0.000000 98.000000 8.000000 
0.000000 98.000000 9.000000 
0.000000 98.000000 10.000000 
0.000000 98.000000 11.000000 
0.000000 98.000000 12.000000 
0.000000 98.000000 13.000000 
0.000000 98.000000 14.000000 
0.000000 98.000000 15.000000 
0.000000 98.000000 16.000000 
0.000000 98.000000 17.000000 
0.000000 98.000000 18.000000 
0.000000 98.000000 19.000000 
0.000000 98.000000 20.000000 
0.000000 98.000000 21.000000 
0.000000 98.000000 22.000000 
0.000000 98.000000 23.000000 
0.000000 98.000000 24.000000 
0.000000 98.000000 25.000000 
0.000000 98.000000 26.000000 
0.000000 98.000000 27.000000 
0.000000 98.000000 28.000000 
0.000000 98.000000 29.000000 
0.000000 98.000000 30.000000 
0.000000 98.000000 31.000000 
0.000000 98.000000 32.000000 
0.000000 98.000000 33.000000 
0.000000 98.000000 34.000000 
0.000000 98.000000 35.000000 
0.000000 98.000000 36.000000 
0.000000 98.000000 37.000000 
0.000000 98.000000 38.000000 
0.000000 98.000000 39.000000 
0.000000 98.000000 40.000000 
0.000000 99.000000 0.000000 
0.000000 99.000000 1.000000 
0.000000 99.000000 2.000000 
0.000000 99.000000 3.000000 
0.000000 99.000000 4.000000 
0.000000 99.000000 5.000000 
0.000000 99.000000 6.000000 
0.000000 99.000000 7.000000 
0.000000 99.000000 8.000000 
0.000000 99.000000 9.000000 
0.000000 99.000000 10.000000 
0.000000 99.000000 11.000000 
0.000000 99.000000 12.000000 
0.000000 99.000000 13.000000 
0.000000 99.000000 14.000000 
0.000000 99.000000 15.000000 
0.000000 99.000000 16.000000 
0.000000 99.000000 17.000000 
0.000000 99.000000 18.000000 
0.000000 99.000000 19.000000 
0.000000 99.000000 20.000000 
0.000000 99.000000 21.000000 
0.000000 99.000000 22.000000 
0.000000 99.000000 23.000000 
0.000000 99.000000 24.000000 
0.000000 99.000000 25.000000 
0.000000 99.000000 26.000000 
0.000000 99.000000 27.000000 
0.000000 99.000000 28.000000 
0.000000 99.000000 29.000000 
0.000000 99.000000 30.000000 
0.000000 99.000000 31.000000 
0.000000 99.000000 32.000000 
0.000000 99.000000 33.000000 
0.000000 99.000000 34.000000 
0.000000 99.000000 35.000000 
0.000000 99.000000 36.000000 
0.000000 99.000000 37.000000 
0.000000 99.000000 38.000000 
0.000000 99.000000 39.000000 
0.000000 99.000000 40.000000 
0.000000 100.000000 0.000000 
0.000000 100.000000 1.000000 
0.000000 100.000000 2.000000 
0.000000 100.000000 3.000000 
0.000000 100.000000 4.000000 
0.000000 100.000000 5.000000 
0.000000 100.000000 6.000000 
0.000000 100.000000 7.000000 
0.000000 100.000000 8.000000 
0.000000 100.000000 9.000000 
0.000000 100.000000 10.000000 
0.000000 100.000000 11.000000 
0.000000 100.000000 12.000000 
0.000000 100.000000 13.000000 
0.000000 100.000000 14.000000 
0.000000 100.000000 15.000000 
0.000000 100.000000 16.000000 
0.000000 100.000000 17.000000 
0.000000 100.000000 18.000000 
0.000000 100.000000 19.000000 
0.000000 100.000000 20.000000 
0.000000 100.000000 21.000000 
0.000000 100.000000 22.000000 
0.000000 100.000000 23.000000 
0.000000 100.000000 24.000000 
0.000000 100.000000 25.000000 
0.000000 100.000000 26.000000 
0.000000 100.000000 27.000000 
0.000000 100.000000 28.000000 
0.000000 100.000000 29.000000 
0.000000 100.000000 30.000000 
0.000000 100.000000 31.000000 
0.000000 100.000000 32.000000 
0.000000 100.000000 33.000000 
0.000000 100.000000 34.000000 
0.000000 100.000000 35.000000 
0.000000 100.000000 36.000000 
0.000000 100.000000 37.000000 
0.000000 100.000000 38.000000 
0.000000 100.000000 39.000000 
0.000000 100.000000 40.000000 
0.000000 CELLS 6400 32000 
4 0 101 102 1 
4 1 102 103 2 
4 2 103 104 3 
4 3 104 105 4 
4 4 105 106 5 
4 5 106 107 6 
4 6 107 108 7 
4 7 108 109 8 
4 8 109 110 9 
4 9 110 111 10 
4 10 111 112 11 
4 11 112 113 12 
4 12 113 114 13 
4 13 114 115 14 
4 14 115 116 15 
4 15 116 117 16 
4 16 117 118 17 
4 17 118 119 18 
4 18 119 120 19 
4 19 120 121 20 
4 20 121 122 21 
4 21 122 123 22 
4 22 123 124 23 
4 23 124 125 24 
4 24 125 126 25 
4 25 126 127 26 
4 26 127 128 27 
4 27 128 129 28 
4 28 129 130 29 
4 29 130 131 30 
4 30 131 132 31 
4 31 132 133 32 
4 32 133 134 33 
4 33 134 135 34 
4 34 135 136 35 
4 35 136 137 36 
4 36 137 138 37 
4 37 138 139 38 
4 38 139 140 39 
4 39 140 141 40 
4 40 141 142 41 
4 41 142 143 42 
4 42 143 144 43 
4 43 144 145 44 
4 44 145 146 45 
4 45 146 147 46 
4 46 147 148 47 
4 47 148 149 48 
4 48 149 150 49 
4 49 150 151 50 
4 50 151 152 51 
4 51 152 153 52 
4 52 153 154 53 
4 53 154 155 54 
4 54 155 156 55 
4 55 156 157 56 
4 56 157 158 57 
4 57 158 159 58 
4 58 159 160 59 
4 59 160 161 60 
4 60 161 162 61 
4 61 162 163 62 
4 62 163 164 63 
4 63 164 165 64 
4 64 165 166 65 
4 65 166 167 66 
4 66 167 168 67 
4 67 168 169 68 
4 68 169 170 69 
4 69 170 171 70 
4 70 171 172 71 
4 71 172 173 72 
4 72 173 174 73 
4 73 174 175 74 
4 74 175 176 75 
4 75 176 177 76 
4 76 177 178 77 
4 77 178 179 78 
4 78 179 180 79 
4 79 180 181 80 
4 80 181 182 81 
4 81 182 183 82 
4 82 183 184 83 
4 83 184 185 84 
4 84 185 186 85 
4 85 186 187 86 
4 86 187 188 87 
4 87 188 189 88 
4 88 189 190 89 
4 89 190 191 90 
4 90 191 192 91 
4 91 192 193 92 
4 92 193 194 93 
4 93 194 195 94 
4 94 195 196 95 
4 95 196 197 96 
4 96 197 198 97 
4 97 198 199 98 
4 98 199 200 99 
4 99 200 201 100 
4 101 202 203 102 
4 102 203 204 103 
4 103 204 205 104 
4 104 205 206 105 
4 105 206 207 106 
4 106 207 208 107 
4 107 208 209 108 
4 108 209 210 109 
4 109 210 211 110 
4 110 211 212 111 
4 111 212 213 112 
4 112 213 214 113 
4 113 214 215 114 
4 114 215 216 115 
4 115 216 217 116 
4 116 217 218 117 
4 117 218 219 118 
4 118 219 220 119 
4 119 220 221 120 
4 120 221 222 121 
4 121 222 223 122 
4 122 223 224 123 
4 123 224 225 124 
4 124 225 226 125 
4 125 226 227 126 
4 126 227 228 127 
4 127 228 229 128 
4 128 229 230 129 
4 129 230 231 130 
4 130 231 232 131 
4 131 232 233 132 
4 132 233 234 133 
4 133 234 235 134 
4 134 235 236 135 
4 135 236 237 136 
4 136 237 238 137 
4 137 238 239 138 
4 138 239 240 139 
4 139 240 241 140 
4 140 241 242 141 
4 141 242 243 142 
4 142 243 244 143 
4 143 244 245 144 
4 144 245 246 145 
4 145 246 247 146 
4 146 247 248 147 
4 147 248 249 148 
4 148 249 250 149 
4 149 250 251 150 
4 150 251 252 151 
4 151 252 253 152 
4 152 253 254 153 
4 153 254 255 154 
4 154 255 256 155 
4 155 256 257 156 
4 156 257 258 157 
4 157 258 259 158 
4 158 259 260 159 
4 159 260 261 160 
4 160 261 262 161 
4 161 262 263 162 
4 162 263 264 163 
4 163 264 265 164 
4 164 265 266 165 
4 165 266 267 166 
4 166 267 268 167 
4 167 268 269 168 
4 168 269 270 169 
4 169 270 271 170 
4 170 271 272 171 
4 171 272 273 172 
4 172 273 274 173 
4 173 274 275 174 
4 174 275 276 175 
4 175 276 277 176 
4 176 277 278 177 
4 177 278 279 178 
4 178 279 280 179 
4 179 280 281 180 
4 180 281 282 181 
4 181 282 283 182 
4 182 283 284 183 
4 183 284 285 184 
4 184 285 286 185 
4 185 286 287 186 
4 186 287 288 187 
4 187 288 289 188 
4 188 289 290 189 
4 189 290 291 190 
4 190 291 292 191 
4 191 292 293 192 
4 192 293 294 193 
4 193 294 295 194 
4 194 295 296 195 
4 195 296 297 196 
4 196 297 298 197 
4 197 298 299 198 
4 198 299 300 199 
4 199 300 301 200 
4 200 301 302 201 
4 202 303 304 203 
4 203 304 305 204 
4 204 305 306 205 
4 205 306 307 206 
4 206 307 308 207 
4 207 308 309 208 
4 208 309 310 209 
4 209 310 311 210 
4 210 311 312 211 
4 211 312 313 212 
4 212 313 314 213 
4 213 314 315 214 
4 214 315 316 215 
4 215 316 317 216 
4 216 317 318 217 
4 217 318 319 218 
4 218 319 320 219 
4 219 320 321 220 
4 220 321 322 221 
4 221 322 323 222 
4 222 323 324 223 
4 223 324 325 224 
4 224 325 326 225 
4 225 326 327 226 
4 226 327 328 227 
4 227 328 329 228 
4 228 329 330 229 
4 229 330 331 230 
4 230 331 332 231 
4 231 332 333 232 
4 232 333 334 233 
4 233 334 335 234 
4 234 335 336 235 
4 235 336 337 236 
4 236 337 338 237 
4 237 338 339 238 
4 238 339 340 239 
4 239 340 341 240 
4 240 341 342 241 
4 241 342 343 242 
4 242 343 344 243 
4 243 344 345 244 
4 244 345 346 245 
4 245 346 347 246 
4 246 347 348 247 
4 247 348 349 248 
4 248 349 350 249 
4 249 350 351 250 
4 250 351 352 251 
4 251 352 353 252 
4 252 353 354 253 
4 253 354 355 254 
4 254 355 356 255 
4 255 356 357 256 
4 256 357 358 257 
4 257 358 359 258 
4 258 359 360 259 
4 259 360 361 260 
4 260 361 362 261 
4 261 362 363 262 
4 262 363 364 263 
4 263 364 365 264 
4 264 365 366 265 
4 265 366 367 266 
4 266 367 368 267 
4 267 368 369 268 
4 268 369 370 269 
4 269 370 371 270 
4 270 371 372 271 
4 271 372 373 272 
4 272 373 374 273 
4 273 374 375 274 
4 274 375 376 275 
4 275 376 377 276 
4 276 377 378 277 
4 277 378 379 278 
4 278 379 380 279 
4 279 380 381 280 
4 280 381 382 281 
4 281 382 383 282 
4 282 383 384 283 
4 283 384 385 284 
4 284 385 386 285 
4 285 386 387 286 
4 286 387 388 287 
4 287 388 389 288 
4 288 389 390 289 
4 289 390 391 290 
4 290 391 392 291 
4 291 392 393 292 
4 292 393 394 293 
4 293 394 395 294 
4 294 395 396 295 
4 295 396 397 296 
4 296 397 398 297 
4 297 398 399 298 
4 298 399 400 299 
4 299 400 401 300 
4 300 401 402 301 
4 301 402 403 302 
4 303 404 405 304 
4 304 405 406 305 
4 305 406 407 306 
4 306 407 408 307 
4 307 408 409 308 
4 308 409 410 309 
4 309 410 411 310 
4 310 411 412 311 
4 311 412 413 312 
4 312 413 414 313 
4 313 414 415 314 
4 314 415 416 315 
4 315 416 417 316 
4 316 417 418 317 
4 317 418 419 318 
4 318 419 420 319 
4 319 420 421 320 
4 320 421 422 321 
4 321 422 423 322 
4 322 423 424 323 
4 323 424 425 324 
4 324 425 426 325 
4 325 426 427 326 
4 326 427 428 327 
4 327 428 429 328 
4 328 429 430 329 
4 329 430 431 330 
4 330 431 432 331 
4 331 432 433 332 
4 332 433 434 333 
4 333 434 435 334 
4 334 435 436 335 
4 335 436 437 336 
4 336 437 438 337 
4 337 438 439 338 
4 338 439 440 339 
4 339 440 441 340 
4 340 441 442 341 
4 341 442 443 342 
4 342 443 444 343 
4 343 444 445 344 
4 344 445 446 345 
4 345 446 447 346 
4 346 447 448 347 
4 347 448 449 348 
4 348 449 450 349 
4 349 450 451 350 
4 350 451 452 351 
4 351 452 453 352 
4 352 453 454 353 
4 353 454 455 354 
4 354 455 456 355 
4 355 456 457 356 
4 356 457 458 357 
4 357 458 459 358 
4 358 459 460 359 
4 359 460 461 360 
4 360 461 462 361 
4 361 462 463 362 
4 362 463 464 363 
4 363 464 465 364 
4 364 465 466 365 
4 365 466 467 366 
4 366 467 468 367 
4 367 468 469 368 
4 368 469 470 369 
4 369 470 471 370 
4 370 471 472 371 
4 371 472 473 372 
4 372 473 474 373 
4 373 474 475 374 
4 374 475 476 375 
4 375 476 477 376 
4 376 477 478 377 
4 377 478 479 378 
4 378 479 480 379 
4 379 480 481 380 
4 380 481 482 381 
4 381 482 483 382 
4 382 483 484 383 
4 383 484 485 384 
4 384 485 486 385 
4 385 486 487 386 
4 386 487 488 387 
4 387 488 489 388 
4 388 489 490 389 
4 389 490 491 390 
4 390 491 492 391 
4 391 492 493 392 
4 392 493 494 393 
4 393 494 495 394 
4 394 495 496 395 
4 395 496 497 396 
4 396 497 498 397 
4 397 498 499 398 
4 398 499 500 399 
4 399 500 501 400 
4 400 501 502 401 
4 401 502 503 402 
4 402 503 504 403 
4 404 505 506 405 
4 405 506 507 406 
4 406 507 508 407 
4 407 508 509 408 
4 408 509 510 409 
4 409 510 511 410 
4 410 511 512 411 
4 411 512 513 412 
4 412 513 514 413 
4 413 514 515 414 
4 414 515 516 415 
4 415 516 517 416 
4 416 517 518 417 
4 417 518 519 418 
4 418 519 520 419 
4 419 520 521 420 
4 420 521 522 421 
4 421 522 523 422 
4 422 523 524 423 
4 423 524 525 424 
4 424 525 526 425 
4 425 526 527 426 
4 426 527 528 427 
4 427 528 529 428 
4 428 529 530 429 
4 429 530 531 430 
4 430 531 532 431 
4 431 532 533 432 
4 432 533 534 433 
4 433 534 535 434 
4 434 535 536 435 
4 435 536 537 436 
4 436 537 538 437 
4 437 538 539 438 
4 438 539 540 439 
4 439 540 541 440 
4 440 541 542 441 
4 441 542 543 442 
4 442 543 544 443 
4 443 544 545 444 
4 444 545 546 445 
4 445 546 547 446 
4 446 547 548 447 
4 447 548 549 448 
4 448 549 550 449 
4 449 550 551 450 
4 450 551 552 451 
4 451 552 553 452 
4 452 553 554 453 
4 453 554 555 454 
4 454 555 556 455 
4 455 556 557 456 
4 456 557 558 457 
4 457 558 559 458 
4 458 559 560 459 
4 459 560 561 460 
4 460 561 562 461 
4 461 562 563 462 
4 462 563 564 463 
4 463 564 565 464 
4 464 565 566 465 
4 465 566 567 466 
4 466 567 568 467 
4 467 568 569 468 
4 468 569 570 469 
4 469 570 571 470 
4 470 571 572 471 
4 471 572 573 472 
4 472 573 574 473 
4 473 574 575 474 
4 474 575 576 475 
4 475 576 577 476 
4 476 577 578 477 
4 477 578 579 478 
4 478 579 580 479 
4 479 580 581 480 
4 480 581 582 481 
4 481 582 583 482 
4 482 583 584 483 
4 483 584 585 484 
4 484 585 586 485 
4 485 586 587 486 
4 486 587 588 487 
4 487 588 589 488 
4 488 589 590 489 
4 489 590 591 490 
4 490 591 592 491 
4 491 592 593 492 
4 492 593 594 493 
4 493 594 595 494 
4 494 595 596 495 
4 495 596 597 496 
4 496 597 598 497 
4 497 598 599 498 
4 498 599 600 499 
4 499 600 601 500 
4 500 601 602 501 
4 501 602 603 502 
4 502 603 604 503 
4 503 604 605 504 
4 505 606 607 506 
4 506 607 608 507 
4 507 608 609 508 
4 508 609 610 509 
4 509 610 611 510 
4 510 611 612 511 
4 511 612 613 512 
4 512 613 614 513 
4 513 614 615 514 
4 514 615 616 515 
4 515 616 617 516 
4 516 617 618 517 
4 517 618 619 518 
4 518 619 620 519 
4 519 620 621 520 
4 520 621 622 521 
4 521 622 623 522 
4 522 623 624 523 
4 523 624 625 524 
4 524 625 626 525 
4 525 626 627 526 
4 526 627 628 527 
4 527 628 629 528 
4 528 629 630 529 
4 529 630 631 530 
4 530 631 632 531 
4 531 632 633 532 
4 532 633 634 533 
4 533 634 635 534 
4 534 635 636 535 
4 535 636 637 536 
4 536 637 638 537 
4 537 638 639 538 
4 538 639 640 539 
4 539 640 641 540 
4 540 641 642 541 
4 541 642 643 542 
4 542 643 644 543 
4 543 644 645 544 
4 544 645 646 545 
4 545 646 647 546 
4 546 647 648 547 
4 547 648 649 548 
4 548 649 650 549 
4 549 650 651 550 
4 550 651 652 551 
4 551 652 653 552 
4 552 653 654 553 
4 553 654 655 554 
4 554 655 656 555 
4 555 656 657 556 
4 556 657 658 557 
4 557 658 659 558 
4 558 659 660 559 
4 559 660 661 560 
4 560 661 662 561 
4 561 662 663 562 
4 562 663 664 563 
4 563 664 665 564 
4 564 665 666 565 
4 565 666 667 566 
4 566 667 668 567 
4 567 668 669 568 
4 568 669 670 569 
4 569 670 671 570 
4 570 671 672 571 
4 571 672 673 572 
4 572 673 674 573 
4 573 674 675 574 
4 574 675 676 575 
4 575 676 677 576 
4 576 677 678 577 
4 577 678 679 578 
4 578 679 680 579 
4 579 680 681 580 
4 580 681 682 581 
4 581 682 683 582 
4 582 683 684 583 
4 583 684 685 584 
4 584 685 686 585 
4 585 686 687 586 
4 586 687 688 587 
4 587 688 689 588 
4 588 689 690 589 
4 589 690 691 590 
4 590 691 692 591 
4 591 692 693 592 
4 592 693 694 593 
4 593 694 695 594 
4 594 695 696 595 
4 595 696 697 596 
4 596 697 698 597 
4 597 698 699 598 
4 598 699 700 599 
4 599 700 701 600 
4 600 701 702 601 
4 601 702 703 602 
4 602 703 704 603 
4 603 704 705 604 
4 604 705 706 605 
4 606 707 708 607 
4 607 708 709 608 
4 608 709 710 609 
4 609 710 711 610 
4 610 711 712 611 
4 611 712 713 612 
4 612 713 714 613 
4 613 714 715 614 
4 614 715 716 615 
4 615 716 717 616 
4 616 717 718 617 
4 617 718 719 618 
4 618 719 720 619 
4 619 720 721 620 
4 620 721 722 621 
4 621 722 723 622 
4 622 723 724 623 
4 623 724 725 624 
4 624 725 726 625 
4 625 726 727 626 
4 626 727 728 627 
4 627 728 729 628 
4 628 729 730 629 
4 629 730 731 630 
4 630 731 732 631 
4 631 732 733 632 
4 632 733 734 633 
4 633 734 735 634 
4 634 735 736 635 
4 635 736 737 636 
4 636 737 738 637 
4 637 738 739 638 
4 638 739 740 639 
4 639 740 741 640 
4 640 741 742 641 
4 641 742 743 642 
4 642 743 744 643 
4 643 744 745 644 
4 644 745 746 645 
4 645 746 747 646 
4 646 747 748 647 
4 647 748 749 648 
4 648 749 750 649 
4 649 750 751 650 
4 650 751 752 651 
4 651 752 753 652 
4 652 753 754 653 
4 653 754 755 654 
4 654 755 756 655 
4 655 756 757 656 
4 656 757 758 657 
4 657 758 759 658 
4 658 759 760 659 
4 659 760 761 660 
4 660 761 762 661 
4 661 762 763 662 
4 662 763 764 663 
4 663 764 765 664 
4 664 765 766 665 
4 665 766 767 666 
4 666 767 768 667 
4 667 768 769 668 
4 668 769 770 669 
4 669 770 771 670 
4 670 771 772 671 
4 671 772 773 672 
4 672 773 774 673 
4 673 774 775 674 
4 674 775 776 675 
4 675 776 777 676 
4 676 777 778 677 
4 677 778 779 678 
4 678 779 780 679 
4 679 780 781 680 
4 680 781 782 681 
4 681 782 783 682 
4 682 783 784 683 
4 683 784 785 684 
4 684 785 786 685 
4 685 786 787 686 
4 686 787 788 687 
4 687 788 789 688 
4 688 789 790 689 
4 689 790 791 690 
4 690 791 792 691 
4 691 792 793 692 
4 692 793 794 693 
4 693 794 795 694 
4 694 795 796 695 
4 695 796 797 696 
4 696 797 798 697 
4 697 798 799 698 
4 698 799 800 699 
4 699 800 801 700 
4 700 801 802 701 
4 701 802 803 702 
4 702 803 804 703 
4 703 804 805 704 
4 704 805 806 705 
4 705 806 807 706 
4 707 808 809 708 
4 708 809 810 709 
4 709 810 811 710 
4 710 811 812 711 
4 711 812 813 712 
4 712 813 814 713 
4 713 814 815 714 
4 714 815 816 715 
4 715 816 817 716 
4 716 817 818 717 
4 717 818 819 718 
4 718 819 820 719 
4 719 820 821 720 
4 720 821 822 721 
4 721 822 823 722 
4 722 823 824 723 
4 723 824 825 724 
4 724 825 826 725 
4 725 826 827 726 
4 726 827 828 727 
4 727 828 829 728 
4 728 829 830 729 
4 729 830 831 730 
4 730 831 832 731 
4 731 832 833 732 
4 732 833 834 733 
4 733 834 835 734 
4 734 835 836 735 
4 735 836 837 736 
4 736 837 838 737 
4 737 838 839 738 
4 738 839 840 739 
4 739 840 841 740 
4 740 841 842 741 
4 741 842 843 742 
4 742 843 844 743 
4 743 844 845 744 
4 744 845 846 745 
4 745 846 847 746 
4 746 847 848 747 
4 747 848 849 748 
4 748 849 850 749 
4 749 850 851 750 
4 750 851 852 751 
4 751 852 853 752 
4 752 853 854 753 
4 753 854 855 754 
4 754 855 856 755 
4 755 856 857 756 
4 756 857 858 757 
4 757 858 859 758 
4 758 859 860 759 
4 759 860 861 760 
4 760 861 862 761 
4 761 862 863 762 
4 762 863 864 763 
4 763 864 865 764 
4 764 865 866 765 
4 765 866 867 766 
4 766 867 868 767 
4 767 868 869 768 
4 768 869 870 769 
4 769 870 871 770 
4 770 871 872 771 
4 771 872 873 772 
4 772 873 874 773 
4 773 874 875 774 
4 774 875 876 775 
4 775 876 877 776 
4 776 877 878 777 
4 777 878 879 778 
4 778 879 880 779 
4 779 880 881 780 
4 780 881 882 781 
4 781 882 883 782 
4 782 883 884 783 
4 783 884 885 784 
4 784 885 886 785 
4 785 886 887 786 
4 786 887 888 787 
4 787 888 889 788 
4 788 889 890 789 
4 789 890 891 790 
4 790 891 892 791 
4 791 892 893 792 
4 792 893 894 793 
4 793 894 895 794 
4 794 895 896 795 
4 795 896 897 796 
4 796 897 898 797 
4 797 898 899 798 
4 798 899 900 799 
4 799 900 901 800 
4 800 901 902 801 
4 801 902 903 802 
4 802 903 904 803 
4 803 904 905 804 
4 804 905 906 805 
4 805 906 907 806 
4 806 907 908 807 
4 808 909 910 809 
4 809 910 911 810 
4 810 911 912 811 
4 811 912 913 812 
4 812 913 914 813 
4 813 914 915 814 
4 814 915 916 815 
4 815 916 917 816 
4 816 917 918 817 
4 817 918 919 818 
4 818 919 920 819 
4 819 920 921 820 
4 820 921 922 821 
4 821 922 923 822 
4 822 923 924 823 
4 823 924 925 824 
4 824 925 926 825 
4 825 926 927 826 
4 826 927 928 827 
4 827 928 929 828 
4 828 929 930 829 
4 829 930 931 830 
4 830 931 932 831 
4 831 932 933 832 
4 832 933 934 833 
4 833 934 935 834 
4 834 935 936 835 
4 835 936 937 836 
4 836 937 938 837 
4 837 938 939 838 
4 838 939 940 839 
4 839 940 941 840 
4 840 941 942 841 
4 841 942 943 842 
4 842 943 944 843 
4 843 944 945 844 
4 844 945 946 845 
4 845 946 947 846 
4 846 947 948 847 
4 847 948 949 848 
4 848 949 950 849 
4 849 950 951 850 
4 850 951 952 851 
4 851 952 953 852 
4 852 953 954 853 
4 853 954 955 854 
4 854 955 956 855 
4 855 956 957 856 
4 856 957 958 857 
4 857 958 959 858 
4 858 959 960 859 
4 859 960 961 860 
4 860 961 962 861 
4 861 962 963 862 
4 862 963 964 863 
4 863 964 965 864 
4 864 965 966 865 
4 865 966 967 866 
4 866 967 968 867 
4 867 968 969 868 
4 868 969 970 869 
4 869 970 971 870 
4 870 971 972 871 
4 871 972 973 872 
4 872 973 974 873 
4 873 974 975 874 
4 874 975 976 875 
4 875 976 977 876 
4 876 977 978 877 
4 877 978 979 878 
4 878 979 980 879 
4 879 980 981 880 
4 880 981 982 881 
4 881 982 983 882 
4 882 983 984 883 
4 883 984 985 884 
4 884 985 986 885 
4 885 986 987 886 
4 886 987 988 887 
4 887 988 989 888 
4 888 989 990 889 
4 889 990 991 890 
4 890 991 992 891 
4 891 992 993 892 
4 892 993 994 893 
4 893 994 995 894 
4 894 995 996 895 
4 895 996 997 896 
4 896 997 998 897 
4 897 998 999 898 
4 898 999 1000 899 
4 899 1000 1001 900 
4 900 1001 1002 901 
4 901 1002 1003 902 
4 902 1003 1004 903 
4 903 1004 1005 904 
4 904 1005 1006 905 
4 905 1006 1007 906 
4 906 1007 1008 907 
4 907 1008 1009 908 
4 909 1010 1011 910 
4 910 1011 1012 911 
4 911 1012 1013 912 
4 912 1013 1014 913 
4 913 1014 1015 914 
4 914 1015 1016 915 
4 915 1016 1017 916 
4 916 1017 1018 917 
4 917 1018 1019 918 
4 918 1019 1020 919 
4 919 1020 1021 920 
4 920 1021 1022 921 
4 921 1022 1023 922 
4 922 1023 1024 923 
4 923 1024 1025 924 
4 924 1025 1026 925 
4 925 1026 1027 926 
4 926 1027 1028 927 
4 927 1028 1029 928 
4 928 1029 1030 929 
4 929 1030 1031 930 
4 930 1031 1032 931 
4 931 1032 1033 932 
4 932 1033 1034 933 
4 933 1034 1035 934 
4 934 1035 1036 935 
4 935 1036 1037 936 
4 936 1037 1038 937 
4 937 1038 1039 938 
4 938 1039 1040 939 
4 939 1040 1041 940 
4 940 1041 1042 941 
4 941 1042 1043 942 
4 942 1043 1044 943 
4 943 1044 1045 944 
4 944 1045 1046 945 
4 945 1046 1047 946 
4 946 1047 1048 947 
4 947 1048 1049 948 
4 948 1049 1050 949 
4 949 1050 1051 950 
4 950 1051 1052 951 
4 951 1052 1053 952 
4 952 1053 1054 953 
4 953 1054 1055 954 
4 954 1055 1056 955 
4 955 1056 1057 956 
4 956 1057 1058 957 
4 957 1058 1059 958 
4 958 1059 1060 959 
4 959 1060 1061 960 
4 960 1061 1062 961 
4 961 1062 1063 962 
4 962 1063 1064 963 
4 963 1064 1065 964 
4 964 1065 1066 965 
4 965 1066 1067 966 
4 966 1067 1068 967 
4 967 1068 1069 968 
4 968 1069 1070 969 
4 969 1070 1071 970 
4 970 1071 1072 971 
4 971 1072 1073 972 
4 972 1073 1074 973 
4 973 1074 1075 974 
4 974 1075 1076 975 
4 975 1076 1077 976 
4 976 1077 1078 977 
4 977 1078 1079 978 
4 978 1079 1080 979 
4 979 1080 1081 980 
4 980 1081 1082 981 
4 981 1082 1083 982 
4 982 1083 1084 983 
4 983 1084 1085 984 
4 984 1085 1086 985 
4 985 1086 1087 986 
4 986 1087 1088 987 
4 987 1088 1089 988 
4 988 1089 1090 989 
4 989 1090 1091 990 
4 990 1091 1092 991 
4 991 1092 1093 992 
4 992 1093 1094 993 
4 993 1094 1095 994 
4 994 1095 1096 995 
4 995 1096 1097 996 
4 996 1097 1098 997 
4 997 1098 1099 998 
4 998 1099 1100 999 
4 999 1100 1101 1000 
4 1000 1101 1102 1001 
4 1001 1102 1103 1002 
4 1002 1103 1104 1003 
4 1003 1104 1105 1004 
4 1004 1105 1106 1005 
4 1005 1106 1107 1006 
4 1006 1107 1108 1007 
4 1007 1108 1109 1008 
4 1008 1109 1110 1009 
4 1010 1111 1112 1011 
4 1011 1112 1113 1012 
4 1012 1113 1114 1013 
4 1013 1114 1115 1014 
4 1014 1115 1116 1015 
4 1015 1116 1117 1016 
4 1016 1117 1118 1017 
4 1017 1118 1119 1018 
4 1018 1119 1120 1019 
4 1019 1120 1121 1020 
4 1020 1121 1122 1021 
4 1021 1122 1123 1022 
4 1022 1123 1124 1023 
4 1023 1124 1125 1024 
4 1024 1125 1126 1025 
4 1025 1126 1127 1026 
4 1026 1127 1128 1027 
4 1027 1128 1129 1028 
4 1028 1129 1130 1029 
4 1029 1130 1131 1030 
4 1030 1131 1132 1031 
4 1031 1132 1133 1032 
4 1032 1133 1134 1033 
4 1033 1134 1135 1034 
4 1034 1135 1136 1035 
4 1035 1136 1137 1036 
4 1036 1137 1138 1037 
4 1037 1138 1139 1038 
4 1038 1139 1140 1039 
4 1039 1140 1141 1040 
4 1040 1141 1142 1041 
4 1041 1142 1143 1042 
4 1042 1143 1144 1043 
4 1043 1144 1145 1044 
4 1044 1145 1146 1045 
4 1045 1146 1147 1046 
4 1046 1147 1148 1047 
4 1047 1148 1149 1048 
4 1048 1149 1150 1049 
4 1049 1150 1151 1050 
4 1050 1151 1152 1051 
4 1051 1152 1153 1052 
4 1052 1153 1154 1053 
4 1053 1154 1155 1054 
4 1054 1155 1156 1055 
4 1055 1156 1157 1056 
4 1056 1157 1158 1057 
4 1057 1158 1159 1058 
4 1058 1159 1160 1059 
4 1059 1160 1161 1060 
4 1060 1161 1162 1061 
4 1061 1162 1163 1062 
4 1062 1163 1164 1063 
4 1063 1164 1165 1064 
4 1064 1165 1166 1065 
4 1065 1166 1167 1066 
4 1066 1167 1168 1067 
4 1067 1168 1169 1068 
4 1068 1169 1170 1069 
4 1069 1170 1171 1070 
4 1070 1171 1172 1071 
4 1071 1172 1173 1072 
4 1072 1173 1174 1073 
4 1073 1174 1175 1074 
4 1074 1175 1176 1075 
4 1075 1176 1177 1076 
4 1076 1177 1178 1077 
4 1077 1178 1179 1078 
4 1078 1179 1180 1079 
4 1079 1180 1181 1080 
4 1080 1181 1182 1081 
4 1081 1182 1183 1082 
4 1082 1183 1184 1083 
4 1083 1184 1185 1084 
4 1084 1185 1186 1085 
4 1085 1186 1187 1086 
4 1086 1187 1188 1087 
4 1087 1188 1189 1088 
4 1088 1189 1190 1089 
4 1089 1190 1191 1090 
4 1090 1191 1192 1091 
4 1091 1192 1193 1092 
4 1092 1193 1194 1093 
4 1093 1194 1195 1094 
4 1094 1195 1196 1095 
4 1095 1196 1197 1096 
4 1096 1197 1198 1097 
4 1097 1198 1199 1098 
4 1098 1199 1200 1099 
4 1099 1200 1201 1100 
4 1100 1201 1202 1101 
4 1101 1202 1203 1102 
4 1102 1203 1204 1103 
4 1103 1204 1205 1104 
4 1104 1205 1206 1105 
4 1105 1206 1207 1106 
4 1106 1207 1208 1107 
4 1107 1208 1209 1108 
4 1108 1209 1210 1109 
4 1109 1210 1211 1110 
4 1111 1212 1213 1112 
4 1112 1213 1214 1113 
4 1113 1214 1215 1114 
4 1114 1215 1216 1115 
4 1115 1216 1217 1116 
4 1116 1217 1218 1117 
4 1117 1218 1219 1118 
4 1118 1219 1220 1119 
4 1119 1220 1221 1120 
4 1120 1221 1222 1121 
4 1121 1222 1223 1122 
4 1122 1223 1224 1123 
4 1123 1224 1225 1124 
4 1124 1225 1226 1125 
4 1125 1226 1227 1126 
4 1126 1227 1228 1127 
4 1127 1228 1229 1128 
4 1128 1229 1230 1129 
4 1129 1230 1231 1130 
4 1130 1231 1232 1131 
4 1131 1232 1233 1132 
4 1132 1233 1234 1133 
4 1133 1234 1235 1134 
4 1134 1235 1236 1135 
4 1135 1236 1237 1136 
4 1136 1237 1238 1137 
4 1137 1238 1239 1138 
4 1138 1239 1240 1139 
4 1139 1240 1241 1140 
4 1140 1241 1242 1141 
4 1141 1242 1243 1142 
4 1142 1243 1244 1143 
4 1143 1244 1245 1144 
4 1144 1245 1246 1145 
4 1145 1246 1247 1146 
4 1146 1247 1248 1147 
4 1147 1248 1249 1148 
4 1148 1249 1250 1149 
4 1149 1250 1251 1150 
4 1150 1251 1252 1151 
4 1151 1252 1253 1152 
4 1152 1253 1254 1153 
4 1153 1254 1255 1154 
4 1154 1255 1256 1155 
4 1155 1256 1257 1156 
4 1156 1257 1258 1157 
4 1157 1258 1259 1158 
4 1158 1259 1260 1159 
4 1159 1260 1261 1160 
4 1160 1261 1262 1161 
4 1161 1262 1263 1162 
4 1162 1263 1264 1163 
4 1163 1264 1265 1164 
4 1164 1265 1266 1165 
4 1165 1266 1267 1166 
4 1166 1267 1268 1167 
4 1167 1268 1269 1168 
4 1168 1269 1270 1169 
4 1169 1270 1271 1170 
4 1170 1271 1272 1171 
4 1171 1272 1273 1172 
4 1172 1273 1274 1173 
4 1173 1274 1275 1174 
4 1174 1275 1276 1175 
4 1175 1276 1277 1176 
4 1176 1277 1278 1177 
4 1177 1278 1279 1178 
4 1178 1279 1280 1179 
4 1179 1280 1281 1180 
4 1180 1281 1282 1181 
4 1181 1282 1283 1182 
4 1182 1283 1284 1183 
4 1183 1284 1285 1184 
4 1184 1285 1286 1185 
4 1185 1286 1287 1186 
4 1186 1287 1288 1187 
4 1187 1288 1289 1188 
4 1188 1289 1290 1189 
4 1189 1290 1291 1190 
4 1190 1291 1292 1191 
4 1191 1292 1293 1192 
4 1192 1293 1294 1193 
4 1193 1294 1295 1194 
4 1194 1295 1296 1195 
4 1195 1296 1297 1196 
4 1196 1297 1298 1197 
4 1197 1298 1299 1198 
4 1198 1299 1300 1199 
4 1199 1300 1301 1200 
4 1200 1301 1302 1201 
4 1201 1302 1303 1202 
4 1202 1303 1304 1203 
4 1203 1304 1305 1204 
4 1204 1305 1306 1205 
4 1205 1306 1307 1206 
4 1206 1307 1308 1207 
4 1207 1308 1309 1208 
4 1208 1309 1310 1209 
4 1209 1310 1311 1210 
4 1210 1311 1312 1211 
4 1212 1313 1314 1213 
4 1213 1314 1315 1214 
4 1214 1315 1316 1215 
4 1215 1316 1317 1216 
4 1216 1317 1318 1217 
4 1217 1318 1319 1218 
4 1218 1319 1320 1219 
4 1219 1320 1321 1220 
4 1220 1321 1322 1221 
4 1221 1322 1323 1222 
4 1222 1323 1324 1223 
4 1223 1324 1325 1224 
4 1224 1325 1326 1225 
4 1225 1326 1327 1226 
4 1226 1327 1328 1227 
4 1227 1328 1329 1228 
4 1228 1329 1330 1229 
4 1229 1330 1331 1230 
4 1230 1331 1332 1231 
4 1231 1332 1333 1232 
4 1232 1333 1334 1233 
4 1233 1334 1335 1234 
4 1234 1335 1336 1235 
4 1235 1336 1337 1236 
4 1236 1337 1338 1237 
4 1237 1338 1339 1238 
4 1238 1339 1340 1239 
4 1239 1340 1341 1240 
4 1240 1341 1342 1241 
4 1241 1342 1343 1242 
4 1242 1343 1344 1243 
4 1243 1344 1345 1244 
4 1244 1345 1346 1245 
4 1245 1346 1347 1246 
4 1246 1347 1348 1247 
4 1247 1348 1349 1248 
4 1248 1349 1350 1249 
4 1249 1350 1351 1250 
4 1250 1351 1352 1251 
4 1251 1352 1353 1252 
4 1252 1353 1354 1253 
4 1253 1354 1355 1254 
4 1254 1355 1356 1255 
4 1255 1356 1357 1256 
4 1256 1357 1358 1257 
4 1257 1358 1359 1258 
4 1258 1359 1360 1259 
4 1259 1360 1361 1260 
4 1260 1361 1362 1261 
4 1261 1362 1363 1262 
4 1262 1363 1364 1263 
4 1263 1364 1365 1264 
4 1264 1365 1366 1265 
4 1265 1366 1367 1266 
4 1266 1367 1368 1267 
4 1267 1368 1369 1268 
4 1268 1369 1370 1269 
4 1269 1370 1371 1270 
4 1270 1371 1372 1271 
4 1271 1372 1373 1272 
4 1272 1373 1374 1273 
4 1273 1374 1375 1274 
4 1274 1375 1376 1275 
4 1275 1376 1377 1276 
4 1276 1377 1378 1277 
4 1277 1378 1379 1278 
4 1278 1379 1380 1279 
4 1279 1380 1381 1280 
4 1280 1381 1382 1281 
4 1281 1382 1383 1282 
4 1282 1383 1384 1283 
4 1283 1384 1385 1284 
4 1284 1385 1386 1285 
4 1285 1386 1387 1286 
4 1286 1387 1388 1287 
4 1287 1388 1389 1288 
4 1288 1389 1390 1289 
4 1289 1390 1391 1290 
4 1290 1391 1392 1291 
4 1291 1392 1393 1292 
4 1292 1393 1394 1293 
4 1293 1394 1395 1294 
4 1294 1395 1396 1295 
4 1295 1396 1397 1296 
4 1296 1397 1398 1297 
4 1297 1398 1399 1298 
4 1298 1399 1400 1299 
4 1299 1400 1401 1300 
4 1300 1401 1402 1301 
4 1301 1402 1403 1302 
4 1302 1403 1404 1303 
4 1303 1404 1405 1304 
4 1304 1405 1406 1305 
4 1305 1406 1407 1306 
4 1306 1407 1408 1307 
4 1307 1408 1409 1308 
4 1308 1409 1410 1309 
4 1309 1410 1411 1310 
4 1310 1411 1412 1311 
4 1311 1412 1413 1312 
4 1313 1414 1415 1314 
4 1314 1415 1416 1315 
4 1315 1416 1417 1316 
4 1316 1417 1418 1317 
4 1317 1418 1419 1318 
4 1318 1419 1420 1319 
4 1319 1420 1421 1320 
4 1320 1421 1422 1321 
4 1321 1422 1423 1322 
4 1322 1423 1424 1323 
4 1323 1424 1425 1324 
4 1324 1425 1426 1325 
4 1325 1426 1427 1326 
4 1326 1427 1428 1327 
4 1327 1428 1429 1328 
4 1328 1429 1430 1329 
4 1329 1430 1431 1330 
4 1330 1431 1432 1331 
4 1331 1432 1433 1332 
4 1332 1433 1434 1333 
4 1333 1434 1435 1334 
4 1334 1435 1436 1335 
4 1335 1436 1437 1336 
4 1336 1437 1438 1337 
4 1337 1438 1439 1338 
4 1338 1439 1440 1339 
4 1339 1440 1441 1340 
4 1340 1441 1442 1341 
4 1341 1442 1443 1342 
4 1342 1443 1444 1343 
4 1343 1444 1445 1344 
4 1344 1445 1446 1345 
4 1345 1446 1447 1346 
4 1346 1447 1448 1347 
4 1347 1448 1449 1348 
4 1348 1449 1450 1349 
4 1349 1450 1451 1350 
4 1350 1451 1452 1351 
4 1351 1452 1453 1352 
4 1352 1453 1454 1353 
4 1353 1454 1455 1354 
4 1354 1455 1456 1355 
4 1355 1456 1457 1356 
4 1356 1457 1458 1357 
4 1357 1458 1459 1358 
4 1358 1459 1460 1359 
4 1359 1460 1461 1360 
4 1360 1461 1462 1361 
4 1361 1462 1463 1362 
4 1362 1463 1464 1363 
4 1363 1464 1465 1364 
4 1364 1465 1466 1365 
4 1365 1466 1467 1366 
4 1366 1467 1468 1367 
4 1367 1468 1469 1368 
4 1368 1469 1470 1369 
4 1369 1470 1471 1370 
4 1370 1471 1472 1371 
4 1371 1472 1473 1372 
4 1372 1473 1474 1373 
4 1373 1474 1475 1374 
4 1374 1475 1476 1375 
4 1375 1476 1477 1376 
4 1376 1477 1478 1377 
4 1377 1478 1479 1378 
4 1378 1479 1480 1379 
4 1379 1480 1481 1380 
4 1380 1481 1482 1381 
4 1381 1482 1483 1382 
4 1382 1483 1484 1383 
4 1383 1484 1485 1384 
4 1384 1485 1486 1385 
4 1385 1486 1487 1386 
4 1386 1487 1488 1387 
4 1387 1488 1489 1388 
4 1388 1489 1490 1389 
4 1389 1490 1491 1390 
4 1390 1491 1492 1391 
4 1391 1492 1493 1392 
4 1392 1493 1494 1393 
4 1393 1494 1495 1394 
4 1394 1495 1496 1395 
4 1395 1496 1497 1396 
4 1396 1497 1498 1397 
4 1397 1498 1499 1398 
4 1398 1499 1500 1399 
4 1399 1500 1501 1400 
4 1400 1501 1502 1401 
4 1401 1502 1503 1402 
4 1402 1503 1504 1403 
4 1403 1504 1505 1404 
4 1404 1505 1506 1405 
4 1405 1506 1507 1406 
4 1406 1507 1508 1407 
4 1407 1508 1509 1408 
4 1408 1509 1510 1409 
4 1409 1510 1511 1410 
4 1410 1511 1512 1411 
4 1411 1512 1513 1412 
4 1412 1513 1514 1413 
4 1414 1515 1516 1415 
4 1415 1516 1517 1416 
4 1416 1517 1518 1417 
4 1417 1518 1519 1418 
4 1418 1519 1520 1419 
4 1419 1520 1521 1420 
4 1420 1521 1522 1421 
4 1421 1522 1523 1422 
4 1422 1523 1524 1423 
4 1423 1524 1525 1424 
4 1424 1525 1526 1425 
4 1425 1526 1527 1426 
4 1426 1527 1528 1427 
4 1427 1528 1529 1428 
4 1428 1529 1530 1429 
4 1429 1530 1531 1430 
4 1430 1531 1532 1431 
4 1431 1532 1533 1432 
4 1432 1533 1534 1433 
4 1433 1534 1535 1434 
4 1434 1535 1536 1435 
4 1435 1536 1537 1436 
4 1436 1537 1538 1437 
4 1437 1538 1539 1438 
4 1438 1539 1540 1439 
4 1439 1540 1541 1440 
4 1440 1541 1542 1441 
4 1441 1542 1543 1442 
4 1442 1543 1544 1443 
4 1443 1544 1545 1444 
4 1444 1545 1546 1445 
4 1445 1546 1547 1446 
4 1446 1547 1548 1447 
4 1447 1548 1549 1448 
4 1448 1549 1550 1449 
4 1449 1550 1551 1450 
4 1450 1551 1552 1451 
4 1451 1552 1553 1452 
4 1452 1553 1554 1453 
4 1453 1554 1555 1454 
4 1454 1555 1556 1455 
4 1455 1556 1557 1456 
4 1456 1557 1558 1457 
4 1457 1558 1559 1458 
4 1458 1559 1560 1459 
4 1459 1560 1561 1460 
4 1460 1561 1562 1461 
4 1461 1562 1563 1462 
4 1462 1563 1564 1463 
4 1463 1564 1565 1464 
4 1464 1565 1566 1465 
4 1465 1566 1567 1466 
4 1466 1567 1568 1467 
4 1467 1568 1569 1468 
4 1468 1569 1570 1469 
4 1469 1570 1571 1470 
4 1470 1571 1572 1471 
4 1471 1572 1573 1472 
4 1472 1573 1574 1473 
4 1473 1574 1575 1474 
4 1474 1575 1576 1475 
4 1475 1576 1577 1476 
4 1476 1577 1578 1477 
4 1477 1578 1579 1478 
4 1478 1579 1580 1479 
4 1479 1580 1581 1480 
4 1480 1581 1582 1481 
4 1481 1582 1583 1482 
4 1482 1583 1584 1483 
4 1483 1584 1585 1484 
4 1484 1585 1586 1485 
4 1485 1586 1587 1486 
4 1486 1587 1588 1487 
4 1487 1588 1589 1488 
4 1488 1589 1590 1489 
4 1489 1590 1591 1490 
4 1490 1591 1592 1491 
4 1491 1592 1593 1492 
4 1492 1593 1594 1493 
4 1493 1594 1595 1494 
4 1494 1595 1596 1495 
4 1495 1596 1597 1496 
4 1496 1597 1598 1497 
4 1497 1598 1599 1498 
4 1498 1599 1600 1499 
4 1499 1600 1601 1500 
4 1500 1601 1602 1501 
4 1501 1602 1603 1502 
4 1502 1603 1604 1503 
4 1503 1604 1605 1504 
4 1504 1605 1606 1505 
4 1505 1606 1607 1506 
4 1506 1607 1608 1507 
4 1507 1608 1609 1508 
4 1508 1609 1610 1509 
4 1509 1610 1611 1510 
4 1510 1611 1612 1511 
4 1511 1612 1613 1512 
4 1512 1613 1614 1513 
4 1513 1614 1615 1514 
4 1515 1616 1617 1516 
4 1516 1617 1618 1517 
4 1517 1618 1619 1518 
4 1518 1619 1620 1519 
4 1519 1620 1621 1520 
4 1520 1621 1622 1521 
4 1521 1622 1623 1522 
4 1522 1623 1624 1523 
4 1523 1624 1625 1524 
4 1524 1625 1626 1525 
4 1525 1626 1627 1526 
4 1526 1627 1628 1527 
4 1527 1628 1629 1528 
4 1528 1629 1630 1529 
4 1529 1630 1631 1530 
4 1530 1631 1632 1531 
4 1531 1632 1633 1532 
4 1532 1633 1634 1533 
4 1533 1634 1635 1534 
4 1534 1635 1636 1535 
4 1535 1636 1637 1536 
4 1536 1637 1638 1537 
4 1537 1638 1639 1538 
4 1538 1639 1640 1539 
4 1539 1640 1641 1540 
4 1540 1641 1642 1541 
4 1541 1642 1643 1542 
4 1542 1643 1644 1543 
4 1543 1644 1645 1544 
4 1544 1645 1646 1545 
4 1545 1646 1647 1546 
4 1546 1647 1648 1547 
4 1547 1648 1649 1548 
4 1548 1649 1650 1549 
4 1549 1650 1651 1550 
4 1550 1651 1652 1551 
4 1551 1652 1653 1552 
4 1552 1653 1654 1553 
4 1553 1654 1655 1554 
4 1554 1655 1656 1555 
4 1555 1656 1657 1556 
4 1556 1657 1658 1557 
4 1557 1658 1659 1558 
4 1558 1659 1660 1559 
4 1559 1660 1661 1560 
4 1560 1661 1662 1561 
4 1561 1662 1663 1562 
4 1562 1663 1664 1563 
4 1563 1664 1665 1564 
4 1564 1665 1666 1565 
4 1565 1666 1667 1566 
4 1566 1667 1668 1567 
4 1567 1668 1669 1568 
4 1568 1669 1670 1569 
4 1569 1670 1671 1570 
4 1570 1671 1672 1571 
4 1571 1672 1673 1572 
4 1572 1673 1674 1573 
4 1573 1674 1675 1574 
4 1574 1675 1676 1575 
4 1575 1676 1677 1576 
4 1576 1677 1678 1577 
4 1577 1678 1679 1578 
4 1578 1679 1680 1579 
4 1579 1680 1681 1580 
4 1580 1681 1682 1581 
4 1581 1682 1683 1582 
4 1582 1683 1684 1583 
4 1583 1684 1685 1584 
4 1584 1685 1686 1585 
4 1585 1686 1687 1586 
4 1586 1687 1688 1587 
4 1587 1688 1689 1588 
4 1588 1689 1690 1589 
4 1589 1690 1691 1590 
4 1590 1691 1692 1591 
4 1591 1692 1693 1592 
4 1592 1693 1694 1593 
4 1593 1694 1695 1594 
4 1594 1695 1696 1595 
4 1595 1696 1697 1596 
4 1596 1697 1698 1597 
4 1597 1698 1699 1598 
4 1598 1699 1700 1599 
4 1599 1700 1701 1600 
4 1600 1701 1702 1601 
4 1601 1702 1703 1602 
4 1602 1703 1704 1603 
4 1603 1704 1705 1604 
4 1604 1705 1706 1605 
4 1605 1706 1707 1606 
4 1606 1707 1708 1607 
4 1607 1708 1709 1608 
4 1608 1709 1710 1609 
4 1609 1710 1711 1610 
4 1610 1711 1712 1611 
4 1611 1712 1713 1612 
4 1612 1713 1714 1613 
4 1613 1714 1715 1614 
4 1614 1715 1716 1615 
4 1616 1717 1718 1617 
4 1617 1718 1719 1618 
4 1618 1719 1720 1619 
4 1619 1720 1721 1620 
4 1620 1721 1722 1621 
4 1621 1722 1723 1622 
4 1622 1723 1724 1623 
4 1623 1724 1725 1624 
4 1624 1725 1726 1625 
4 1625 1726 1727 1626 
4 1626 1727 1728 1627 
4 1627 1728 1729 1628 
4 1628 1729 1730 1629 
4 1629 1730 1731 1630 
4 1630 1731 1732 1631 
4 1631 1732 1733 1632 
4 1632 1733 1734 1633 
4 1633 1734 1735 1634 
4 1634 1735 1736 1635 
4 1635 1736 1737 1636 
4 1636 1737 1738 1637 
4 1637 1738 1739 1638 
4 1638 1739 1740 1639 
4 1639 1740 1741 1640 
4 1640 1741 1742 1641 
4 1641 1742 1743 1642 
4 1642 1743 1744 1643 
4 1643 1744 1745 1644 
4 1644 1745 1746 1645 
4 1645 1746 1747 1646 
4 1646 1747 1748 1647 
4 1647 1748 1749 1648 
4 1648 1749 1750 1649 
4 1649 1750 1751 1650 
4 1650 1751 1752 1651 
4 1651 1752 1753 1652 
4 1652 1753 1754 1653 
4 1653 1754 1755 1654 
4 1654 1755 1756 1655 
4 1655 1756 1757 1656 
4 1656 1757 1758 1657 
4 1657 1758 1759 1658 
4 1658 1759 1760 1659 
4 1659 1760 1761 1660 
4 1660 1761 1762 1661 
4 1661 1762 1763 1662 
4 1662 1763 1764 1663 
4 1663 1764 1765 1664 
4 1664 1765 1766 1665 
4 1665 1766 1767 1666 
4 1666 1767 1768 1667 
4 1667 1768 1769 1668 
4 1668 1769 1770 1669 
4 1669 1770 1771 1670 
4 1670 1771 1772 1671 
4 1671 1772 1773 1672 
4 1672 1773 1774 1673 
4 1673 1774 1775 1674 
4 1674 1775 1776 1675 
4 1675 1776 1777 1676 
4 1676 1777 1778 1677 
4 1677 1778 1779 1678 
4 1678 1779 1780 1679 
4 1679 1780 1781 1680 
4 1680 1781 1782 1681 
4 1681 1782 1783 1682 
4 1682 1783 1784 1683 
4 1683 1784 1785 1684 
4 1684 1785 1786 1685 
4 1685 1786 1787 1686 
4 1686 1787 1788 1687 
4 1687 1788 1789 1688 
4 1688 1789 1790 1689 
4 1689 1790 1791 1690 
4 1690 1791 1792 1691 
4 1691 1792 1793 1692 
4 1692 1793 1794 1693 
4 1693 1794 1795 1694 
4 1694 1795 1796 1695 
4 1695 1796 1797 1696 
4 1696 1797 1798 1697 
4 1697 1798 1799 1698 
4 1698 1799 1800 1699 
4 1699 1800 1801 1700 
4 1700 1801 1802 1701 
4 1701 1802 1803 1702 
4 1702 1803 1804 1703 
4 1703 1804 1805 1704 
4 1704 1805 1806 1705 
4 1705 1806 1807 1706 
4 1706 1807 1808 1707 
4 1707 1808 1809 1708 
4 1708 1809 1810 1709 
4 1709 1810 1811 1710 
4 1710 1811 1812 1711 
4 1711 1812 1813 1712 
4 1712 1813 1814 1713 
4 1713 1814 1815 1714 
4 1714 1815 1816 1715 
4 1715 1816 1817 1716 
4 1717 1818 1819 1718 
4 1718 1819 1820 1719 
4 1719 1820 1821 1720 
4 1720 1821 1822 1721 
4 1721 1822 1823 1722 
4 1722 1823 1824 1723 
4 1723 1824 1825 1724 
4 1724 1825 1826 1725 
4 1725 1826 1827 1726 
4 1726 1827 1828 1727 
4 1727 1828 1829 1728 
4 1728 1829 1830 1729 
4 1729 1830 1831 1730 
4 1730 1831 1832 1731 
4 1731 1832 1833 1732 
4 1732 1833 1834 1733 
4 1733 1834 1835 1734 
4 1734 1835 1836 1735 
4 1735 1836 1837 1736 
4 1736 1837 1838 1737 
4 1737 1838 1839 1738 
4 1738 1839 1840 1739 
4 1739 1840 1841 1740 
4 1740 1841 1842 1741 
4 1741 1842 1843 1742 
4 1742 1843 1844 1743 
4 1743 1844 1845 1744 
4 1744 1845 1846 1745 
4 1745 1846 1847 1746 
4 1746 1847 1848 1747 
4 1747 1848 1849 1748 
4 1748 1849 1850 1749 
4 1749 1850 1851 1750 
4 1750 1851 1852 1751 
4 1751 1852 1853 1752 
4 1752 1853 1854 1753 
4 1753 1854 1855 1754 
4 1754 1855 1856 1755 
4 1755 1856 1857 1756 
4 1756 1857 1858 1757 
4 1757 1858 1859 1758 
4 1758 1859 1860 1759 
4 1759 1860 1861 1760 
4 1760 1861 1862 1761 
4 1761 1862 1863 1762 
4 1762 1863 1864 1763 
4 1763 1864 1865 1764 
4 1764 1865 1866 1765 
4 1765 1866 1867 1766 
4 1766 1867 1868 1767 
4 1767 1868 1869 1768 
4 1768 1869 1870 1769 
4 1769 1870 1871 1770 
4 1770 1871 1872 1771 
4 1771 1872 1873 1772 
4 1772 1873 1874 1773 
4 1773 1874 1875 1774 
4 1774 1875 1876 1775 
4 1775 1876 1877 1776 
4 1776 1877 1878 1777 
4 1777 1878 1879 1778 
4 1778 1879 1880 1779 
4 1779 1880 1881 1780 
4 1780 1881 1882 1781 
4 1781 1882 1883 1782 
4 1782 1883 1884 1783 
4 1783 1884 1885 1784 
4 1784 1885 1886 1785 
4 1785 1886 1887 1786 
4 1786 1887 1888 1787 
4 1787 1888 1889 1788 
4 1788 1889 1890 1789 
4 1789 1890 1891 1790 
4 1790 1891 1892 1791 
4 1791 1892 1893 1792 
4 1792 1893 1894 1793 
4 1793 1894 1895 1794 
4 1794 1895 1896 1795 
4 1795 1896 1897 1796 
4 1796 1897 1898 1797 
4 1797 1898 1899 1798 
4 1798 1899 1900 1799 
4 1799 1900 1901 1800 
4 1800 1901 1902 1801 
4 1801 1902 1903 1802 
4 1802 1903 1904 1803 
4 1803 1904 1905 1804 
4 1804 1905 1906 1805 
4 1805 1906 1907 1806 
4 1806 1907 1908 1807 
4 1807 1908 1909 1808 
4 1808 1909 1910 1809 
4 1809 1910 1911 1810 
4 1810 1911 1912 1811 
4 1811 1912 1913 1812 
4 1812 1913 1914 1813 
4 1813 1914 1915 1814 
4 1814 1915 1916 1815 
4 1815 1916 1917 1816 
4 1816 1917 1918 1817 
4 1818 1919 1920 1819 
4 1819 1920 1921 1820 
4 1820 1921 1922 1821 
4 1821 1922 1923 1822 
4 1822 1923 1924 1823 
4 1823 1924 1925 1824 
4 1824 1925 1926 1825 
4 1825 1926 1927 1826 
4 1826 1927 1928 1827 
4 1827 1928 1929 1828 
4 1828 1929 1930 1829 
4 1829 1930 1931 1830 
4 1830 1931 1932 1831 
4 1831 1932 1933 1832 
4 1832 1933 1934 1833 
4 1833 1934 1935 1834 
4 1834 1935 1936 1835 
4 1835 1936 1937 1836 
4 1836 1937 1938 1837 
4 1837 1938 1939 1838 
4 1838 1939 1940 1839 
4 1839 1940 1941 1840 
4 1840 1941 1942 1841 
4 1841 1942 1943 1842 
4 1842 1943 1944 1843 
4 1843 1944 1945 1844 
4 1844 1945 1946 1845 
4 1845 1946 1947 1846 
4 1846 1947 1948 1847 
4 1847 1948 1949 1848 
4 1848 1949 1950 1849 
4 1849 1950 1951 1850 
4 1850 1951 1952 1851 
4 1851 1952 1953 1852 
4 1852 1953 1954 1853 
4 1853 1954 1955 1854 
4 1854 1955 1956 1855 
4 1855 1956 1957 1856 
4 1856 1957 1958 1857 
4 1857 1958 1959 1858 
4 1858 1959 1960 1859 
4 1859 1960 1961 1860 
4 1860 1961 1962 1861 
4 1861 1962 1963 1862 
4 1862 1963 1964 1863 
4 1863 1964 1965 1864 
4 1864 1965 1966 1865 
4 1865 1966 1967 1866 
4 1866 1967 1968 1867 
4 1867 1968 1969 1868 
4 1868 1969 1970 1869 
4 1869 1970 1971 1870 
4 1870 1971 1972 1871 
4 1871 1972 1973 1872 
4 1872 1973 1974 1873 
4 1873 1974 1975 1874 
4 1874 1975 1976 1875 
4 1875 1976 1977 1876 
4 1876 1977 1978 1877 
4 1877 1978 1979 1878 
4 1878 1979 1980 1879 
4 1879 1980 1981 1880 
4 1880 1981 1982 1881 
4 1881 1982 1983 1882 
4 1882 1983 1984 1883 
4 1883 1984 1985 1884 
4 1884 1985 1986 1885 
4 1885 1986 1987 1886 
4 1886 1987 1988 1887 
4 1887 1988 1989 1888 
4 1888 1989 1990 1889 
4 1889 1990 1991 1890 
4 1890 1991 1992 1891 
4 1891 1992 1993 1892 
4 1892 1993 1994 1893 
4 1893 1994 1995 1894 
4 1894 1995 1996 1895 
4 1895 1996 1997 1896 
4 1896 1997 1998 1897 
4 1897 1998 1999 1898 
4 1898 1999 2000 1899 
4 1899 2000 2001 1900 
4 1900 2001 2002 1901 
4 1901 2002 2003 1902 
4 1902 2003 2004 1903 
4 1903 2004 2005 1904 
4 1904 2005 2006 1905 
4 1905 2006 2007 1906 
4 1906 2007 2008 1907 
4 1907 2008 2009 1908 
4 1908 2009 2010 1909 
4 1909 2010 2011 1910 
4 1910 2011 2012 1911 
4 1911 2012 2013 1912 
4 1912 2013 2014 1913 
4 1913 2014 2015 1914 
4 1914 2015 2016 1915 
4 1915 2016 2017 1916 
4 1916 2017 2018 1917 
4 1917 2018 2019 1918 
4 1919 2020 2021 1920 
4 1920 2021 2022 1921 
4 1921 2022 2023 1922 
4 1922 2023 2024 1923 
4 1923 2024 2025 1924 
4 1924 2025 2026 1925 
4 1925 2026 2027 1926 
4 1926 2027 2028 1927 
4 1927 2028 2029 1928 
4 1928 2029 2030 1929 
4 1929 2030 2031 1930 
4 1930 2031 2032 1931 
4 1931 2032 2033 1932 
4 1932 2033 2034 1933 
4 1933 2034 2035 1934 
4 1934 2035 2036 1935 
4 1935 2036 2037 1936 
4 1936 2037 2038 1937 
4 1937 2038 2039 1938 
4 1938 2039 2040 1939 
4 1939 2040 2041 1940 
4 1940 2041 2042 1941 
4 1941 2042 2043 1942 
4 1942 2043 2044 1943 
4 1943 2044 2045 1944 
4 1944 2045 2046 1945 
4 1945 2046 2047 1946 
4 1946 2047 2048 1947 
4 1947 2048 2049 1948 
4 1948 2049 2050 1949 
4 1949 2050 2051 1950 
4 1950 2051 2052 1951 
4 1951 2052 2053 1952 
4 1952 2053 2054 1953 
4 1953 2054 2055 1954 
4 1954 2055 2056 1955 
4 1955 2056 2057 1956 
4 1956 2057 2058 1957 
4 1957 2058 2059 1958 
4 1958 2059 2060 1959 
4 1959 2060 2061 1960 
4 1960 2061 2062 1961 
4 1961 2062 2063 1962 
4 1962 2063 2064 1963 
4 1963 2064 2065 1964 
4 1964 2065 2066 1965 
4 1965 2066 2067 1966 
4 1966 2067 2068 1967 
4 1967 2068 2069 1968 
4 1968 2069 2070 1969 
4 1969 2070 2071 1970 
4 1970 2071 2072 1971 
4 1971 2072 2073 1972 
4 1972 2073 2074 1973 
4 1973 2074 2075 1974 
4 1974 2075 2076 1975 
4 1975 2076 2077 1976 
4 1976 2077 2078 1977 
4 1977 2078 2079 1978 
4 1978 2079 2080 1979 
4 1979 2080 2081 1980 
4 1980 2081 2082 1981 
4 1981 2082 2083 1982 
4 1982 2083 2084 1983 
4 1983 2084 2085 1984 
4 1984 2085 2086 1985 
4 1985 2086 2087 1986 
4 1986 2087 2088 1987 
4 1987 2088 2089 1988 
4 1988 2089 2090 1989 
4 1989 2090 2091 1990 
4 1990 2091 2092 1991 
4 1991 2092 2093 1992 
4 1992 2093 2094 1993 
4 1993 2094 2095 1994 
4 1994 2095 2096 1995 
4 1995 2096 2097 1996 
4 1996 2097 2098 1997 
4 1997 2098 2099 1998 
4 1998 2099 2100 1999 
4 1999 2100 2101 2000 
4 2000 2101 2102 2001 
4 2001 2102 2103 2002 
4 2002 2103 2104 2003 
4 2003 2104 2105 2004 
4 2004 2105 2106 2005 
4 2005 2106 2107 2006 
4 2006 2107 2108 2007 
4 2007 2108 2109 2008 
4 2008 2109 2110 2009 
4 2009 2110 2111 2010 
4 2010 2111 2112 2011 
4 2011 2112 2113 2012 
4 2012 2113 2114 2013 
4 2013 2114 2115 2014 
4 2014 2115 2116 2015 
4 2015 2116 2117 2016 
4 2016 2117 2118 2017 
4 2017 2118 2119 2018 
4 2018 2119 2120 2019 
4 2020 2121 2122 2021 
4 2021 2122 2123 2022 
4 2022 2123 2124 2023 
4 2023 2124 2125 2024 
4 2024 2125 2126 2025 
4 2025 2126 2127 2026 
4 2026 2127 2128 2027 
4 2027 2128 2129 2028 
4 2028 2129 2130 2029 
4 2029 2130 2131 2030 
4 2030 2131 2132 2031 
4 2031 2132 2133 2032 
4 2032 2133 2134 2033 
4 2033 2134 2135 2034 
4 2034 2135 2136 2035 
4 2035 2136 2137 2036 
4 2036 2137 2138 2037 
4 2037 2138 2139 2038 
4 2038 2139 2140 2039 
4 2039 2140 2141 2040 
4 2040 2141 2142 2041 
4 2041 2142 2143 2042 
4 2042 2143 2144 2043 
4 2043 2144 2145 2044 
4 2044 2145 2146 2045 
4 2045 2146 2147 2046 
4 2046 2147 2148 2047 
4 2047 2148 2149 2048 
4 2048 2149 2150 2049 
4 2049 2150 2151 2050 
4 2050 2151 2152 2051 
4 2051 2152 2153 2052 
4 2052 2153 2154 2053 
4 2053 2154 2155 2054 
4 2054 2155 2156 2055 
4 2055 2156 2157 2056 
4 2056 2157 2158 2057 
4 2057 2158 2159 2058 
4 2058 2159 2160 2059 
4 2059 2160 2161 2060 
4 2060 2161 2162 2061 
4 2061 2162 2163 2062 
4 2062 2163 2164 2063 
4 2063 2164 2165 2064 
4 2064 2165 2166 2065 
4 2065 2166 2167 2066 
4 2066 2167 2168 2067 
4 2067 2168 2169 2068 
4 2068 2169 2170 2069 
4 2069 2170 2171 2070 
4 2070 2171 2172 2071 
4 2071 2172 2173 2072 
4 2072 2173 2174 2073 
4 2073 2174 2175 2074 
4 2074 2175 2176 2075 
4 2075 2176 2177 2076 
4 2076 2177 2178 2077 
4 2077 2178 2179 2078 
4 2078 2179 2180 2079 
4 2079 2180 2181 2080 
4 2080 2181 2182 2081 
4 2081 2182 2183 2082 
4 2082 2183 2184 2083 
4 2083 2184 2185 2084 
4 2084 2185 2186 2085 
4 2085 2186 2187 2086 
4 2086 2187 2188 2087 
4 2087 2188 2189 2088 
4 2088 2189 2190 2089 
4 2089 2190 2191 2090 
4 2090 2191 2192 2091 
4 2091 2192 2193 2092 
4 2092 2193 2194 2093 
4 2093 2194 2195 2094 
4 2094 2195 2196 2095 
4 2095 2196 2197 2096 
4 2096 2197 2198 2097 
4 2097 2198 2199 2098 
4 2098 2199 2200 2099 
4 2099 2200 2201 2100 
4 2100 2201 2202 2101 
4 2101 2202 2203 2102 
4 2102 2203 2204 2103 
4 2103 2204 2205 2104 
4 2104 2205 2206 2105 
4 2105 2206 2207 2106 
4 2106 2207 2208 2107 
4 2107 2208 2209 2108 
4 2108 2209 2210 2109 
4 2109 2210 2211 2110 
4 2110 2211 2212 2111 
4 2111 2212 2213 2112 
4 2112 2213 2214 2113 
4 2113 2214 2215 2114 
4 2114 2215 2216 2115 
4 2115 2216 2217 2116 
4 2116 2217 2218 2117 
4 2117 2218 2219 2118 
4 2118 2219 2220 2119 
4 2119 2220 2221 2120 
4 2121 2222 2223 2122 
4 2122 2223 2224 2123 
4 2123 2224 2225 2124 
4 2124 2225 2226 2125 
4 2125 2226 2227 2126 
4 2126 2227 2228 2127 
4 2127 2228 2229 2128 
4 2128 2229 2230 2129 
4 2129 2230 2231 2130 
4 2130 2231 2232 2131 
4 2131 2232 2233 2132 
4 2132 2233 2234 2133 
4 2133 2234 2235 2134 
4 2134 2235 2236 2135 
4 2135 2236 2237 2136 
4 2136 2237 2238 2137 
4 2137 2238 2239 2138 
4 2138 2239 2240 2139 
4 2139 2240 2241 2140 
4 2140 2241 2242 2141 
4 2141 2242 2243 2142 
4 2142 2243 2244 2143 
4 2143 2244 2245 2144 
4 2144 2245 2246 2145 
4 2145 2246 2247 2146 
4 2146 2247 2248 2147 
4 2147 2248 2249 2148 
4 2148 2249 2250 2149 
4 2149 2250 2251 2150 
4 2150 2251 2252 2151 
4 2151 2252 2253 2152 
4 2152 2253 2254 2153 
4 2153 2254 2255 2154 
4 2154 2255 2256 2155 
4 2155 2256 2257 2156 
4 2156 2257 2258 2157 
4 2157 2258 2259 2158 
4 2158 2259 2260 2159 
4 2159 2260 2261 2160 
4 2160 2261 2262 2161 
4 2161 2262 2263 2162 
4 2162 2263 2264 2163 
4 2163 2264 2265 2164 
4 2164 2265 2266 2165 
4 2165 2266 2267 2166 
4 2166 2267 2268 2167 
4 2167 2268 2269 2168 
4 2168 2269 2270 2169 
4 2169 2270 2271 2170 
4 2170 2271 2272 2171 
4 2171 2272 2273 2172 
4 2172 2273 2274 2173 
4 2173 2274 2275 2174 
4 2174 2275 2276 2175 
4 2175 2276 2277 2176 
4 2176 2277 2278 2177 
4 2177 2278 2279 2178 
4 2178 2279 2280 2179 
4 2179 2280 2281 2180 
4 2180 2281 2282 2181 
4 2181 2282 2283 2182 
4 2182 2283 2284 2183 
4 2183 2284 2285 2184 
4 2184 2285 2286 2185 
4 2185 2286 2287 2186 
4 2186 2287 2288 2187 
4 2187 2288 2289 2188 
4 2188 2289 2290 2189 
4 2189 2290 2291 2190 
4 2190 2291 2292 2191 
4 2191 2292 2293 2192 
4 2192 2293 2294 2193 
4 2193 2294 2295 2194 
4 2194 2295 2296 2195 
4 2195 2296 2297 2196 
4 2196 2297 2298 2197 
4 2197 2298 2299 2198 
4 2198 2299 2300 2199 
4 2199 2300 2301 2200 
4 2200 2301 2302 2201 
4 2201 2302 2303 2202 
4 2202 2303 2304 2203 
4 2203 2304 2305 2204 
4 2204 2305 2306 2205 
4 2205 2306 2307 2206 
4 2206 2307 2308 2207 
4 2207 2308 2309 2208 
4 2208 2309 2310 2209 
4 2209 2310 2311 2210 
4 2210 2311 2312 2211 
4 2211 2312 2313 2212 
4 2212 2313 2314 2213 
4 2213 2314 2315 2214 
4 2214 2315 2316 2215 
4 2215 2316 2317 2216 
4 2216 2317 2318 2217 
4 2217 2318 2319 2218 
4 2218 2319 2320 2219 
4 2219 2320 2321 2220 
4 2220 2321 2322 2221 
4 2222 2323 2324 2223 
4 2223 2324 2325 2224 
4 2224 2325 2326 2225 
4 2225 2326 2327 2226 
4 2226 2327 2328 2227 
4 2227 2328 2329 2228 
4 2228 2329 2330 2229 
4 2229 2330 2331 2230 
4 2230 2331 2332 2231 
4 2231 2332 2333 2232 
4 2232 2333 2334 2233 
4 2233 2334 2335 2234 
4 2234 2335 2336 2235 
4 2235 2336 2337 2236 
4 2236 2337 2338 2237 
4 2237 2338 2339 2238 
4 2238 2339 2340 2239 
4 2239 2340 2341 2240 
4 2240 2341 2342 2241 
4 2241 2342 2343 2242 
4 2242 2343 2344 2243 
4 2243 2344 2345 2244 
4 2244 2345 2346 2245 
4 2245 2346 2347 2246 
4 2246 2347 2348 2247 
4 2247 2348 2349 2248 
4 2248 2349 2350 2249 
4 2249 2350 2351 2250 
4 2250 2351 2352 2251 
4 2251 2352 2353 2252 
4 2252 2353 2354 2253 
4 2253 2354 2355 2254 
4 2254 2355 2356 2255 
4 2255 2356 2357 2256 
4 2256 2357 2358 2257 
4 2257 2358 2359 2258 
4 2258 2359 2360 2259 
4 2259 2360 2361 2260 
4 2260 2361 2362 2261 
4 2261 2362 2363 2262 
4 2262 2363 2364 2263 
4 2263 2364 2365 2264 
4 2264 2365 2366 2265 
4 2265 2366 2367 2266 
4 2266 2367 2368 2267 
4 2267 2368 2369 2268 
4 2268 2369 2370 2269 
4 2269 2370 2371 2270 
4 2270 2371 2372 2271 
4 2271 2372 2373 2272 
4 2272 2373 2374 2273 
4 2273 2374 2375 2274 
4 2274 2375 2376 2275 
4 2275 2376 2377 2276 
4 2276 2377 2378 2277 
4 2277 2378 2379 2278 
4 2278 2379 2380 2279 
4 2279 2380 2381 2280 
4 2280 2381 2382 2281 
4 2281 2382 2383 2282 
4 2282 2383 2384 2283 
4 2283 2384 2385 2284 
4 2284 2385 2386 2285 
4 2285 2386 2387 2286 
4 2286 2387 2388 2287 
4 2287 2388 2389 2288 
4 2288 2389 2390 2289 
4 2289 2390 2391 2290 
4 2290 2391 2392 2291 
4 2291 2392 2393 2292 
4 2292 2393 2394 2293 
4 2293 2394 2395 2294 
4 2294 2395 2396 2295 
4 2295 2396 2397 2296 
4 2296 2397 2398 2297 
4 2297 2398 2399 2298 
4 2298 2399 2400 2299 
4 2299 2400 2401 2300 
4 2300 2401 2402 2301 
4 2301 2402 2403 2302 
4 2302 2403 2404 2303 
4 2303 2404 2405 2304 
4 2304 2405 2406 2305 
4 2305 2406 2407 2306 
4 2306 2407 2408 2307 
4 2307 2408 2409 2308 
4 2308 2409 2410 2309 
4 2309 2410 2411 2310 
4 2310 2411 2412 2311 
4 2311 2412 2413 2312 
4 2312 2413 2414 2313 
4 2313 2414 2415 2314 
4 2314 2415 2416 2315 
4 2315 2416 2417 2316 
4 2316 2417 2418 2317 
4 2317 2418 2419 2318 
4 2318 2419 2420 2319 
4 2319 2420 2421 2320 
4 2320 2421 2422 2321 
4 2321 2422 2423 2322 
4 2323 2424 2425 2324 
4 2324 2425 2426 2325 
4 2325 2426 2427 2326 
4 2326 2427 2428 2327 
4 2327 2428 2429 2328 
4 2328 2429 2430 2329 
4 2329 2430 2431 2330 
4 2330 2431 2432 2331 
4 2331 2432 2433 2332 
4 2332 2433 2434 2333 
4 2333 2434 2435 2334 
4 2334 2435 2436 2335 
4 2335 2436 2437 2336 
4 2336 2437 2438 2337 
4 2337 2438 2439 2338 
4 2338 2439 2440 2339 
4 2339 2440 2441 2340 
4 2340 2441 2442 2341 
4 2341 2442 2443 2342 
4 2342 2443 2444 2343 
4 2343 2444 2445 2344 
4 2344 2445 2446 2345 
4 2345 2446 2447 2346 
4 2346 2447 2448 2347 
4 2347 2448 2449 2348 
4 2348 2449 2450 2349 
4 2349 2450 2451 2350 
4 2350 2451 2452 2351 
4 2351 2452 2453 2352 
4 2352 2453 2454 2353 
4 2353 2454 2455 2354 
4 2354 2455 2456 2355 
4 2355 2456 2457 2356 
4 2356 2457 2458 2357 
4 2357 2458 2459 2358 
4 2358 2459 2460 2359 
4 2359 2460 2461 2360 
4 2360 2461 2462 2361 
4 2361 2462 2463 2362 
4 2362 2463 2464 2363 
4 2363 2464 2465 2364 
4 2364 2465 2466 2365 
4 2365 2466 2467 2366 
4 2366 2467 2468 2367 
4 2367 2468 2469 2368 
4 2368 2469 2470 2369 
4 2369 2470 2471 2370 
4 2370 2471 2472 2371 
4 2371 2472 2473 2372 
4 2372 2473 2474 2373 
4 2373 2474 2475 2374 
4 2374 2475 2476 2375 
4 2375 2476 2477 2376 
4 2376 2477 2478 2377 
4 2377 2478 2479 2378 
4 2378 2479 2480 2379 
4 2379 2480 2481 2380 
4 2380 2481 2482 2381 
4 2381 2482 2483 2382 
4 2382 2483 2484 2383 
4 2383 2484 2485 2384 
4 2384 2485 2486 2385 
4 2385 2486 2487 2386 
4 2386 2487 2488 2387 
4 2387 2488 2489 2388 
4 2388 2489 2490 2389 
4 2389 2490 2491 2390 
4 2390 2491 2492 2391 
4 2391 2492 2493 2392 
4 2392 2493 2494 2393 
4 2393 2494 2495 2394 
4 2394 2495 2496 2395 
4 2395 2496 2497 2396 
4 2396 2497 2498 2397 
4 2397 2498 2499 2398 
4 2398 2499 2500 2399 
4 2399 2500 2501 2400 
4 2400 2501 2502 2401 
4 2401 2502 2503 2402 
4 2402 2503 2504 2403 
4 2403 2504 2505 2404 
4 2404 2505 2506 2405 
4 2405 2506 2507 2406 
4 2406 2507 2508 2407 
4 2407 2508 2509 2408 
4 2408 2509 2510 2409 
4 2409 2510 2511 2410 
4 2410 2511 2512 2411 
4 2411 2512 2513 2412 
4 2412 2513 2514 2413 
4 2413 2514 2515 2414 
4 2414 2515 2516 2415 
4 2415 2516 2517 2416 
4 2416 2517 2518 2417 
4 2417 2518 2519 2418 
4 2418 2519 2520 2419 
4 2419 2520 2521 2420 
4 2420 2521 2522 2421 
4 2421 2522 2523 2422 
4 2422 2523 2524 2423 
4 2424 2525 2526 2425 
4 2425 2526 2527 2426 
4 2426 2527 2528 2427 
4 2427 2528 2529 2428 
4 2428 2529 2530 2429 
4 2429 2530 2531 2430 
4 2430 2531 2532 2431 
4 2431 2532 2533 2432 
4 2432 2533 2534 2433 
4 2433 2534 2535 2434 
4 2434 2535 2536 2435 
4 2435 2536 2537 2436 
4 2436 2537 2538 2437 
4 2437 2538 2539 2438 
4 2438 2539 2540 2439 
4 2439 2540 2541 2440 
4 2440 2541 2542 2441 
4 2441 2542 2543 2442 
4 2442 2543 2544 2443 
4 2443 2544 2545 2444 
4 2444 2545 2546 2445 
4 2445 2546 2547 2446 
4 2446 2547 2548 2447 
4 2447 2548 2549 2448 
4 2448 2549 2550 2449 
4 2449 2550 2551 2450 
4 2450 2551 2552 2451 
4 2451 2552 2553 2452 
4 2452 2553 2554 2453 
4 2453 2554 2555 2454 
4 2454 2555 2556 2455 
4 2455 2556 2557 2456 
4 2456 2557 2558 2457 
4 2457 2558 2559 2458 
4 2458 2559 2560 2459 
4 2459 2560 2561 2460 
4 2460 2561 2562 2461 
4 2461 2562 2563 2462 
4 2462 2563 2564 2463 
4 2463 2564 2565 2464 
4 2464 2565 2566 2465 
4 2465 2566 2567 2466 
4 2466 2567 2568 2467 
4 2467 2568 2569 2468 
4 2468 2569 2570 2469 
4 2469 2570 2571 2470 
4 2470 2571 2572 2471 
4 2471 2572 2573 2472 
4 2472 2573 2574 2473 
4 2473 2574 2575 2474 
4 2474 2575 2576 2475 
4 2475 2576 2577 2476 
4 2476 2577 2578 2477 
4 2477 2578 2579 2478 
4 2478 2579 2580 2479 
4 2479 2580 2581 2480 
4 2480 2581 2582 2481 
4 2481 2582 2583 2482 
4 2482 2583 2584 2483 
4 2483 2584 2585 2484 
4 2484 2585 2586 2485 
4 2485 2586 2587 2486 
4 2486 2587 2588 2487 
4 2487 2588 2589 2488 
4 2488 2589 2590 2489 
4 2489 2590 2591 2490 
4 2490 2591 2592 2491 
4 2491 2592 2593 2492 
4 2492 2593 2594 2493 
4 2493 2594 2595 2494 
4 2494 2595 2596 2495 
4 2495 2596 2597 2496 
4 2496 2597 2598 2497 
4 2497 2598 2599 2498 
4 2498 2599 2600 2499 
4 2499 2600 2601 2500 
4 2500 2601 2602 2501 
4 2501 2602 2603 2502 
4 2502 2603 2604 2503 
4 2503 2604 2605 2504 
4 2504 2605 2606 2505 
4 2505 2606 2607 2506 
4 2506 2607 2608 2507 
4 2507 2608 2609 2508 
4 2508 2609 2610 2509 
4 2509 2610 2611 2510 
4 2510 2611 2612 2511 
4 2511 2612 2613 2512 
4 2512 2613 2614 2513 
4 2513 2614 2615 2514 
4 2514 2615 2616 2515 
4 2515 2616 2617 2516 
4 2516 2617 2618 2517 
4 2517 2618 2619 2518 
4 2518 2619 2620 2519 
4 2519 2620 2621 2520 
4 2520 2621 2622 2521 
4 2521 2622 2623 2522 
4 2522 2623 2624 2523 
4 2523 2624 2625 2524 
4 2525 2626 2627 2526 
4 2526 2627 2628 2527 
4 2527 2628 2629 2528 
4 2528 2629 2630 2529 
4 2529 2630 2631 2530 
4 2530 2631 2632 2531 
4 2531 2632 2633 2532 
4 2532 2633 2634 2533 
4 2533 2634 2635 2534 
4 2534 2635 2636 2535 
4 2535 2636 2637 2536 
4 2536 2637 2638 2537 
4 2537 2638 2639 2538 
4 2538 2639 2640 2539 
4 2539 2640 2641 2540 
4 2540 2641 2642 2541 
4 2541 2642 2643 2542 
4 2542 2643 2644 2543 
4 2543 2644 2645 2544 
4 2544 2645 2646 2545 
4 2545 2646 2647 2546 
4 2546 2647 2648 2547 
4 2547 2648 2649 2548 
4 2548 2649 2650 2549 
4 2549 2650 2651 2550 
4 2550 2651 2652 2551 
4 2551 2652 2653 2552 
4 2552 2653 2654 2553 
4 2553 2654 2655 2554 
4 2554 2655 2656 2555 
4 2555 2656 2657 2556 
4 2556 2657 2658 2557 
4 2557 2658 2659 2558 
4 2558 2659 2660 2559 
4 2559 2660 2661 2560 
4 2560 2661 2662 2561 
4 2561 2662 2663 2562 
4 2562 2663 2664 2563 
4 2563 2664 2665 2564 
4 2564 2665 2666 2565 
4 2565 2666 2667 2566 
4 2566 2667 2668 2567 
4 2567 2668 2669 2568 
4 2568 2669 2670 2569 
4 2569 2670 2671 2570 
4 2570 2671 2672 2571 
4 2571 2672 2673 2572 
4 2572 2673 2674 2573 
4 2573 2674 2675 2574 
4 2574 2675 2676 2575 
4 2575 2676 2677 2576 
4 2576 2677 2678 2577 
4 2577 2678 2679 2578 
4 2578 2679 2680 2579 
4 2579 2680 2681 2580 
4 2580 2681 2682 2581 
4 2581 2682 2683 2582 
4 2582 2683 2684 2583 
4 2583 2684 2685 2584 
4 2584 2685 2686 2585 
4 2585 2686 2687 2586 
4 2586 2687 2688 2587 
4 2587 2688 2689 2588 
4 2588 2689 2690 2589 
4 2589 2690 2691 2590 
4 2590 2691 2692 2591 
4 2591 2692 2693 2592 
4 2592 2693 2694 2593 
4 2593 2694 2695 2594 
4 2594 2695 2696 2595 
4 2595 2696 2697 2596 
4 2596 2697 2698 2597 
4 2597 2698 2699 2598 
4 2598 2699 2700 2599 
4 2599 2700 2701 2600 
4 2600 2701 2702 2601 
4 2601 2702 2703 2602 
4 2602 2703 2704 2603 
4 2603 2704 2705 2604 
4 2604 2705 2706 2605 
4 2605 2706 2707 2606 
4 2606 2707 2708 2607 
4 2607 2708 2709 2608 
4 2608 2709 2710 2609 
4 2609 2710 2711 2610 
4 2610 2711 2712 2611 
4 2611 2712 2713 2612 
4 2612 2713 2714 2613 
4 2613 2714 2715 2614 
4 2614 2715 2716 2615 
4 2615 2716 2717 2616 
4 2616 2717 2718 2617 
4 2617 2718 2719 2618 
4 2618 2719 2720 2619 
4 2619 2720 2721 2620 
4 2620 2721 2722 2621 
4 2621 2722 2723 2622 
4 2622 2723 2724 2623 
4 2623 2724 2725 2624 
4 2624 2725 2726 2625 
4 2626 2727 2728 2627 
4 2627 2728 2729 2628 
4 2628 2729 2730 2629 
4 2629 2730 2731 2630 
4 2630 2731 2732 2631 
4 2631 2732 2733 2632 
4 2632 2733 2734 2633 
4 2633 2734 2735 2634 
4 2634 2735 2736 2635 
4 2635 2736 2737 2636 
4 2636 2737 2738 2637 
4 2637 2738 2739 2638 
4 2638 2739 2740 2639 
4 2639 2740 2741 2640 
4 2640 2741 2742 2641 
4 2641 2742 2743 2642 
4 2642 2743 2744 2643 
4 2643 2744 2745 2644 
4 2644 2745 2746 2645 
4 2645 2746 2747 2646 
4 2646 2747 2748 2647 
4 2647 2748 2749 2648 
4 2648 2749 2750 2649 
4 2649 2750 2751 2650 
4 2650 2751 2752 2651 
4 2651 2752 2753 2652 
4 2652 2753 2754 2653 
4 2653 2754 2755 2654 
4 2654 2755 2756 2655 
4 2655 2756 2757 2656 
4 2656 2757 2758 2657 
4 2657 2758 2759 2658 
4 2658 2759 2760 2659 
4 2659 2760 2761 2660 
4 2660 2761 2762 2661 
4 2661 2762 2763 2662 
4 2662 2763 2764 2663 
4 2663 2764 2765 2664 
4 2664 2765 2766 2665 
4 2665 2766 2767 2666 
4 2666 2767 2768 2667 
4 2667 2768 2769 2668 
4 2668 2769 2770 2669 
4 2669 2770 2771 2670 
4 2670 2771 2772 2671 
4 2671 2772 2773 2672 
4 2672 2773 2774 2673 
4 2673 2774 2775 2674 
4 2674 2775 2776 2675 
4 2675 2776 2777 2676 
4 2676 2777 2778 2677 
4 2677 2778 2779 2678 
4 2678 2779 2780 2679 
4 2679 2780 2781 2680 
4 2680 2781 2782 2681 
4 2681 2782 2783 2682 
4 2682 2783 2784 2683 
4 2683 2784 2785 2684 
4 2684 2785 2786 2685 
4 2685 2786 2787 2686 
4 2686 2787 2788 2687 
4 2687 2788 2789 2688 
4 2688 2789 2790 2689 
4 2689 2790 2791 2690 
4 2690 2791 2792 2691 
4 2691 2792 2793 2692 
4 2692 2793 2794 2693 
4 2693 2794 2795 2694 
4 2694 2795 2796 2695 
4 2695 2796 2797 2696 
4 2696 2797 2798 2697 
4 2697 2798 2799 2698 
4 2698 2799 2800 2699 
4 2699 2800 2801 2700 
4 2700 2801 2802 2701 
4 2701 2802 2803 2702 
4 2702 2803 2804 2703 
4 2703 2804 2805 2704 
4 2704 2805 2806 2705 
4 2705 2806 2807 2706 
4 2706 2807 2808 2707 
4 2707 2808 2809 2708 
4 2708 2809 2810 2709 
4 2709 2810 2811 2710 
4 2710 2811 2812 2711 
4 2711 2812 2813 2712 
4 2712 2813 2814 2713 
4 2713 2814 2815 2714 
4 2714 2815 2816 2715 
4 2715 2816 2817 2716 
4 2716 2817 2818 2717 
4 2717 2818 2819 2718 
4 2718 2819 2820 2719 
4 2719 2820 2821 2720 
4 2720 2821 2822 2721 
4 2721 2822 2823 2722 
4 2722 2823 2824 2723 
4 2723 2824 2825 2724 
4 2724 2825 2826 2725 
4 2725 2826 2827 2726 
4 2727 2828 2829 2728 
4 2728 2829 2830 2729 
4 2729 2830 2831 2730 
4 2730 2831 2832 2731 
4 2731 2832 2833 2732 
4 2732 2833 2834 2733 
4 2733 2834 2835 2734 
4 2734 2835 2836 2735 
4 2735 2836 2837 2736 
4 2736 2837 2838 2737 
4 2737 2838 2839 2738 
4 2738 2839 2840 2739 
4 2739 2840 2841 2740 
4 2740 2841 2842 2741 
4 2741 2842 2843 2742 
4 2742 2843 2844 2743 
4 2743 2844 2845 2744 
4 2744 2845 2846 2745 
4 2745 2846 2847 2746 
4 2746 2847 2848 2747 
4 2747 2848 2849 2748 
4 2748 2849 2850 2749 
4 2749 2850 2851 2750 
4 2750 2851 2852 2751 
4 2751 2852 2853 2752 
4 2752 2853 2854 2753 
4 2753 2854 2855 2754 
4 2754 2855 2856 2755 
4 2755 2856 2857 2756 
4 2756 2857 2858 2757 
4 2757 2858 2859 2758 
4 2758 2859 2860 2759 
4 2759 2860 2861 2760 
4 2760 2861 2862 2761 
4 2761 2862 2863 2762 
4 2762 2863 2864 2763 
4 2763 2864 2865 2764 
4 2764 2865 2866 2765 
4 2765 2866 2867 2766 
4 2766 2867 2868 2767 
4 2767 2868 2869 2768 
4 2768 2869 2870 2769 
4 2769 2870 2871 2770 
4 2770 2871 2872 2771 
4 2771 2872 2873 2772 
4 2772 2873 2874 2773 
4 2773 2874 2875 2774 
4 2774 2875 2876 2775 
4 2775 2876 2877 2776 
4 2776 2877 2878 2777 
4 2777 2878 2879 2778 
4 2778 2879 2880 2779 
4 2779 2880 2881 2780 
4 2780 2881 2882 2781 
4 2781 2882 2883 2782 
4 2782 2883 2884 2783 
4 2783 2884 2885 2784 
4 2784 2885 2886 2785 
4 2785 2886 2887 2786 
4 2786 2887 2888 2787 
4 2787 2888 2889 2788 
4 2788 2889 2890 2789 
4 2789 2890 2891 2790 
4 2790 2891 2892 2791 
4 2791 2892 2893 2792 
4 2792 2893 2894 2793 
4 2793 2894 2895 2794 
4 2794 2895 2896 2795 
4 2795 2896 2897 2796 
4 2796 2897 2898 2797 
4 2797 2898 2899 2798 
4 2798 2899 2900 2799 
4 2799 2900 2901 2800 
4 2800 2901 2902 2801 
4 2801 2902 2903 2802 
4 2802 2903 2904 2803 
4 2803 2904 2905 2804 
4 2804 2905 2906 2805 
4 2805 2906 2907 2806 
4 2806 2907 2908 2807 
4 2807 2908 2909 2808 
4 2808 2909 2910 2809 
4 2809 2910 2911 2810 
4 2810 2911 2912 2811 
4 2811 2912 2913 2812 
4 2812 2913 2914 2813 
4 2813 2914 2915 2814 
4 2814 2915 2916 2815 
4 2815 2916 2917 2816 
4 2816 2917 2918 2817 
4 2817 2918 2919 2818 
4 2818 2919 2920 2819 
4 2819 2920 2921 2820 
4 2820 2921 2922 2821 
4 2821 2922 2923 2822 
4 2822 2923 2924 2823 
4 2823 2924 2925 2824 
4 2824 2925 2926 2825 
4 2825 2926 2927 2826 
4 2826 2927 2928 2827 
4 2828 2929 2930 2829 
4 2829 2930 2931 2830 
4 2830 2931 2932 2831 
4 2831 2932 2933 2832 
4 2832 2933 2934 2833 
4 2833 2934 2935 2834 
4 2834 2935 2936 2835 
4 2835 2936 2937 2836 
4 2836 2937 2938 2837 
4 2837 2938 2939 2838 
4 2838 2939 2940 2839 
4 2839 2940 2941 2840 
4 2840 2941 2942 2841 
4 2841 2942 2943 2842 
4 2842 2943 2944 2843 
4 2843 2944 2945 2844 
4 2844 2945 2946 2845 
4 2845 2946 2947 2846 
4 2846 2947 2948 2847 
4 2847 2948 2949 2848 
4 2848 2949 2950 2849 
4 2849 2950 2951 2850 
4 2850 2951 2952 2851 
4 2851 2952 2953 2852 
4 2852 2953 2954 2853 
4 2853 2954 2955 2854 
4 2854 2955 2956 2855 
4 2855 2956 2957 2856 
4 2856 2957 2958 2857 
4 2857 2958 2959 2858 
4 2858 2959 2960 2859 
4 2859 2960 2961 2860 
4 2860 2961 2962 2861 
4 2861 2962 2963 2862 
4 2862 2963 2964 2863 
4 2863 2964 2965 2864 
4 2864 2965 2966 2865 
4 2865 2966 2967 2866 
4 2866 2967 2968 2867 
4 2867 2968 2969 2868 
4 2868 2969 2970 2869 
4 2869 2970 2971 2870 
4 2870 2971 2972 2871 
4 2871 2972 2973 2872 
4 2872 2973 2974 2873 
4 2873 2974 2975 2874 
4 2874 2975 2976 2875 
4 2875 2976 2977 2876 
4 2876 2977 2978 2877 
4 2877 2978 2979 2878 
4 2878 2979 2980 2879 
4 2879 2980 2981 2880 
4 2880 2981 2982 2881 
4 2881 2982 2983 2882 
4 2882 2983 2984 2883 
4 2883 2984 2985 2884 
4 2884 2985 2986 2885 
4 2885 2986 2987 2886 
4 2886 2987 2988 2887 
4 2887 2988 2989 2888 
4 2888 2989 2990 2889 
4 2889 2990 2991 2890 
4 2890 2991 2992 2891 
4 2891 2992 2993 2892 
4 2892 2993 2994 2893 
4 2893 2994 2995 2894 
4 2894 2995 2996 2895 
4 2895 2996 2997 2896 
4 2896 2997 2998 2897 
4 2897 2998 2999 2898 
4 2898 2999 3000 2899 
4 2899 3000 3001 2900 
4 2900 3001 3002 2901 
4 2901 3002 3003 2902 
4 2902 3003 3004 2903 
4 2903 3004 3005 2904 
4 2904 3005 3006 2905 
4 2905 3006 3007 2906 
4 2906 3007 3008 2907 
4 2907 3008 3009 2908 
4 2908 3009 3010 2909 
4 2909 3010 3011 2910 
4 2910 3011 3012 2911 
4 2911 3012 3013 2912 
4 2912 3013 3014 2913 
4 2913 3014 3015 2914 
4 2914 3015 3016 2915 
4 2915 3016 3017 2916 
4 2916 3017 3018 2917 
4 2917 3018 3019 2918 
4 2918 3019 3020 2919 
4 2919 3020 3021 2920 
4 2920 3021 3022 2921 
4 2921 3022 3023 2922 
4 2922 3023 3024 2923 
4 2923 3024 3025 2924 
4 2924 3025 3026 2925 
4 2925 3026 3027 2926 
4 2926 3027 3028 2927 
4 2927 3028 3029 2928 
4 2929 3030 3031 2930 
4 2930 3031 3032 2931 
4 2931 3032 3033 2932 
4 2932 3033 3034 2933 
4 2933 3034 3035 2934 
4 2934 3035 3036 2935 
4 2935 3036 3037 2936 
4 2936 3037 3038 2937 
4 2937 3038 3039 2938 
4 2938 3039 3040 2939 
4 2939 3040 3041 2940 
4 2940 3041 3042 2941 
4 2941 3042 3043 2942 
4 2942 3043 3044 2943 
4 2943 3044 3045 2944 
4 2944 3045 3046 2945 
4 2945 3046 3047 2946 
4 2946 3047 3048 2947 
4 2947 3048 3049 2948 
4 2948 3049 3050 2949 
4 2949 3050 3051 2950 
4 2950 3051 3052 2951 
4 2951 3052 3053 2952 
4 2952 3053 3054 2953 
4 2953 3054 3055 2954 
4 2954 3055 3056 2955 
4 2955 3056 3057 2956 
4 2956 3057 3058 2957 
4 2957 3058 3059 2958 
4 2958 3059 3060 2959 
4 2959 3060 3061 2960 
4 2960 3061 3062 2961 
4 2961 3062 3063 2962 
4 2962 3063 3064 2963 
4 2963 3064 3065 2964 
4 2964 3065 3066 2965 
4 2965 3066 3067 2966 
4 2966 3067 3068 2967 
4 2967 3068 3069 2968 
4 2968 3069 3070 2969 
4 2969 3070 3071 2970 
4 2970 3071 3072 2971 
4 2971 3072 3073 2972 
4 2972 3073 3074 2973 
4 2973 3074 3075 2974 
4 2974 3075 3076 2975 
4 2975 3076 3077 2976 
4 2976 3077 3078 2977 
4 2977 3078 3079 2978 
4 2978 3079 3080 2979 
4 2979 3080 3081 2980 
4 2980 3081 3082 2981 
4 2981 3082 3083 2982 
4 2982 3083 3084 2983 
4 2983 3084 3085 2984 
4 2984 3085 3086 2985 
4 2985 3086 3087 2986 
4 2986 3087 3088 2987 
4 2987 3088 3089 2988 
4 2988 3089 3090 2989 
4 2989 3090 3091 2990 
4 2990 3091 3092 2991 
4 2991 3092 3093 2992 
4 2992 3093 3094 2993 
4 2993 3094 3095 2994 
4 2994 3095 3096 2995 
4 2995 3096 3097 2996 
4 2996 3097 3098 2997 
4 2997 3098 3099 2998 
4 2998 3099 3100 2999 
4 2999 3100 3101 3000 
4 3000 3101 3102 3001 
4 3001 3102 3103 3002 
4 3002 3103 3104 3003 
4 3003 3104 3105 3004 
4 3004 3105 3106 3005 
4 3005 3106 3107 3006 
4 3006 3107 3108 3007 
4 3007 3108 3109 3008 
4 3008 3109 3110 3009 
4 3009 3110 3111 3010 
4 3010 3111 3112 3011 
4 3011 3112 3113 3012 
4 3012 3113 3114 3013 
4 3013 3114 3115 3014 
4 3014 3115 3116 3015 
4 3015 3116 3117 3016 
4 3016 3117 3118 3017 
4 3017 3118 3119 3018 
4 3018 3119 3120 3019 
4 3019 3120 3121 3020 
4 3020 3121 3122 3021 
4 3021 3122 3123 3022 
4 3022 3123 3124 3023 
4 3023 3124 3125 3024 
4 3024 3125 3126 3025 
4 3025 3126 3127 3026 
4 3026 3127 3128 3027 
4 3027 3128 3129 3028 
4 3028 3129 3130 3029 
4 3030 3131 3132 3031 
4 3031 3132 3133 3032 
4 3032 3133 3134 3033 
4 3033 3134 3135 3034 
4 3034 3135 3136 3035 
4 3035 3136 3137 3036 
4 3036 3137 3138 3037 
4 3037 3138 3139 3038 
4 3038 3139 3140 3039 
4 3039 3140 3141 3040 
4 3040 3141 3142 3041 
4 3041 3142 3143 3042 
4 3042 3143 3144 3043 
4 3043 3144 3145 3044 
4 3044 3145 3146 3045 
4 3045 3146 3147 3046 
4 3046 3147 3148 3047 
4 3047 3148 3149 3048 
4 3048 3149 3150 3049 
4 3049 3150 3151 3050 
4 3050 3151 3152 3051 
4 3051 3152 3153 3052 
4 3052 3153 3154 3053 
4 3053 3154 3155 3054 
4 3054 3155 3156 3055 
4 3055 3156 3157 3056 
4 3056 3157 3158 3057 
4 3057 3158 3159 3058 
4 3058 3159 3160 3059 
4 3059 3160 3161 3060 
4 3060 3161 3162 3061 
4 3061 3162 3163 3062 
4 3062 3163 3164 3063 
4 3063 3164 3165 3064 
4 3064 3165 3166 3065 
4 3065 3166 3167 3066 
4 3066 3167 3168 3067 
4 3067 3168 3169 3068 
4 3068 3169 3170 3069 
4 3069 3170 3171 3070 
4 3070 3171 3172 3071 
4 3071 3172 3173 3072 
4 3072 3173 3174 3073 
4 3073 3174 3175 3074 
4 3074 3175 3176 3075 
4 3075 3176 3177 3076 
4 3076 3177 3178 3077 
4 3077 3178 3179 3078 
4 3078 3179 3180 3079 
4 3079 3180 3181 3080 
4 3080 3181 3182 3081 
4 3081 3182 3183 3082 
4 3082 3183 3184 3083 
4 3083 3184 3185 3084 
4 3084 3185 3186 3085 
4 3085 3186 3187 3086 
4 3086 3187 3188 3087 
4 3087 3188 3189 3088 
4 3088 3189 3190 3089 
4 3089 3190 3191 3090 
4 3090 3191 3192 3091 
4 3091 3192 3193 3092 
4 3092 3193 3194 3093 
4 3093 3194 3195 3094 
4 3094 3195 3196 3095 
4 3095 3196 3197 3096 
4 3096 3197 3198 3097 
4 3097 3198 3199 3098 
4 3098 3199 3200 3099 
4 3099 3200 3201 3100 
4 3100 3201 3202 3101 
4 3101 3202 3203 3102 
4 3102 3203 3204 3103 
4 3103 3204 3205 3104 
4 3104 3205 3206 3105 
4 3105 3206 3207 3106 
4 3106 3207 3208 3107 
4 3107 3208 3209 3108 
4 3108 3209 3210 3109 
4 3109 3210 3211 3110 
4 3110 3211 3212 3111 
4 3111 3212 3213 3112 
4 3112 3213 3214 3113 
4 3113 3214 3215 3114 
4 3114 3215 3216 3115 
4 3115 3216 3217 3116 
4 3116 3217 3218 3117 
4 3117 3218 3219 3118 
4 3118 3219 3220 3119 
4 3119 3220 3221 3120 
4 3120 3221 3222 3121 
4 3121 3222 3223 3122 
4 3122 3223 3224 3123 
4 3123 3224 3225 3124 
4 3124 3225 3226 3125 
4 3125 3226 3227 3126 
4 3126 3227 3228 3127 
4 3127 3228 3229 3128 
4 3128 3229 3230 3129 
4 3129 3230 3231 3130 
4 3131 3232 3233 3132 
4 3132 3233 3234 3133 
4 3133 3234 3235 3134 
4 3134 3235 3236 3135 
4 3135 3236 3237 3136 
4 3136 3237 3238 3137 
4 3137 3238 3239 3138 
4 3138 3239 3240 3139 
4 3139 3240 3241 3140 
4 3140 3241 3242 3141 
4 3141 3242 3243 3142 
4 3142 3243 3244 3143 
4 3143 3244 3245 3144 
4 3144 3245 3246 3145 
4 3145 3246 3247 3146 
4 3146 3247 3248 3147 
4 3147 3248 3249 3148 
4 3148 3249 3250 3149 
4 3149 3250 3251 3150 
4 3150 3251 3252 3151 
4 3151 3252 3253 3152 
4 3152 3253 3254 3153 
4 3153 3254 3255 3154 
4 3154 3255 3256 3155 
4 3155 3256 3257 3156 
4 3156 3257 3258 3157 
4 3157 3258 3259 3158 
4 3158 3259 3260 3159 
4 3159 3260 3261 3160 
4 3160 3261 3262 3161 
4 3161 3262 3263 3162 
4 3162 3263 3264 3163 
4 3163 3264 3265 3164 
4 3164 3265 3266 3165 
4 3165 3266 3267 3166 
4 3166 3267 3268 3167 
4 3167 3268 3269 3168 
4 3168 3269 3270 3169 
4 3169 3270 3271 3170 
4 3170 3271 3272 3171 
4 3171 3272 3273 3172 
4 3172 3273 3274 3173 
4 3173 3274 3275 3174 
4 3174 3275 3276 3175 
4 3175 3276 3277 3176 
4 3176 3277 3278 3177 
4 3177 3278 3279 3178 
4 3178 3279 3280 3179 
4 3179 3280 3281 3180 
4 3180 3281 3282 3181 
4 3181 3282 3283 3182 
4 3182 3283 3284 3183 
4 3183 3284 3285 3184 
4 3184 3285 3286 3185 
4 3185 3286 3287 3186 
4 3186 3287 3288 3187 
4 3187 3288 3289 3188 
4 3188 3289 3290 3189 
4 3189 3290 3291 3190 
4 3190 3291 3292 3191 
4 3191 3292 3293 3192 
4 3192 3293 3294 3193 
4 3193 3294 3295 3194 
4 3194 3295 3296 3195 
4 3195 3296 3297 3196 
4 3196 3297 3298 3197 
4 3197 3298 3299 3198 
4 3198 3299 3300 3199 
4 3199 3300 3301 3200 
4 3200 3301 3302 3201 
4 3201 3302 3303 3202 
4 3202 3303 3304 3203 
4 3203 3304 3305 3204 
4 3204 3305 3306 3205 
4 3205 3306 3307 3206 
4 3206 3307 3308 3207 
4 3207 3308 3309 3208 
4 3208 3309 3310 3209 
4 3209 3310 3311 3210 
4 3210 3311 3312 3211 
4 3211 3312 3313 3212 
4 3212 3313 3314 3213 
4 3213 3314 3315 3214 
4 3214 3315 3316 3215 
4 3215 3316 3317 3216 
4 3216 3317 3318 3217 
4 3217 3318 3319 3218 
4 3218 3319 3320 3219 
4 3219 3320 3321 3220 
4 3220 3321 3322 3221 
4 3221 3322 3323 3222 
4 3222 3323 3324 3223 
4 3223 3324 3325 3224 
4 3224 3325 3326 3225 
4 3225 3326 3327 3226 
4 3226 3327 3328 3227 
4 3227 3328 3329 3228 
4 3228 3329 3330 3229 
4 3229 3330 3331 3230 
4 3230 3331 3332 3231 
4 3232 3333 3334 3233 
4 3233 3334 3335 3234 
4 3234 3335 3336 3235 
4 3235 3336 3337 3236 
4 3236 3337 3338 3237 
4 3237 3338 3339 3238 
4 3238 3339 3340 3239 
4 3239 3340 3341 3240 
4 3240 3341 3342 3241 
4 3241 3342 3343 3242 
4 3242 3343 3344 3243 
4 3243 3344 3345 3244 
4 3244 3345 3346 3245 
4 3245 3346 3347 3246 
4 3246 3347 3348 3247 
4 3247 3348 3349 3248 
4 3248 3349 3350 3249 
4 3249 3350 3351 3250 
4 3250 3351 3352 3251 
4 3251 3352 3353 3252 
4 3252 3353 3354 3253 
4 3253 3354 3355 3254 
4 3254 3355 3356 3255 
4 3255 3356 3357 3256 
4 3256 3357 3358 3257 
4 3257 3358 3359 3258 
4 3258 3359 3360 3259 
4 3259 3360 3361 3260 
4 3260 3361 3362 3261 
4 3261 3362 3363 3262 
4 3262 3363 3364 3263 
4 3263 3364 3365 3264 
4 3264 3365 3366 3265 
4 3265 3366 3367 3266 
4 3266 3367 3368 3267 
4 3267 3368 3369 3268 
4 3268 3369 3370 3269 
4 3269 3370 3371 3270 
4 3270 3371 3372 3271 
4 3271 3372 3373 3272 
4 3272 3373 3374 3273 
4 3273 3374 3375 3274 
4 3274 3375 3376 3275 
4 3275 3376 3377 3276 
4 3276 3377 3378 3277 
4 3277 3378 3379 3278 
4 3278 3379 3380 3279 
4 3279 3380 3381 3280 
4 3280 3381 3382 3281 
4 3281 3382 3383 3282 
4 3282 3383 3384 3283 
4 3283 3384 3385 3284 
4 3284 3385 3386 3285 
4 3285 3386 3387 3286 
4 3286 3387 3388 3287 
4 3287 3388 3389 3288 
4 3288 3389 3390 3289 
4 3289 3390 3391 3290 
4 3290 3391 3392 3291 
4 3291 3392 3393 3292 
4 3292 3393 3394 3293 
4 3293 3394 3395 3294 
4 3294 3395 3396 3295 
4 3295 3396 3397 3296 
4 3296 3397 3398 3297 
4 3297 3398 3399 3298 
4 3298 3399 3400 3299 
4 3299 3400 3401 3300 
4 3300 3401 3402 3301 
4 3301 3402 3403 3302 
4 3302 3403 3404 3303 
4 3303 3404 3405 3304 
4 3304 3405 3406 3305 
4 3305 3406 3407 3306 
4 3306 3407 3408 3307 
4 3307 3408 3409 3308 
4 3308 3409 3410 3309 
4 3309 3410 3411 3310 
4 3310 3411 3412 3311 
4 3311 3412 3413 3312 
4 3312 3413 3414 3313 
4 3313 3414 3415 3314 
4 3314 3415 3416 3315 
4 3315 3416 3417 3316 
4 3316 3417 3418 3317 
4 3317 3418 3419 3318 
4 3318 3419 3420 3319 
4 3319 3420 3421 3320 
4 3320 3421 3422 3321 
4 3321 3422 3423 3322 
4 3322 3423 3424 3323 
4 3323 3424 3425 3324 
4 3324 3425 3426 3325 
4 3325 3426 3427 3326 
4 3326 3427 3428 3327 
4 3327 3428 3429 3328 
4 3328 3429 3430 3329 
4 3329 3430 3431 3330 
4 3330 3431 3432 3331 
4 3331 3432 3433 3332 
4 3333 3434 3435 3334 
4 3334 3435 3436 3335 
4 3335 3436 3437 3336 
4 3336 3437 3438 3337 
4 3337 3438 3439 3338 
4 3338 3439 3440 3339 
4 3339 3440 3441 3340 
4 3340 3441 3442 3341 
4 3341 3442 3443 3342 
4 3342 3443 3444 3343 
4 3343 3444 3445 3344 
4 3344 3445 3446 3345 
4 3345 3446 3447 3346 
4 3346 3447 3448 3347 
4 3347 3448 3449 3348 
4 3348 3449 3450 3349 
4 3349 3450 3451 3350 
4 3350 3451 3452 3351 
4 3351 3452 3453 3352 
4 3352 3453 3454 3353 
4 3353 3454 3455 3354 
4 3354 3455 3456 3355 
4 3355 3456 3457 3356 
4 3356 3457 3458 3357 
4 3357 3458 3459 3358 
4 3358 3459 3460 3359 
4 3359 3460 3461 3360 
4 3360 3461 3462 3361 
4 3361 3462 3463 3362 
4 3362 3463 3464 3363 
4 3363 3464 3465 3364 
4 3364 3465 3466 3365 
4 3365 3466 3467 3366 
4 3366 3467 3468 3367 
4 3367 3468 3469 3368 
4 3368 3469 3470 3369 
4 3369 3470 3471 3370 
4 3370 3471 3472 3371 
4 3371 3472 3473 3372 
4 3372 3473 3474 3373 
4 3373 3474 3475 3374 
4 3374 3475 3476 3375 
4 3375 3476 3477 3376 
4 3376 3477 3478 3377 
4 3377 3478 3479 3378 
4 3378 3479 3480 3379 
4 3379 3480 3481 3380 
4 3380 3481 3482 3381 
4 3381 3482 3483 3382 
4 3382 3483 3484 3383 
4 3383 3484 3485 3384 
4 3384 3485 3486 3385 
4 3385 3486 3487 3386 
4 3386 3487 3488 3387 
4 3387 3488 3489 3388 
4 3388 3489 3490 3389 
4 3389 3490 3491 3390 
4 3390 3491 3492 3391 
4 3391 3492 3493 3392 
4 3392 3493 3494 3393 
4 3393 3494 3495 3394 
4 3394 3495 3496 3395 
4 3395 3496 3497 3396 
4 3396 3497 3498 3397 
4 3397 3498 3499 3398 
4 3398 3499 3500 3399 
4 3399 3500 3501 3400 
4 3400 3501 3502 3401 
4 3401 3502 3503 3402 
4 3402 3503 3504 3403 
4 3403 3504 3505 3404 
4 3404 3505 3506 3405 
4 3405 3506 3507 3406 
4 3406 3507 3508 3407 
4 3407 3508 3509 3408 
4 3408 3509 3510 3409 
4 3409 3510 3511 3410 
4 3410 3511 3512 3411 
4 3411 3512 3513 3412 
4 3412 3513 3514 3413 
4 3413 3514 3515 3414 
4 3414 3515 3516 3415 
4 3415 3516 3517 3416 
4 3416 3517 3518 3417 
4 3417 3518 3519 3418 
4 3418 3519 3520 3419 
4 3419 3520 3521 3420 
4 3420 3521 3522 3421 
4 3421 3522 3523 3422 
4 3422 3523 3524 3423 
4 3423 3524 3525 3424 
4 3424 3525 3526 3425 
4 3425 3526 3527 3426 
4 3426 3527 3528 3427 
4 3427 3528 3529 3428 
4 3428 3529 3530 3429 
4 3429 3530 3531 3430 
4 3430 3531 3532 3431 
4 3431 3532 3533 3432 
4 3432 3533 3534 3433 
4 3434 3535 3536 3435 
4 3435 3536 3537 3436 
4 3436 3537 3538 3437 
4 3437 3538 3539 3438 
4 3438 3539 3540 3439 
4 3439 3540 3541 3440 
4 3440 3541 3542 3441 
4 3441 3542 3543 3442 
4 3442 3543 3544 3443 
4 3443 3544 3545 3444 
4 3444 3545 3546 3445 
4 3445 3546 3547 3446 
4 3446 3547 3548 3447 
4 3447 3548 3549 3448 
4 3448 3549 3550 3449 
4 3449 3550 3551 3450 
4 3450 3551 3552 3451 
4 3451 3552 3553 3452 
4 3452 3553 3554 3453 
4 3453 3554 3555 3454 
4 3454 3555 3556 3455 
4 3455 3556 3557 3456 
4 3456 3557 3558 3457 
4 3457 3558 3559 3458 
4 3458 3559 3560 3459 
4 3459 3560 3561 3460 
4 3460 3561 3562 3461 
4 3461 3562 3563 3462 
4 3462 3563 3564 3463 
4 3463 3564 3565 3464 
4 3464 3565 3566 3465 
4 3465 3566 3567 3466 
4 3466 3567 3568 3467 
4 3467 3568 3569 3468 
4 3468 3569 3570 3469 
4 3469 3570 3571 3470 
4 3470 3571 3572 3471 
4 3471 3572 3573 3472 
4 3472 3573 3574 3473 
4 3473 3574 3575 3474 
4 3474 3575 3576 3475 
4 3475 3576 3577 3476 
4 3476 3577 3578 3477 
4 3477 3578 3579 3478 
4 3478 3579 3580 3479 
4 3479 3580 3581 3480 
4 3480 3581 3582 3481 
4 3481 3582 3583 3482 
4 3482 3583 3584 3483 
4 3483 3584 3585 3484 
4 3484 3585 3586 3485 
4 3485 3586 3587 3486 
4 3486 3587 3588 3487 
4 3487 3588 3589 3488 
4 3488 3589 3590 3489 
4 3489 3590 3591 3490 
4 3490 3591 3592 3491 
4 3491 3592 3593 3492 
4 3492 3593 3594 3493 
4 3493 3594 3595 3494 
4 3494 3595 3596 3495 
4 3495 3596 3597 3496 
4 3496 3597 3598 3497 
4 3497 3598 3599 3498 
4 3498 3599 3600 3499 
4 3499 3600 3601 3500 
4 3500 3601 3602 3501 
4 3501 3602 3603 3502 
4 3502 3603 3604 3503 
4 3503 3604 3605 3504 
4 3504 3605 3606 3505 
4 3505 3606 3607 3506 
4 3506 3607 3608 3507 
4 3507 3608 3609 3508 
4 3508 3609 3610 3509 
4 3509 3610 3611 3510 
4 3510 3611 3612 3511 
4 3511 3612 3613 3512 
4 3512 3613 3614 3513 
4 3513 3614 3615 3514 
4 3514 3615 3616 3515 
4 3515 3616 3617 3516 
4 3516 3617 3618 3517 
4 3517 3618 3619 3518 
4 3518 3619 3620 3519 
4 3519 3620 3621 3520 
4 3520 3621 3622 3521 
4 3521 3622 3623 3522 
4 3522 3623 3624 3523 
4 3523 3624 3625 3524 
4 3524 3625 3626 3525 
4 3525 3626 3627 3526 
4 3526 3627 3628 3527 
4 3527 3628 3629 3528 
4 3528 3629 3630 3529 
4 3529 3630 3631 3530 
4 3530 3631 3632 3531 
4 3531 3632 3633 3532 
4 3532 3633 3634 3533 
4 3533 3634 3635 3534 
4 3535 3636 3637 3536 
4 3536 3637 3638 3537 
4 3537 3638 3639 3538 
4 3538 3639 3640 3539 
4 3539 3640 3641 3540 
4 3540 3641 3642 3541 
4 3541 3642 3643 3542 
4 3542 3643 3644 3543 
4 3543 3644 3645 3544 
4 3544 3645 3646 3545 
4 3545 3646 3647 3546 
4 3546 3647 3648 3547 
4 3547 3648 3649 3548 
4 3548 3649 3650 3549 
4 3549 3650 3651 3550 
4 3550 3651 3652 3551 
4 3551 3652 3653 3552 
4 3552 3653 3654 3553 
4 3553 3654 3655 3554 
4 3554 3655 3656 3555 
4 3555 3656 3657 3556 
4 3556 3657 3658 3557 
4 3557 3658 3659 3558 
4 3558 3659 3660 3559 
4 3559 3660 3661 3560 
4 3560 3661 3662 3561 
4 3561 3662 3663 3562 
4 3562 3663 3664 3563 
4 3563 3664 3665 3564 
4 3564 3665 3666 3565 
4 3565 3666 3667 3566 
4 3566 3667 3668 3567 
4 3567 3668 3669 3568 
4 3568 3669 3670 3569 
4 3569 3670 3671 3570 
4 3570 3671 3672 3571 
4 3571 3672 3673 3572 
4 3572 3673 3674 3573 
4 3573 3674 3675 3574 
4 3574 3675 3676 3575 
4 3575 3676 3677 3576 
4 3576 3677 3678 3577 
4 3577 3678 3679 3578 
4 3578 3679 3680 3579 
4 3579 3680 3681 3580 
4 3580 3681 3682 3581 
4 3581 3682 3683 3582 
4 3582 3683 3684 3583 
4 3583 3684 3685 3584 
4 3584 3685 3686 3585 
4 3585 3686 3687 3586 
4 3586 3687 3688 3587 
4 3587 3688 3689 3588 
4 3588 3689 3690 3589 
4 3589 3690 3691 3590 
4 3590 3691 3692 3591 
4 3591 3692 3693 3592 
4 3592 3693 3694 3593 
4 3593 3694 3695 3594 
4 3594 3695 3696 3595 
4 3595 3696 3697 3596 
4 3596 3697 3698 3597 
4 3597 3698 3699 3598 
4 3598 3699 3700 3599 
4 3599 3700 3701 3600 
4 3600 3701 3702 3601 
4 3601 3702 3703 3602 
4 3602 3703 3704 3603 
4 3603 3704 3705 3604 
4 3604 3705 3706 3605 
4 3605 3706 3707 3606 
4 3606 3707 3708 3607 
4 3607 3708 3709 3608 
4 3608 3709 3710 3609 
4 3609 3710 3711 3610 
4 3610 3711 3712 3611 
4 3611 3712 3713 3612 
4 3612 3713 3714 3613 
4 3613 3714 3715 3614 
4 3614 3715 3716 3615 
4 3615 3716 3717 3616 
4 3616 3717 3718 3617 
4 3617 3718 3719 3618 
4 3618 3719 3720 3619 
4 3619 3720 3721 3620 
4 3620 3721 3722 3621 
4 3621 3722 3723 3622 
4 3622 3723 3724 3623 
4 3623 3724 3725 3624 
4 3624 3725 3726 3625 
4 3625 3726 3727 3626 
4 3626 3727 3728 3627 
4 3627 3728 3729 3628 
4 3628 3729 3730 3629 
4 3629 3730 3731 3630 
4 3630 3731 3732 3631 
4 3631 3732 3733 3632 
4 3632 3733 3734 3633 
4 3633 3734 3735 3634 
4 3634 3735 3736 3635 
4 3636 3737 3738 3637 
4 3637 3738 3739 3638 
4 3638 3739 3740 3639 
4 3639 3740 3741 3640 
4 3640 3741 3742 3641 
4 3641 3742 3743 3642 
4 3642 3743 3744 3643 
4 3643 3744 3745 3644 
4 3644 3745 3746 3645 
4 3645 3746 3747 3646 
4 3646 3747 3748 3647 
4 3647 3748 3749 3648 
4 3648 3749 3750 3649 
4 3649 3750 3751 3650 
4 3650 3751 3752 3651 
4 3651 3752 3753 3652 
4 3652 3753 3754 3653 
4 3653 3754 3755 3654 
4 3654 3755 3756 3655 
4 3655 3756 3757 3656 
4 3656 3757 3758 3657 
4 3657 3758 3759 3658 
4 3658 3759 3760 3659 
4 3659 3760 3761 3660 
4 3660 3761 3762 3661 
4 3661 3762 3763 3662 
4 3662 3763 3764 3663 
4 3663 3764 3765 3664 
4 3664 3765 3766 3665 
4 3665 3766 3767 3666 
4 3666 3767 3768 3667 
4 3667 3768 3769 3668 
4 3668 3769 3770 3669 
4 3669 3770 3771 3670 
4 3670 3771 3772 3671 
4 3671 3772 3773 3672 
4 3672 3773 3774 3673 
4 3673 3774 3775 3674 
4 3674 3775 3776 3675 
4 3675 3776 3777 3676 
4 3676 3777 3778 3677 
4 3677 3778 3779 3678 
4 3678 3779 3780 3679 
4 3679 3780 3781 3680 
4 3680 3781 3782 3681 
4 3681 3782 3783 3682 
4 3682 3783 3784 3683 
4 3683 3784 3785 3684 
4 3684 3785 3786 3685 
4 3685 3786 3787 3686 
4 3686 3787 3788 3687 
4 3687 3788 3789 3688 
4 3688 3789 3790 3689 
4 3689 3790 3791 3690 
4 3690 3791 3792 3691 
4 3691 3792 3793 3692 
4 3692 3793 3794 3693 
4 3693 3794 3795 3694 
4 3694 3795 3796 3695 
4 3695 3796 3797 3696 
4 3696 3797 3798 3697 
4 3697 3798 3799 3698 
4 3698 3799 3800 3699 
4 3699 3800 3801 3700 
4 3700 3801 3802 3701 
4 3701 3802 3803 3702 
4 3702 3803 3804 3703 
4 3703 3804 3805 3704 
4 3704 3805 3806 3705 
4 3705 3806 3807 3706 
4 3706 3807 3808 3707 
4 3707 3808 3809 3708 
4 3708 3809 3810 3709 
4 3709 3810 3811 3710 
4 3710 3811 3812 3711 
4 3711 3812 3813 3712 
4 3712 3813 3814 3713 
4 3713 3814 3815 3714 
4 3714 3815 3816 3715 
4 3715 3816 3817 3716 
4 3716 3817 3818 3717 
4 3717 3818 3819 3718 
4 3718 3819 3820 3719 
4 3719 3820 3821 3720 
4 3720 3821 3822 3721 
4 3721 3822 3823 3722 
4 3722 3823 3824 3723 
4 3723 3824 3825 3724 
4 3724 3825 3826 3725 
4 3725 3826 3827 3726 
4 3726 3827 3828 3727 
4 3727 3828 3829 3728 
4 3728 3829 3830 3729 
4 3729 3830 3831 3730 
4 3730 3831 3832 3731 
4 3731 3832 3833 3732 
4 3732 3833 3834 3733 
4 3733 3834 3835 3734 
4 3734 3835 3836 3735 
4 3735 3836 3837 3736 
4 3737 3838 3839 3738 
4 3738 3839 3840 3739 
4 3739 3840 3841 3740 
4 3740 3841 3842 3741 
4 3741 3842 3843 3742 
4 3742 3843 3844 3743 
4 3743 3844 3845 3744 
4 3744 3845 3846 3745 
4 3745 3846 3847 3746 
4 3746 3847 3848 3747 
4 3747 3848 3849 3748 
4 3748 3849 3850 3749 
4 3749 3850 3851 3750 
4 3750 3851 3852 3751 
4 3751 3852 3853 3752 
4 3752 3853 3854 3753 
4 3753 3854 3855 3754 
4 3754 3855 3856 3755 
4 3755 3856 3857 3756 
4 3756 3857 3858 3757 
4 3757 3858 3859 3758 
4 3758 3859 3860 3759 
4 3759 3860 3861 3760 
4 3760 3861 3862 3761 
4 3761 3862 3863 3762 
4 3762 3863 3864 3763 
4 3763 3864 3865 3764 
4 3764 3865 3866 3765 
4 3765 3866 3867 3766 
4 3766 3867 3868 3767 
4 3767 3868 3869 3768 
4 3768 3869 3870 3769 
4 3769 3870 3871 3770 
4 3770 3871 3872 3771 
4 3771 3872 3873 3772 
4 3772 3873 3874 3773 
4 3773 3874 3875 3774 
4 3774 3875 3876 3775 
4 3775 3876 3877 3776 
4 3776 3877 3878 3777 
4 3777 3878 3879 3778 
4 3778 3879 3880 3779 
4 3779 3880 3881 3780 
4 3780 3881 3882 3781 
4 3781 3882 3883 3782 
4 3782 3883 3884 3783 
4 3783 3884 3885 3784 
4 3784 3885 3886 3785 
4 3785 3886 3887 3786 
4 3786 3887 3888 3787 
4 3787 3888 3889 3788 
4 3788 3889 3890 3789 
4 3789 3890 3891 3790 
4 3790 3891 3892 3791 
4 3791 3892 3893 3792 
4 3792 3893 3894 3793 
4 3793 3894 3895 3794 
4 3794 3895 3896 3795 
4 3795 3896 3897 3796 
4 3796 3897 3898 3797 
4 3797 3898 3899 3798 
4 3798 3899 3900 3799 
4 3799 3900 3901 3800 
4 3800 3901 3902 3801 
4 3801 3902 3903 3802 
4 3802 3903 3904 3803 
4 3803 3904 3905 3804 
4 3804 3905 3906 3805 
4 3805 3906 3907 3806 
4 3806 3907 3908 3807 
4 3807 3908 3909 3808 
4 3808 3909 3910 3809 
4 3809 3910 3911 3810 
4 3810 3911 3912 3811 
4 3811 3912 3913 3812 
4 3812 3913 3914 3813 
4 3813 3914 3915 3814 
4 3814 3915 3916 3815 
4 3815 3916 3917 3816 
4 3816 3917 3918 3817 
4 3817 3918 3919 3818 
4 3818 3919 3920 3819 
4 3819 3920 3921 3820 
4 3820 3921 3922 3821 
4 3821 3922 3923 3822 
4 3822 3923 3924 3823 
4 3823 3924 3925 3824 
4 3824 3925 3926 3825 
4 3825 3926 3927 3826 
4 3826 3927 3928 3827 
4 3827 3928 3929 3828 
4 3828 3929 3930 3829 
4 3829 3930 3931 3830 
4 3830 3931 3932 3831 
4 3831 3932 3933 3832 
4 3832 3933 3934 3833 
4 3833 3934 3935 3834 
4 3834 3935 3936 3835 
4 3835 3936 3937 3836 
4 3836 3937 3938 3837 
4 3838 3939 3940 3839 
4 3839 3940 3941 3840 
4 3840 3941 3942 3841 
4 3841 3942 3943 3842 
4 3842 3943 3944 3843 
4 3843 3944 3945 3844 
4 3844 3945 3946 3845 
4 3845 3946 3947 3846 
4 3846 3947 3948 3847 
4 3847 3948 3949 3848 
4 3848 3949 3950 3849 
4 3849 3950 3951 3850 
4 3850 3951 3952 3851 
4 3851 3952 3953 3852 
4 3852 3953 3954 3853 
4 3853 3954 3955 3854 
4 3854 3955 3956 3855 
4 3855 3956 3957 3856 
4 3856 3957 3958 3857 
4 3857 3958 3959 3858 
4 3858 3959 3960 3859 
4 3859 3960 3961 3860 
4 3860 3961 3962 3861 
4 3861 3962 3963 3862 
4 3862 3963 3964 3863 
4 3863 3964 3965 3864 
4 3864 3965 3966 3865 
4 3865 3966 3967 3866 
4 3866 3967 3968 3867 
4 3867 3968 3969 3868 
4 3868 3969 3970 3869 
4 3869 3970 3971 3870 
4 3870 3971 3972 3871 
4 3871 3972 3973 3872 
4 3872 3973 3974 3873 
4 3873 3974 3975 3874 
4 3874 3975 3976 3875 
4 3875 3976 3977 3876 
4 3876 3977 3978 3877 
4 3877 3978 3979 3878 
4 3878 3979 3980 3879 
4 3879 3980 3981 3880 
4 3880 3981 3982 3881 
4 3881 3982 3983 3882 
4 3882 3983 3984 3883 
4 3883 3984 3985 3884 
4 3884 3985 3986 3885 
4 3885 3986 3987 3886 
4 3886 3987 3988 3887 
4 3887 3988 3989 3888 
4 3888 3989 3990 3889 
4 3889 3990 3991 3890 
4 3890 3991 3992 3891 
4 3891 3992 3993 3892 
4 3892 3993 3994 3893 
4 3893 3994 3995 3894 
4 3894 3995 3996 3895 
4 3895 3996 3997 3896 
4 3896 3997 3998 3897 
4 3897 3998 3999 3898 
4 3898 3999 4000 3899 
4 3899 4000 4001 3900 
4 3900 4001 4002 3901 
4 3901 4002 4003 3902 
4 3902 4003 4004 3903 
4 3903 4004 4005 3904 
4 3904 4005 4006 3905 
4 3905 4006 4007 3906 
4 3906 4007 4008 3907 
4 3907 4008 4009 3908 
4 3908 4009 4010 3909 
4 3909 4010 4011 3910 
4 3910 4011 4012 3911 
4 3911 4012 4013 3912 
4 3912 4013 4014 3913 
4 3913 4014 4015 3914 
4 3914 4015 4016 3915 
4 3915 4016 4017 3916 
4 3916 4017 4018 3917 
4 3917 4018 4019 3918 
4 3918 4019 4020 3919 
4 3919 4020 4021 3920 
4 3920 4021 4022 3921 
4 3921 4022 4023 3922 
4 3922 4023 4024 3923 
4 3923 4024 4025 3924 
4 3924 4025 4026 3925 
4 3925 4026 4027 3926 
4 3926 4027 4028 3927 
4 3927 4028 4029 3928 
4 3928 4029 4030 3929 
4 3929 4030 4031 3930 
4 3930 4031 4032 3931 
4 3931 4032 4033 3932 
4 3932 4033 4034 3933 
4 3933 4034 4035 3934 
4 3934 4035 4036 3935 
4 3935 4036 4037 3936 
4 3936 4037 4038 3937 
4 3937 4038 4039 3938 
4 3939 4040 4041 3940 
4 3940 4041 4042 3941 
4 3941 4042 4043 3942 
4 3942 4043 4044 3943 
4 3943 4044 4045 3944 
4 3944 4045 4046 3945 
4 3945 4046 4047 3946 
4 3946 4047 4048 3947 
4 3947 4048 4049 3948 
4 3948 4049 4050 3949 
4 3949 4050 4051 3950 
4 3950 4051 4052 3951 
4 3951 4052 4053 3952 
4 3952 4053 4054 3953 
4 3953 4054 4055 3954 
4 3954 4055 4056 3955 
4 3955 4056 4057 3956 
4 3956 4057 4058 3957 
4 3957 4058 4059 3958 
4 3958 4059 4060 3959 
4 3959 4060 4061 3960 
4 3960 4061 4062 3961 
4 3961 4062 4063 3962 
4 3962 4063 4064 3963 
4 3963 4064 4065 3964 
4 3964 4065 4066 3965 
4 3965 4066 4067 3966 
4 3966 4067 4068 3967 
4 3967 4068 4069 3968 
4 3968 4069 4070 3969 
4 3969 4070 4071 3970 
4 3970 4071 4072 3971 
4 3971 4072 4073 3972 
4 3972 4073 4074 3973 
4 3973 4074 4075 3974 
4 3974 4075 4076 3975 
4 3975 4076 4077 3976 
4 3976 4077 4078 3977 
4 3977 4078 4079 3978 
4 3978 4079 4080 3979 
4 3979 4080 4081 3980 
4 3980 4081 4082 3981 
4 3981 4082 4083 3982 
4 3982 4083 4084 3983 
4 3983 4084 4085 3984 
4 3984 4085 4086 3985 
4 3985 4086 4087 3986 
4 3986 4087 4088 3987 
4 3987 4088 4089 3988 
4 3988 4089 4090 3989 
4 3989 4090 4091 3990 
4 3990 4091 4092 3991 
4 3991 4092 4093 3992 
4 3992 4093 4094 3993 
4 3993 4094 4095 3994 
4 3994 4095 4096 3995 
4 3995 4096 4097 3996 
4 3996 4097 4098 3997 
4 3997 4098 4099 3998 
4 3998 4099 4100 3999 
4 3999 4100 4101 4000 
4 4000 4101 4102 4001 
4 4001 4102 4103 4002 
4 4002 4103 4104 4003 
4 4003 4104 4105 4004 
4 4004 4105 4106 4005 
4 4005 4106 4107 4006 
4 4006 4107 4108 4007 
4 4007 4108 4109 4008 
4 4008 4109 4110 4009 
4 4009 4110 4111 4010 
4 4010 4111 4112 4011 
4 4011 4112 4113 4012 
4 4012 4113 4114 4013 
4 4013 4114 4115 4014 
4 4014 4115 4116 4015 
4 4015 4116 4117 4016 
4 4016 4117 4118 4017 
4 4017 4118 4119 4018 
4 4018 4119 4120 4019 
4 4019 4120 4121 4020 
4 4020 4121 4122 4021 
4 4021 4122 4123 4022 
4 4022 4123 4124 4023 
4 4023 4124 4125 4024 
4 4024 4125 4126 4025 
4 4025 4126 4127 4026 
4 4026 4127 4128 4027 
4 4027 4128 4129 4028 
4 4028 4129 4130 4029 
4 4029 4130 4131 4030 
4 4030 4131 4132 4031 
4 4031 4132 4133 4032 
4 4032 4133 4134 4033 
4 4033 4134 4135 4034 
4 4034 4135 4136 4035 
4 4035 4136 4137 4036 
4 4036 4137 4138 4037 
4 4037 4138 4139 4038 
4 4038 4139 4140 4039 
4 4040 4141 4142 4041 
4 4041 4142 4143 4042 
4 4042 4143 4144 4043 
4 4043 4144 4145 4044 
4 4044 4145 4146 4045 
4 4045 4146 4147 4046 
4 4046 4147 4148 4047 
4 4047 4148 4149 4048 
4 4048 4149 4150 4049 
4 4049 4150 4151 4050 
4 4050 4151 4152 4051 
4 4051 4152 4153 4052 
4 4052 4153 4154 4053 
4 4053 4154 4155 4054 
4 4054 4155 4156 4055 
4 4055 4156 4157 4056 
4 4056 4157 4158 4057 
4 4057 4158 4159 4058 
4 4058 4159 4160 4059 
4 4059 4160 4161 4060 
4 4060 4161 4162 4061 
4 4061 4162 4163 4062 
4 4062 4163 4164 4063 
4 4063 4164 4165 4064 
4 4064 4165 4166 4065 
4 4065 4166 4167 4066 
4 4066 4167 4168 4067 
4 4067 4168 4169 4068 
4 4068 4169 4170 4069 
4 4069 4170 4171 4070 
4 4070 4171 4172 4071 
4 4071 4172 4173 4072 
4 4072 4173 4174 4073 
4 4073 4174 4175 4074 
4 4074 4175 4176 4075 
4 4075 4176 4177 4076 
4 4076 4177 4178 4077 
4 4077 4178 4179 4078 
4 4078 4179 4180 4079 
4 4079 4180 4181 4080 
4 4141 4182 4183 4142 
4 4142 4183 4184 4143 
4 4143 4184 4185 4144 
4 4144 4185 4186 4145 
4 4145 4186 4187 4146 
4 4146 4187 4188 4147 
4 4147 4188 4189 4148 
4 4148 4189 4190 4149 
4 4149 4190 4191 4150 
4 4150 4191 4192 4151 
4 4151 4192 4193 4152 
4 4152 4193 4194 4153 
4 4153 4194 4195 4154 
4 4154 4195 4196 4155 
4 4155 4196 4197 4156 
4 4156 4197 4198 4157 
4 4157 4198 4199 4158 
4 4158 4199 4200 4159 
4 4159 4200 4201 4160 
4 4160 4201 4202 4161 
4 4161 4202 4203 4162 
4 4162 4203 4204 4163 
4 4163 4204 4205 4164 
4 4164 4205 4206 4165 
4 4165 4206 4207 4166 
4 4166 4207 4208 4167 
4 4167 4208 4209 4168 
4 4168 4209 4210 4169 
4 4169 4210 4211 4170 
4 4170 4211 4212 4171 
4 4171 4212 4213 4172 
4 4172 4213 4214 4173 
4 4173 4214 4215 4174 
4 4174 4215 4216 4175 
4 4175 4216 4217 4176 
4 4176 4217 4218 4177 
4 4177 4218 4219 4178 
4 4178 4219 4220 4179 
4 4179 4220 4221 4180 
4 4180 4221 4222 4181 
4 4182 4223 4224 4183 
4 4183 4224 4225 4184 
4 4184 4225 4226 4185 
4 4185 4226 4227 4186 
4 4186 4227 4228 4187 
4 4187 4228 4229 4188 
4 4188 4229 4230 4189 
4 4189 4230 4231 4190 
4 4190 4231 4232 4191 
4 4191 4232 4233 4192 
4 4192 4233 4234 4193 
4 4193 4234 4235 4194 
4 4194 4235 4236 4195 
4 4195 4236 4237 4196 
4 4196 4237 4238 4197 
4 4197 4238 4239 4198 
4 4198 4239 4240 4199 
4 4199 4240 4241 4200 
4 4200 4241 4242 4201 
4 4201 4242 4243 4202 
4 4202 4243 4244 4203 
4 4203 4244 4245 4204 
4 4204 4245 4246 4205 
4 4205 4246 4247 4206 
4 4206 4247 4248 4207 
4 4207 4248 4249 4208 
4 4208 4249 4250 4209 
4 4209 4250 4251 4210 
4 4210 4251 4252 4211 
4 4211 4252 4253 4212 
4 4212 4253 4254 4213 
4 4213 4254 4255 4214 
4 4214 4255 4256 4215 
4 4215 4256 4257 4216 
4 4216 4257 4258 4217 
4 4217 4258 4259 4218 
4 4218 4259 4260 4219 
4 4219 4260 4261 4220 
4 4220 4261 4262 4221 
4 4221 4262 4263 4222 
4 4223 4264 4265 4224 
4 4224 4265 4266 4225 
4 4225 4266 4267 4226 
4 4226 4267 4268 4227 
4 4227 4268 4269 4228 
4 4228 4269 4270 4229 
4 4229 4270 4271 4230 
4 4230 4271 4272 4231 
4 4231 4272 4273 4232 
4 4232 4273 4274 4233 
4 4233 4274 4275 4234 
4 4234 4275 4276 4235 
4 4235 4276 4277 4236 
4 4236 4277 4278 4237 
4 4237 4278 4279 4238 
4 4238 4279 4280 4239 
4 4239 4280 4281 4240 
4 4240 4281 4282 4241 
4 4241 4282 4283 4242 
4 4242 4283 4284 4243 
4 4243 4284 4285 4244 
4 4244 4285 4286 4245 
4 4245 4286 4287 4246 
4 4246 4287 4288 4247 
4 4247 4288 4289 4248 
4 4248 4289 4290 4249 
4 4249 4290 4291 4250 
4 4250 4291 4292 4251 
4 4251 4292 4293 4252 
4 4252 4293 4294 4253 
4 4253 4294 4295 4254 
4 4254 4295 4296 4255 
4 4255 4296 4297 4256 
4 4256 4297 4298 4257 
4 4257 4298 4299 4258 
4 4258 4299 4300 4259 
4 4259 4300 4301 4260 
4 4260 4301 4302 4261 
4 4261 4302 4303 4262 
4 4262 4303 4304 4263 
4 4264 4305 4306 4265 
4 4265 4306 4307 4266 
4 4266 4307 4308 4267 
4 4267 4308 4309 4268 
4 4268 4309 4310 4269 
4 4269 4310 4311 4270 
4 4270 4311 4312 4271 
4 4271 4312 4313 4272 
4 4272 4313 4314 4273 
4 4273 4314 4315 4274 
4 4274 4315 4316 4275 
4 4275 4316 4317 4276 
4 4276 4317 4318 4277 
4 4277 4318 4319 4278 
4 4278 4319 4320 4279 
4 4279 4320 4321 4280 
4 4280 4321 4322 4281 
4 4281 4322 4323 4282 
4 4282 4323 4324 4283 
4 4283 4324 4325 4284 
4 4284 4325 4326 4285 
4 4285 4326 4327 4286 
4 4286 4327 4328 4287 
4 4287 4328 4329 4288 
4 4288 4329 4330 4289 
4 4289 4330 4331 4290 
4 4290 4331 4332 4291 
4 4291 4332 4333 4292 
4 4292 4333 4334 4293 
4 4293 4334 4335 4294 
4 4294 4335 4336 4295 
4 4295 4336 4337 4296 
4 4296 4337 4338 4297 
4 4297 4338 4339 4298 
4 4298 4339 4340 4299 
4 4299 4340 4341 4300 
4 4300 4341 4342 4301 
4 4301 4342 4343 4302 
4 4302 4343 4344 4303 
4 4303 4344 4345 4304 
4 4305 4346 4347 4306 
4 4306 4347 4348 4307 
4 4307 4348 4349 4308 
4 4308 4349 4350 4309 
4 4309 4350 4351 4310 
4 4310 4351 4352 4311 
4 4311 4352 4353 4312 
4 4312 4353 4354 4313 
4 4313 4354 4355 4314 
4 4314 4355 4356 4315 
4 4315 4356 4357 4316 
4 4316 4357 4358 4317 
4 4317 4358 4359 4318 
4 4318 4359 4360 4319 
4 4319 4360 4361 4320 
4 4320 4361 4362 4321 
4 4321 4362 4363 4322 
4 4322 4363 4364 4323 
4 4323 4364 4365 4324 
4 4324 4365 4366 4325 
4 4325 4366 4367 4326 
4 4326 4367 4368 4327 
4 4327 4368 4369 4328 
4 4328 4369 4370 4329 
4 4329 4370 4371 4330 
4 4330 4371 4372 4331 
4 4331 4372 4373 4332 
4 4332 4373 4374 4333 
4 4333 4374 4375 4334 
4 4334 4375 4376 4335 
4 4335 4376 4377 4336 
4 4336 4377 4378 4337 
4 4337 4378 4379 4338 
4 4338 4379 4380 4339 
4 4339 4380 4381 4340 
4 4340 4381 4382 4341 
4 4341 4382 4383 4342 
4 4342 4383 4384 4343 
4 4343 4384 4385 4344 
4 4344 4385 4386 4345 
4 4346 4387 4388 4347 
4 4347 4388 4389 4348 
4 4348 4389 4390 4349 
4 4349 4390 4391 4350 
4 4350 4391 4392 4351 
4 4351 4392 4393 4352 
4 4352 4393 4394 4353 
4 4353 4394 4395 4354 
4 4354 4395 4396 4355 
4 4355 4396 4397 4356 
4 4356 4397 4398 4357 
4 4357 4398 4399 4358 
4 4358 4399 4400 4359 
4 4359 4400 4401 4360 
4 4360 4401 4402 4361 
4 4361 4402 4403 4362 
4 4362 4403 4404 4363 
4 4363 4404 4405 4364 
4 4364 4405 4406 4365 
4 4365 4406 4407 4366 
4 4366 4407 4408 4367 
4 4367 4408 4409 4368 
4 4368 4409 4410 4369 
4 4369 4410 4411 4370 
4 4370 4411 4412 4371 
4 4371 4412 4413 4372 
4 4372 4413 4414 4373 
4 4373 4414 4415 4374 
4 4374 4415 4416 4375 
4 4375 4416 4417 4376 
4 4376 4417 4418 4377 
4 4377 4418 4419 4378 
4 4378 4419 4420 4379 
4 4379 4420 4421 4380 
4 4380 4421 4422 4381 
4 4381 4422 4423 4382 
4 4382 4423 4424 4383 
4 4383 4424 4425 4384 
4 4384 4425 4426 4385 
4 4385 4426 4427 4386 
4 4387 4428 4429 4388 
4 4388 4429 4430 4389 
4 4389 4430 4431 4390 
4 4390 4431 4432 4391 
4 4391 4432 4433 4392 
4 4392 4433 4434 4393 
4 4393 4434 4435 4394 
4 4394 4435 4436 4395 
4 4395 4436 4437 4396 
4 4396 4437 4438 4397 
4 4397 4438 4439 4398 
4 4398 4439 4440 4399 
4 4399 4440 4441 4400 
4 4400 4441 4442 4401 
4 4401 4442 4443 4402 
4 4402 4443 4444 4403 
4 4403 4444 4445 4404 
4 4404 4445 4446 4405 
4 4405 4446 4447 4406 
4 4406 4447 4448 4407 
4 4407 4448 4449 4408 
4 4408 4449 4450 4409 
4 4409 4450 4451 4410 
4 4410 4451 4452 4411 
4 4411 4452 4453 4412 
4 4412 4453 4454 4413 
4 4413 4454 4455 4414 
4 4414 4455 4456 4415 
4 4415 4456 4457 4416 
4 4416 4457 4458 4417 
4 4417 4458 4459 4418 
4 4418 4459 4460 4419 
4 4419 4460 4461 4420 
4 4420 4461 4462 4421 
4 4421 4462 4463 4422 
4 4422 4463 4464 4423 
4 4423 4464 4465 4424 
4 4424 4465 4466 4425 
4 4425 4466 4467 4426 
4 4426 4467 4468 4427 
4 4428 4469 4470 4429 
4 4429 4470 4471 4430 
4 4430 4471 4472 4431 
4 4431 4472 4473 4432 
4 4432 4473 4474 4433 
4 4433 4474 4475 4434 
4 4434 4475 4476 4435 
4 4435 4476 4477 4436 
4 4436 4477 4478 4437 
4 4437 4478 4479 4438 
4 4438 4479 4480 4439 
4 4439 4480 4481 4440 
4 4440 4481 4482 4441 
4 4441 4482 4483 4442 
4 4442 4483 4484 4443 
4 4443 4484 4485 4444 
4 4444 4485 4486 4445 
4 4445 4486 4487 4446 
4 4446 4487 4488 4447 
4 4447 4488 4489 4448 
4 4448 4489 4490 4449 
4 4449 4490 4491 4450 
4 4450 4491 4492 4451 
4 4451 4492 4493 4452 
4 4452 4493 4494 4453 
4 4453 4494 4495 4454 
4 4454 4495 4496 4455 
4 4455 4496 4497 4456 
4 4456 4497 4498 4457 
4 4457 4498 4499 4458 
4 4458 4499 4500 4459 
4 4459 4500 4501 4460 
4 4460 4501 4502 4461 
4 4461 4502 4503 4462 
4 4462 4503 4504 4463 
4 4463 4504 4505 4464 
4 4464 4505 4506 4465 
4 4465 4506 4507 4466 
4 4466 4507 4508 4467 
4 4467 4508 4509 4468 
4 4469 4510 4511 4470 
4 4470 4511 4512 4471 
4 4471 4512 4513 4472 
4 4472 4513 4514 4473 
4 4473 4514 4515 4474 
4 4474 4515 4516 4475 
4 4475 4516 4517 4476 
4 4476 4517 4518 4477 
4 4477 4518 4519 4478 
4 4478 4519 4520 4479 
4 4479 4520 4521 4480 
4 4480 4521 4522 4481 
4 4481 4522 4523 4482 
4 4482 4523 4524 4483 
4 4483 4524 4525 4484 
4 4484 4525 4526 4485 
4 4485 4526 4527 4486 
4 4486 4527 4528 4487 
4 4487 4528 4529 4488 
4 4488 4529 4530 4489 
4 4489 4530 4531 4490 
4 4490 4531 4532 4491 
4 4491 4532 4533 4492 
4 4492 4533 4534 4493 
4 4493 4534 4535 4494 
4 4494 4535 4536 4495 
4 4495 4536 4537 4496 
4 4496 4537 4538 4497 
4 4497 4538 4539 4498 
4 4498 4539 4540 4499 
4 4499 4540 4541 4500 
4 4500 4541 4542 4501 
4 4501 4542 4543 4502 
4 4502 4543 4544 4503 
4 4503 4544 4545 4504 
4 4504 4545 4546 4505 
4 4505 4546 4547 4506 
4 4506 4547 4548 4507 
4 4507 4548 4549 4508 
4 4508 4549 4550 4509 
4 4510 4551 4552 4511 
4 4511 4552 4553 4512 
4 4512 4553 4554 4513 
4 4513 4554 4555 4514 
4 4514 4555 4556 4515 
4 4515 4556 4557 4516 
4 4516 4557 4558 4517 
4 4517 4558 4559 4518 
4 4518 4559 4560 4519 
4 4519 4560 4561 4520 
4 4520 4561 4562 4521 
4 4521 4562 4563 4522 
4 4522 4563 4564 4523 
4 4523 4564 4565 4524 
4 4524 4565 4566 4525 
4 4525 4566 4567 4526 
4 4526 4567 4568 4527 
4 4527 4568 4569 4528 
4 4528 4569 4570 4529 
4 4529 4570 4571 4530 
4 4530 4571 4572 4531 
4 4531 4572 4573 4532 
4 4532 4573 4574 4533 
4 4533 4574 4575 4534 
4 4534 4575 4576 4535 
4 4535 4576 4577 4536 
4 4536 4577 4578 4537 
4 4537 4578 4579 4538 
4 4538 4579 4580 4539 
4 4539 4580 4581 4540 
4 4540 4581 4582 4541 
4 4541 4582 4583 4542 
4 4542 4583 4584 4543 
4 4543 4584 4585 4544 
4 4544 4585 4586 4545 
4 4545 4586 4587 4546 
4 4546 4587 4588 4547 
4 4547 4588 4589 4548 
4 4548 4589 4590 4549 
4 4549 4590 4591 4550 
4 4551 4592 4593 4552 
4 4552 4593 4594 4553 
4 4553 4594 4595 4554 
4 4554 4595 4596 4555 
4 4555 4596 4597 4556 
4 4556 4597 4598 4557 
4 4557 4598 4599 4558 
4 4558 4599 4600 4559 
4 4559 4600 4601 4560 
4 4560 4601 4602 4561 
4 4561 4602 4603 4562 
4 4562 4603 4604 4563 
4 4563 4604 4605 4564 
4 4564 4605 4606 4565 
4 4565 4606 4607 4566 
4 4566 4607 4608 4567 
4 4567 4608 4609 4568 
4 4568 4609 4610 4569 
4 4569 4610 4611 4570 
4 4570 4611 4612 4571 
4 4571 4612 4613 4572 
4 4572 4613 4614 4573 
4 4573 4614 4615 4574 
4 4574 4615 4616 4575 
4 4575 4616 4617 4576 
4 4576 4617 4618 4577 
4 4577 4618 4619 4578 
4 4578 4619 4620 4579 
4 4579 4620 4621 4580 
4 4580 4621 4622 4581 
4 4581 4622 4623 4582 
4 4582 4623 4624 4583 
4 4583 4624 4625 4584 
4 4584 4625 4626 4585 
4 4585 4626 4627 4586 
4 4586 4627 4628 4587 
4 4587 4628 4629 4588 
4 4588 4629 4630 4589 
4 4589 4630 4631 4590 
4 4590 4631 4632 4591 
4 4592 4633 4634 4593 
4 4593 4634 4635 4594 
4 4594 4635 4636 4595 
4 4595 4636 4637 4596 
4 4596 4637 4638 4597 
4 4597 4638 4639 4598 
4 4598 4639 4640 4599 
4 4599 4640 4641 4600 
4 4600 4641 4642 4601 
4 4601 4642 4643 4602 
4 4602 4643 4644 4603 
4 4603 4644 4645 4604 
4 4604 4645 4646 4605 
4 4605 4646 4647 4606 
4 4606 4647 4648 4607 
4 4607 4648 4649 4608 
4 4608 4649 4650 4609 
4 4609 4650 4651 4610 
4 4610 4651 4652 4611 
4 4611 4652 4653 4612 
4 4612 4653 4654 4613 
4 4613 4654 4655 4614 
4 4614 4655 4656 4615 
4 4615 4656 4657 4616 
4 4616 4657 4658 4617 
4 4617 4658 4659 4618 
4 4618 4659 4660 4619 
4 4619 4660 4661 4620 
4 4620 4661 4662 4621 
4 4621 4662 4663 4622 
4 4622 4663 4664 4623 
4 4623 4664 4665 4624 
4 4624 4665 4666 4625 
4 4625 4666 4667 4626 
4 4626 4667 4668 4627 
4 4627 4668 4669 4628 
4 4628 4669 4670 4629 
4 4629 4670 4671 4630 
4 4630 4671 4672 4631 
4 4631 4672 4673 4632 
4 4633 4674 4675 4634 
4 4634 4675 4676 4635 
4 4635 4676 4677 4636 
4 4636 4677 4678 4637 
4 4637 4678 4679 4638 
4 4638 4679 4680 4639 
4 4639 4680 4681 4640 
4 4640 4681 4682 4641 
4 4641 4682 4683 4642 
4 4642 4683 4684 4643 
4 4643 4684 4685 4644 
4 4644 4685 4686 4645 
4 4645 4686 4687 4646 
4 4646 4687 4688 4647 
4 4647 4688 4689 4648 
4 4648 4689 4690 4649 
4 4649 4690 4691 4650 
4 4650 4691 4692 4651 
4 4651 4692 4693 4652 
4 4652 4693 4694 4653 
4 4653 4694 4695 4654 
4 4654 4695 4696 4655 
4 4655 4696 4697 4656 
4 4656 4697 4698 4657 
4 4657 4698 4699 4658 
4 4658 4699 4700 4659 
4 4659 4700 4701 4660 
4 4660 4701 4702 4661 
4 4661 4702 4703 4662 
4 4662 4703 4704 4663 
4 4663 4704 4705 4664 
4 4664 4705 4706 4665 
4 4665 4706 4707 4666 
4 4666 4707 4708 4667 
4 4667 4708 4709 4668 
4 4668 4709 4710 4669 
4 4669 4710 4711 4670 
4 4670 4711 4712 4671 
4 4671 4712 4713 4672 
4 4672 4713 4714 4673 
4 4674 4715 4716 4675 
4 4675 4716 4717 4676 
4 4676 4717 4718 4677 
4 4677 4718 4719 4678 
4 4678 4719 4720 4679 
4 4679 4720 4721 4680 
4 4680 4721 4722 4681 
4 4681 4722 4723 4682 
4 4682 4723 4724 4683 
4 4683 4724 4725 4684 
4 4684 4725 4726 4685 
4 4685 4726 4727 4686 
4 4686 4727 4728 4687 
4 4687 4728 4729 4688 
4 4688 4729 4730 4689 
4 4689 4730 4731 4690 
4 4690 4731 4732 4691 
4 4691 4732 4733 4692 
4 4692 4733 4734 4693 
4 4693 4734 4735 4694 
4 4694 4735 4736 4695 
4 4695 4736 4737 4696 
4 4696 4737 4738 4697 
4 4697 4738 4739 4698 
4 4698 4739 4740 4699 
4 4699 4740 4741 4700 
4 4700 4741 4742 4701 
4 4701 4742 4743 4702 
4 4702 4743 4744 4703 
4 4703 4744 4745 4704 
4 4704 4745 4746 4705 
4 4705 4746 4747 4706 
4 4706 4747 4748 4707 
4 4707 4748 4749 4708 
4 4708 4749 4750 4709 
4 4709 4750 4751 4710 
4 4710 4751 4752 4711 
4 4711 4752 4753 4712 
4 4712 4753 4754 4713 
4 4713 4754 4755 4714 
4 4715 4756 4757 4716 
4 4716 4757 4758 4717 
4 4717 4758 4759 4718 
4 4718 4759 4760 4719 
4 4719 4760 4761 4720 
4 4720 4761 4762 4721 
4 4721 4762 4763 4722 
4 4722 4763 4764 4723 
4 4723 4764 4765 4724 
4 4724 4765 4766 4725 
4 4725 4766 4767 4726 
4 4726 4767 4768 4727 
4 4727 4768 4769 4728 
4 4728 4769 4770 4729 
4 4729 4770 4771 4730 
4 4730 4771 4772 4731 
4 4731 4772 4773 4732 
4 4732 4773 4774 4733 
4 4733 4774 4775 4734 
4 4734 4775 4776 4735 
4 4735 4776 4777 4736 
4 4736 4777 4778 4737 
4 4737 4778 4779 4738 
4 4738 4779 4780 4739 
4 4739 4780 4781 4740 
4 4740 4781 4782 4741 
4 4741 4782 4783 4742 
4 4742 4783 4784 4743 
4 4743 4784 4785 4744 
4 4744 4785 4786 4745 
4 4745 4786 4787 4746 
4 4746 4787 4788 4747 
4 4747 4788 4789 4748 
4 4748 4789 4790 4749 
4 4749 4790 4791 4750 
4 4750 4791 4792 4751 
4 4751 4792 4793 4752 
4 4752 4793 4794 4753 
4 4753 4794 4795 4754 
4 4754 4795 4796 4755 
4 4756 4797 4798 4757 
4 4757 4798 4799 4758 
4 4758 4799 4800 4759 
4 4759 4800 4801 4760 
4 4760 4801 4802 4761 
4 4761 4802 4803 4762 
4 4762 4803 4804 4763 
4 4763 4804 4805 4764 
4 4764 4805 4806 4765 
4 4765 4806 4807 4766 
4 4766 4807 4808 4767 
4 4767 4808 4809 4768 
4 4768 4809 4810 4769 
4 4769 4810 4811 4770 
4 4770 4811 4812 4771 
4 4771 4812 4813 4772 
4 4772 4813 4814 4773 
4 4773 4814 4815 4774 
4 4774 4815 4816 4775 
4 4775 4816 4817 4776 
4 4776 4817 4818 4777 
4 4777 4818 4819 4778 
4 4778 4819 4820 4779 
4 4779 4820 4821 4780 
4 4780 4821 4822 4781 
4 4781 4822 4823 4782 
4 4782 4823 4824 4783 
4 4783 4824 4825 4784 
4 4784 4825 4826 4785 
4 4785 4826 4827 4786 
4 4786 4827 4828 4787 
4 4787 4828 4829 4788 
4 4788 4829 4830 4789 
4 4789 4830 4831 4790 
4 4790 4831 4832 4791 
4 4791 4832 4833 4792 
4 4792 4833 4834 4793 
4 4793 4834 4835 4794 
4 4794 4835 4836 4795 
4 4795 4836 4837 4796 
4 4797 4838 4839 4798 
4 4798 4839 4840 4799 
4 4799 4840 4841 4800 
4 4800 4841 4842 4801 
4 4801 4842 4843 4802 
4 4802 4843 4844 4803 
4 4803 4844 4845 4804 
4 4804 4845 4846 4805 
4 4805 4846 4847 4806 
4 4806 4847 4848 4807 
4 4807 4848 4849 4808 
4 4808 4849 4850 4809 
4 4809 4850 4851 4810 
4 4810 4851 4852 4811 
4 4811 4852 4853 4812 
4 4812 4853 4854 4813 
4 4813 4854 4855 4814 
4 4814 4855 4856 4815 
4 4815 4856 4857 4816 
4 4816 4857 4858 4817 
4 4817 4858 4859 4818 
4 4818 4859 4860 4819 
4 4819 4860 4861 4820 
4 4820 4861 4862 4821 
4 4821 4862 4863 4822 
4 4822 4863 4864 4823 
4 4823 4864 4865 4824 
4 4824 4865 4866 4825 
4 4825 4866 4867 4826 
4 4826 4867 4868 4827 
4 4827 4868 4869 4828 
4 4828 4869 4870 4829 
4 4829 4870 4871 4830 
4 4830 4871 4872 4831 
4 4831 4872 4873 4832 
4 4832 4873 4874 4833 
4 4833 4874 4875 4834 
4 4834 4875 4876 4835 
4 4835 4876 4877 4836 
4 4836 4877 4878 4837 
4 4838 4879 4880 4839 
4 4839 4880 4881 4840 
4 4840 4881 4882 4841 
4 4841 4882 4883 4842 
4 4842 4883 4884 4843 
4 4843 4884 4885 4844 
4 4844 4885 4886 4845 
4 4845 4886 4887 4846 
4 4846 4887 4888 4847 
4 4847 4888 4889 4848 
4 4848 4889 4890 4849 
4 4849 4890 4891 4850 
4 4850 4891 4892 4851 
4 4851 4892 4893 4852 
4 4852 4893 4894 4853 
4 4853 4894 4895 4854 
4 4854 4895 4896 4855 
4 4855 4896 4897 4856 
4 4856 4897 4898 4857 
4 4857 4898 4899 4858 
4 4858 4899 4900 4859 
4 4859 4900 4901 4860 
4 4860 4901 4902 4861 
4 4861 4902 4903 4862 
4 4862 4903 4904 4863 
4 4863 4904 4905 4864 
4 4864 4905 4906 4865 
4 4865 4906 4907 4866 
4 4866 4907 4908 4867 
4 4867 4908 4909 4868 
4 4868 4909 4910 4869 
4 4869 4910 4911 4870 
4 4870 4911 4912 4871 
4 4871 4912 4913 4872 
4 4872 4913 4914 4873 
4 4873 4914 4915 4874 
4 4874 4915 4916 4875 
4 4875 4916 4917 4876 
4 4876 4917 4918 4877 
4 4877 4918 4919 4878 
4 4879 4920 4921 4880 
4 4880 4921 4922 4881 
4 4881 4922 4923 4882 
4 4882 4923 4924 4883 
4 4883 4924 4925 4884 
4 4884 4925 4926 4885 
4 4885 4926 4927 4886 
4 4886 4927 4928 4887 
4 4887 4928 4929 4888 
4 4888 4929 4930 4889 
4 4889 4930 4931 4890 
4 4890 4931 4932 4891 
4 4891 4932 4933 4892 
4 4892 4933 4934 4893 
4 4893 4934 4935 4894 
4 4894 4935 4936 4895 
4 4895 4936 4937 4896 
4 4896 4937 4938 4897 
4 4897 4938 4939 4898 
4 4898 4939 4940 4899 
4 4899 4940 4941 4900 
4 4900 4941 4942 4901 
4 4901 4942 4943 4902 
4 4902 4943 4944 4903 
4 4903 4944 4945 4904 
4 4904 4945 4946 4905 
4 4905 4946 4947 4906 
4 4906 4947 4948 4907 
4 4907 4948 4949 4908 
4 4908 4949 4950 4909 
4 4909 4950 4951 4910 
4 4910 4951 4952 4911 
4 4911 4952 4953 4912 
4 4912 4953 4954 4913 
4 4913 4954 4955 4914 
4 4914 4955 4956 4915 
4 4915 4956 4957 4916 
4 4916 4957 4958 4917 
4 4917 4958 4959 4918 
4 4918 4959 4960 4919 
4 4920 4961 4962 4921 
4 4921 4962 4963 4922 
4 4922 4963 4964 4923 
4 4923 4964 4965 4924 
4 4924 4965 4966 4925 
4 4925 4966 4967 4926 
4 4926 4967 4968 4927 
4 4927 4968 4969 4928 
4 4928 4969 4970 4929 
4 4929 4970 4971 4930 
4 4930 4971 4972 4931 
4 4931 4972 4973 4932 
4 4932 4973 4974 4933 
4 4933 4974 4975 4934 
4 4934 4975 4976 4935 
4 4935 4976 4977 4936 
4 4936 4977 4978 4937 
4 4937 4978 4979 4938 
4 4938 4979 4980 4939 
4 4939 4980 4981 4940 
4 4940 4981 4982 4941 
4 4941 4982 4983 4942 
4 4942 4983 4984 4943 
4 4943 4984 4985 4944 
4 4944 4985 4986 4945 
4 4945 4986 4987 4946 
4 4946 4987 4988 4947 
4 4947 4988 4989 4948 
4 4948 4989 4990 4949 
4 4949 4990 4991 4950 
4 4950 4991 4992 4951 
4 4951 4992 4993 4952 
4 4952 4993 4994 4953 
4 4953 4994 4995 4954 
4 4954 4995 4996 4955 
4 4955 4996 4997 4956 
4 4956 4997 4998 4957 
4 4957 4998 4999 4958 
4 4958 4999 5000 4959 
4 4959 5000 5001 4960 
4 4961 5002 5003 4962 
4 4962 5003 5004 4963 
4 4963 5004 5005 4964 
4 4964 5005 5006 4965 
4 4965 5006 5007 4966 
4 4966 5007 5008 4967 
4 4967 5008 5009 4968 
4 4968 5009 5010 4969 
4 4969 5010 5011 4970 
4 4970 5011 5012 4971 
4 4971 5012 5013 4972 
4 4972 5013 5014 4973 
4 4973 5014 5015 4974 
4 4974 5015 5016 4975 
4 4975 5016 5017 4976 
4 4976 5017 5018 4977 
4 4977 5018 5019 4978 
4 4978 5019 5020 4979 
4 4979 5020 5021 4980 
4 4980 5021 5022 4981 
4 4981 5022 5023 4982 
4 4982 5023 5024 4983 
4 4983 5024 5025 4984 
4 4984 5025 5026 4985 
4 4985 5026 5027 4986 
4 4986 5027 5028 4987 
4 4987 5028 5029 4988 
4 4988 5029 5030 4989 
4 4989 5030 5031 4990 
4 4990 5031 5032 4991 
4 4991 5032 5033 4992 
4 4992 5033 5034 4993 
4 4993 5034 5035 4994 
4 4994 5035 5036 4995 
4 4995 5036 5037 4996 
4 4996 5037 5038 4997 
4 4997 5038 5039 4998 
4 4998 5039 5040 4999 
4 4999 5040 5041 5000 
4 5000 5041 5042 5001 
4 5002 5043 5044 5003 
4 5003 5044 5045 5004 
4 5004 5045 5046 5005 
4 5005 5046 5047 5006 
4 5006 5047 5048 5007 
4 5007 5048 5049 5008 
4 5008 5049 5050 5009 
4 5009 5050 5051 5010 
4 5010 5051 5052 5011 
4 5011 5052 5053 5012 
4 5012 5053 5054 5013 
4 5013 5054 5055 5014 
4 5014 5055 5056 5015 
4 5015 5056 5057 5016 
4 5016 5057 5058 5017 
4 5017 5058 5059 5018 
4 5018 5059 5060 5019 
4 5019 5060 5061 5020 
4 5020 5061 5062 5021 
4 5021 5062 5063 5022 
4 5022 5063 5064 5023 
4 5023 5064 5065 5024 
4 5024 5065 5066 5025 
4 5025 5066 5067 5026 
4 5026 5067 5068 5027 
4 5027 5068 5069 5028 
4 5028 5069 5070 5029 
4 5029 5070 5071 5030 
4 5030 5071 5072 5031 
4 5031 5072 5073 5032 
4 5032 5073 5074 5033 
4 5033 5074 5075 5034 
4 5034 5075 5076 5035 
4 5035 5076 5077 5036 
4 5036 5077 5078 5037 
4 5037 5078 5079 5038 
4 5038 5079 5080 5039 
4 5039 5080 5081 5040 
4 5040 5081 5082 5041 
4 5041 5082 5083 5042 
4 5043 5084 5085 5044 
4 5044 5085 5086 5045 
4 5045 5086 5087 5046 
4 5046 5087 5088 5047 
4 5047 5088 5089 5048 
4 5048 5089 5090 5049 
4 5049 5090 5091 5050 
4 5050 5091 5092 5051 
4 5051 5092 5093 5052 
4 5052 5093 5094 5053 
4 5053 5094 5095 5054 
4 5054 5095 5096 5055 
4 5055 5096 5097 5056 
4 5056 5097 5098 5057 
4 5057 5098 5099 5058 
4 5058 5099 5100 5059 
4 5059 5100 5101 5060 
4 5060 5101 5102 5061 
4 5061 5102 5103 5062 
4 5062 5103 5104 5063 
4 5063 5104 5105 5064 
4 5064 5105 5106 5065 
4 5065 5106 5107 5066 
4 5066 5107 5108 5067 
4 5067 5108 5109 5068 
4 5068 5109 5110 5069 
4 5069 5110 5111 5070 
4 5070 5111 5112 5071 
4 5071 5112 5113 5072 
4 5072 5113 5114 5073 
4 5073 5114 5115 5074 
4 5074 5115 5116 5075 
4 5075 5116 5117 5076 
4 5076 5117 5118 5077 
4 5077 5118 5119 5078 
4 5078 5119 5120 5079 
4 5079 5120 5121 5080 
4 5080 5121 5122 5081 
4 5081 5122 5123 5082 
4 5082 5123 5124 5083 
4 5084 5125 5126 5085 
4 5085 5126 5127 5086 
4 5086 5127 5128 5087 
4 5087 5128 5129 5088 
4 5088 5129 5130 5089 
4 5089 5130 5131 5090 
4 5090 5131 5132 5091 
4 5091 5132 5133 5092 
4 5092 5133 5134 5093 
4 5093 5134 5135 5094 
4 5094 5135 5136 5095 
4 5095 5136 5137 5096 
4 5096 5137 5138 5097 
4 5097 5138 5139 5098 
4 5098 5139 5140 5099 
4 5099 5140 5141 5100 
4 5100 5141 5142 5101 
4 5101 5142 5143 5102 
4 5102 5143 5144 5103 
4 5103 5144 5145 5104 
4 5104 5145 5146 5105 
4 5105 5146 5147 5106 
4 5106 5147 5148 5107 
4 5107 5148 5149 5108 
4 5108 5149 5150 5109 
4 5109 5150 5151 5110 
4 5110 5151 5152 5111 
4 5111 5152 5153 5112 
4 5112 5153 5154 5113 
4 5113 5154 5155 5114 
4 5114 5155 5156 5115 
4 5115 5156 5157 5116 
4 5116 5157 5158 5117 
4 5117 5158 5159 5118 
4 5118 5159 5160 5119 
4 5119 5160 5161 5120 
4 5120 5161 5162 5121 
4 5121 5162 5163 5122 
4 5122 5163 5164 5123 
4 5123 5164 5165 5124 
4 5125 5166 5167 5126 
4 5126 5167 5168 5127 
4 5127 5168 5169 5128 
4 5128 5169 5170 5129 
4 5129 5170 5171 5130 
4 5130 5171 5172 5131 
4 5131 5172 5173 5132 
4 5132 5173 5174 5133 
4 5133 5174 5175 5134 
4 5134 5175 5176 5135 
4 5135 5176 5177 5136 
4 5136 5177 5178 5137 
4 5137 5178 5179 5138 
4 5138 5179 5180 5139 
4 5139 5180 5181 5140 
4 5140 5181 5182 5141 
4 5141 5182 5183 5142 
4 5142 5183 5184 5143 
4 5143 5184 5185 5144 
4 5144 5185 5186 5145 
4 5145 5186 5187 5146 
4 5146 5187 5188 5147 
4 5147 5188 5189 5148 
4 5148 5189 5190 5149 
4 5149 5190 5191 5150 
4 5150 5191 5192 5151 
4 5151 5192 5193 5152 
4 5152 5193 5194 5153 
4 5153 5194 5195 5154 
4 5154 5195 5196 5155 
4 5155 5196 5197 5156 
4 5156 5197 5198 5157 
4 5157 5198 5199 5158 
4 5158 5199 5200 5159 
4 5159 5200 5201 5160 
4 5160 5201 5202 5161 
4 5161 5202 5203 5162 
4 5162 5203 5204 5163 
4 5163 5204 5205 5164 
4 5164 5205 5206 5165 
4 5166 5207 5208 5167 
4 5167 5208 5209 5168 
4 5168 5209 5210 5169 
4 5169 5210 5211 5170 
4 5170 5211 5212 5171 
4 5171 5212 5213 5172 
4 5172 5213 5214 5173 
4 5173 5214 5215 5174 
4 5174 5215 5216 5175 
4 5175 5216 5217 5176 
4 5176 5217 5218 5177 
4 5177 5218 5219 5178 
4 5178 5219 5220 5179 
4 5179 5220 5221 5180 
4 5180 5221 5222 5181 
4 5181 5222 5223 5182 
4 5182 5223 5224 5183 
4 5183 5224 5225 5184 
4 5184 5225 5226 5185 
4 5185 5226 5227 5186 
4 5186 5227 5228 5187 
4 5187 5228 5229 5188 
4 5188 5229 5230 5189 
4 5189 5230 5231 5190 
4 5190 5231 5232 5191 
4 5191 5232 5233 5192 
4 5192 5233 5234 5193 
4 5193 5234 5235 5194 
4 5194 5235 5236 5195 
4 5195 5236 5237 5196 
4 5196 5237 5238 5197 
4 5197 5238 5239 5198 
4 5198 5239 5240 5199 
4 5199 5240 5241 5200 
4 5200 5241 5242 5201 
4 5201 5242 5243 5202 
4 5202 5243 5244 5203 
4 5203 5244 5245 5204 
4 5204 5245 5246 5205 
4 5205 5246 5247 5206 
4 5207 5248 5249 5208 
4 5208 5249 5250 5209 
4 5209 5250 5251 5210 
4 5210 5251 5252 5211 
4 5211 5252 5253 5212 
4 5212 5253 5254 5213 
4 5213 5254 5255 5214 
4 5214 5255 5256 5215 
4 5215 5256 5257 5216 
4 5216 5257 5258 5217 
4 5217 5258 5259 5218 
4 5218 5259 5260 5219 
4 5219 5260 5261 5220 
4 5220 5261 5262 5221 
4 5221 5262 5263 5222 
4 5222 5263 5264 5223 
4 5223 5264 5265 5224 
4 5224 5265 5266 5225 
4 5225 5266 5267 5226 
4 5226 5267 5268 5227 
4 5227 5268 5269 5228 
4 5228 5269 5270 5229 
4 5229 5270 5271 5230 
4 5230 5271 5272 5231 
4 5231 5272 5273 5232 
4 5232 5273 5274 5233 
4 5233 5274 5275 5234 
4 5234 5275 5276 5235 
4 5235 5276 5277 5236 
4 5236 5277 5278 5237 
4 5237 5278 5279 5238 
4 5238 5279 5280 5239 
4 5239 5280 5281 5240 
4 5240 5281 5282 5241 
4 5241 5282 5283 5242 
4 5242 5283 5284 5243 
4 5243 5284 5285 5244 
4 5244 5285 5286 5245 
4 5245 5286 5287 5246 
4 5246 5287 5288 5247 
4 5248 5289 5290 5249 
4 5249 5290 5291 5250 
4 5250 5291 5292 5251 
4 5251 5292 5293 5252 
4 5252 5293 5294 5253 
4 5253 5294 5295 5254 
4 5254 5295 5296 5255 
4 5255 5296 5297 5256 
4 5256 5297 5298 5257 
4 5257 5298 5299 5258 
4 5258 5299 5300 5259 
4 5259 5300 5301 5260 
4 5260 5301 5302 5261 
4 5261 5302 5303 5262 
4 5262 5303 5304 5263 
4 5263 5304 5305 5264 
4 5264 5305 5306 5265 
4 5265 5306 5307 5266 
4 5266 5307 5308 5267 
4 5267 5308 5309 5268 
4 5268 5309 5310 5269 
4 5269 5310 5311 5270 
4 5270 5311 5312 5271 
4 5271 5312 5313 5272 
4 5272 5313 5314 5273 
4 5273 5314 5315 5274 
4 5274 5315 5316 5275 
4 5275 5316 5317 5276 
4 5276 5317 5318 5277 
4 5277 5318 5319 5278 
4 5278 5319 5320 5279 
4 5279 5320 5321 5280 
4 5280 5321 5322 5281 
4 5281 5322 5323 5282 
4 5282 5323 5324 5283 
4 5283 5324 5325 5284 
4 5284 5325 5326 5285 
4 5285 5326 5327 5286 
4 5286 5327 5328 5287 
4 5287 5328 5329 5288 
4 5289 5330 5331 5290 
4 5290 5331 5332 5291 
4 5291 5332 5333 5292 
4 5292 5333 5334 5293 
4 5293 5334 5335 5294 
4 5294 5335 5336 5295 
4 5295 5336 5337 5296 
4 5296 5337 5338 5297 
4 5297 5338 5339 5298 
4 5298 5339 5340 5299 
4 5299 5340 5341 5300 
4 5300 5341 5342 5301 
4 5301 5342 5343 5302 
4 5302 5343 5344 5303 
4 5303 5344 5345 5304 
4 5304 5345 5346 5305 
4 5305 5346 5347 5306 
4 5306 5347 5348 5307 
4 5307 5348 5349 5308 
4 5308 5349 5350 5309 
4 5309 5350 5351 5310 
4 5310 5351 5352 5311 
4 5311 5352 5353 5312 
4 5312 5353 5354 5313 
4 5313 5354 5355 5314 
4 5314 5355 5356 5315 
4 5315 5356 5357 5316 
4 5316 5357 5358 5317 
4 5317 5358 5359 5318 
4 5318 5359 5360 5319 
4 5319 5360 5361 5320 
4 5320 5361 5362 5321 
4 5321 5362 5363 5322 
4 5322 5363 5364 5323 
4 5323 5364 5365 5324 
4 5324 5365 5366 5325 
4 5325 5366 5367 5326 
4 5326 5367 5368 5327 
4 5327 5368 5369 5328 
4 5328 5369 5370 5329 
4 5330 5371 5372 5331 
4 5331 5372 5373 5332 
4 5332 5373 5374 5333 
4 5333 5374 5375 5334 
4 5334 5375 5376 5335 
4 5335 5376 5377 5336 
4 5336 5377 5378 5337 
4 5337 5378 5379 5338 
4 5338 5379 5380 5339 
4 5339 5380 5381 5340 
4 5340 5381 5382 5341 
4 5341 5382 5383 5342 
4 5342 5383 5384 5343 
4 5343 5384 5385 5344 
4 5344 5385 5386 5345 
4 5345 5386 5387 5346 
4 5346 5387 5388 5347 
4 5347 5388 5389 5348 
4 5348 5389 5390 5349 
4 5349 5390 5391 5350 
4 5350 5391 5392 5351 
4 5351 5392 5393 5352 
4 5352 5393 5394 5353 
4 5353 5394 5395 5354 
4 5354 5395 5396 5355 
4 5355 5396 5397 5356 
4 5356 5397 5398 5357 
4 5357 5398 5399 5358 
4 5358 5399 5400 5359 
4 5359 5400 5401 5360 
4 5360 5401 5402 5361 
4 5361 5402 5403 5362 
4 5362 5403 5404 5363 
4 5363 5404 5405 5364 
4 5364 5405 5406 5365 
4 5365 5406 5407 5366 
4 5366 5407 5408 5367 
4 5367 5408 5409 5368 
4 5368 5409 5410 5369 
4 5369 5410 5411 5370 
4 5371 5412 5413 5372 
4 5372 5413 5414 5373 
4 5373 5414 5415 5374 
4 5374 5415 5416 5375 
4 5375 5416 5417 5376 
4 5376 5417 5418 5377 
4 5377 5418 5419 5378 
4 5378 5419 5420 5379 
4 5379 5420 5421 5380 
4 5380 5421 5422 5381 
4 5381 5422 5423 5382 
4 5382 5423 5424 5383 
4 5383 5424 5425 5384 
4 5384 5425 5426 5385 
4 5385 5426 5427 5386 
4 5386 5427 5428 5387 
4 5387 5428 5429 5388 
4 5388 5429 5430 5389 
4 5389 5430 5431 5390 
4 5390 5431 5432 5391 
4 5391 5432 5433 5392 
4 5392 5433 5434 5393 
4 5393 5434 5435 5394 
4 5394 5435 5436 5395 
4 5395 5436 5437 5396 
4 5396 5437 5438 5397 
4 5397 5438 5439 5398 
4 5398 5439 5440 5399 
4 5399 5440 5441 5400 
4 5400 5441 5442 5401 
4 5401 5442 5443 5402 
4 5402 5443 5444 5403 
4 5403 5444 5445 5404 
4 5404 5445 5446 5405 
4 5405 5446 5447 5406 
4 5406 5447 5448 5407 
4 5407 5448 5449 5408 
4 5408 5449 5450 5409 
4 5409 5450 5451 5410 
4 5410 5451 5452 5411 
4 5412 5453 5454 5413 
4 5413 5454 5455 5414 
4 5414 5455 5456 5415 
4 5415 5456 5457 5416 
4 5416 5457 5458 5417 
4 5417 5458 5459 5418 
4 5418 5459 5460 5419 
4 5419 5460 5461 5420 
4 5420 5461 5462 5421 
4 5421 5462 5463 5422 
4 5422 5463 5464 5423 
4 5423 5464 5465 5424 
4 5424 5465 5466 5425 
4 5425 5466 5467 5426 
4 5426 5467 5468 5427 
4 5427 5468 5469 5428 
4 5428 5469 5470 5429 
4 5429 5470 5471 5430 
4 5430 5471 5472 5431 
4 5431 5472 5473 5432 
4 5432 5473 5474 5433 
4 5433 5474 5475 5434 
4 5434 5475 5476 5435 
4 5435 5476 5477 5436 
4 5436 5477 5478 5437 
4 5437 5478 5479 5438 
4 5438 5479 5480 5439 
4 5439 5480 5481 5440 
4 5440 5481 5482 5441 
4 5441 5482 5483 5442 
4 5442 5483 5484 5443 
4 5443 5484 5485 5444 
4 5444 5485 5486 5445 
4 5445 5486 5487 5446 
4 5446 5487 5488 5447 
4 5447 5488 5489 5448 
4 5448 5489 5490 5449 
4 5449 5490 5491 5450 
4 5450 5491 5492 5451 
4 5451 5492 5493 5452 
4 5453 5494 5495 5454 
4 5454 5495 5496 5455 
4 5455 5496 5497 5456 
4 5456 5497 5498 5457 
4 5457 5498 5499 5458 
4 5458 5499 5500 5459 
4 5459 5500 5501 5460 
4 5460 5501 5502 5461 
4 5461 5502 5503 5462 
4 5462 5503 5504 5463 
4 5463 5504 5505 5464 
4 5464 5505 5506 5465 
4 5465 5506 5507 5466 
4 5466 5507 5508 5467 
4 5467 5508 5509 5468 
4 5468 5509 5510 5469 
4 5469 5510 5511 5470 
4 5470 5511 5512 5471 
4 5471 5512 5513 5472 
4 5472 5513 5514 5473 
4 5473 5514 5515 5474 
4 5474 5515 5516 5475 
4 5475 5516 5517 5476 
4 5476 5517 5518 5477 
4 5477 5518 5519 5478 
4 5478 5519 5520 5479 
4 5479 5520 5521 5480 
4 5480 5521 5522 5481 
4 5481 5522 5523 5482 
4 5482 5523 5524 5483 
4 5483 5524 5525 5484 
4 5484 5525 5526 5485 
4 5485 5526 5527 5486 
4 5486 5527 5528 5487 
4 5487 5528 5529 5488 
4 5488 5529 5530 5489 
4 5489 5530 5531 5490 
4 5490 5531 5532 5491 
4 5491 5532 5533 5492 
4 5492 5533 5534 5493 
4 5494 5535 5536 5495 
4 5495 5536 5537 5496 
4 5496 5537 5538 5497 
4 5497 5538 5539 5498 
4 5498 5539 5540 5499 
4 5499 5540 5541 5500 
4 5500 5541 5542 5501 
4 5501 5542 5543 5502 
4 5502 5543 5544 5503 
4 5503 5544 5545 5504 
4 5504 5545 5546 5505 
4 5505 5546 5547 5506 
4 5506 5547 5548 5507 
4 5507 5548 5549 5508 
4 5508 5549 5550 5509 
4 5509 5550 5551 5510 
4 5510 5551 5552 5511 
4 5511 5552 5553 5512 
4 5512 5553 5554 5513 
4 5513 5554 5555 5514 
4 5514 5555 5556 5515 
4 5515 5556 5557 5516 
4 5516 5557 5558 5517 
4 5517 5558 5559 5518 
4 5518 5559 5560 5519 
4 5519 5560 5561 5520 
4 5520 5561 5562 5521 
4 5521 5562 5563 5522 
4 5522 5563 5564 5523 
4 5523 5564 5565 5524 
4 5524 5565 5566 5525 
4 5525 5566 5567 5526 
4 5526 5567 5568 5527 
4 5527 5568 5569 5528 
4 5528 5569 5570 5529 
4 5529 5570 5571 5530 
4 5530 5571 5572 5531 
4 5531 5572 5573 5532 
4 5532 5573 5574 5533 
4 5533 5574 5575 5534 
4 5535 5576 5577 5536 
4 5536 5577 5578 5537 
4 5537 5578 5579 5538 
4 5538 5579 5580 5539 
4 5539 5580 5581 5540 
4 5540 5581 5582 5541 
4 5541 5582 5583 5542 
4 5542 5583 5584 5543 
4 5543 5584 5585 5544 
4 5544 5585 5586 5545 
4 5545 5586 5587 5546 
4 5546 5587 5588 5547 
4 5547 5588 5589 5548 
4 5548 5589 5590 5549 
4 5549 5590 5591 5550 
4 5550 5591 5592 5551 
4 5551 5592 5593 5552 
4 5552 5593 5594 5553 
4 5553 5594 5595 5554 
4 5554 5595 5596 5555 
4 5555 5596 5597 5556 
4 5556 5597 5598 5557 
4 5557 5598 5599 5558 
4 5558 5599 5600 5559 
4 5559 5600 5601 5560 
4 5560 5601 5602 5561 
4 5561 5602 5603 5562 
4 5562 5603 5604 5563 
4 5563 5604 5605 5564 
4 5564 5605 5606 5565 
4 5565 5606 5607 5566 
4 5566 5607 5608 5567 
4 5567 5608 5609 5568 
4 5568 5609 5610 5569 
4 5569 5610 5611 5570 
4 5570 5611 5612 5571 
4 5571 5612 5613 5572 
4 5572 5613 5614 5573 
4 5573 5614 5615 5574 
4 5574 5615 5616 5575 
4 5576 5617 5618 5577 
4 5577 5618 5619 5578 
4 5578 5619 5620 5579 
4 5579 5620 5621 5580 
4 5580 5621 5622 5581 
4 5581 5622 5623 5582 
4 5582 5623 5624 5583 
4 5583 5624 5625 5584 
4 5584 5625 5626 5585 
4 5585 5626 5627 5586 
4 5586 5627 5628 5587 
4 5587 5628 5629 5588 
4 5588 5629 5630 5589 
4 5589 5630 5631 5590 
4 5590 5631 5632 5591 
4 5591 5632 5633 5592 
4 5592 5633 5634 5593 
4 5593 5634 5635 5594 
4 5594 5635 5636 5595 
4 5595 5636 5637 5596 
4 5596 5637 5638 5597 
4 5597 5638 5639 5598 
4 5598 5639 5640 5599 
4 5599 5640 5641 5600 
4 5600 5641 5642 5601 
4 5601 5642 5643 5602 
4 5602 5643 5644 5603 
4 5603 5644 5645 5604 
4 5604 5645 5646 5605 
4 5605 5646 5647 5606 
4 5606 5647 5648 5607 
4 5607 5648 5649 5608 
4 5608 5649 5650 5609 
4 5609 5650 5651 5610 
4 5610 5651 5652 5611 
4 5611 5652 5653 5612 
4 5612 5653 5654 5613 
4 5613 5654 5655 5614 
4 5614 5655 5656 5615 
4 5615 5656 5657 5616 
4 5617 5658 5659 5618 
4 5618 5659 5660 5619 
4 5619 5660 5661 5620 
4 5620 5661 5662 5621 
4 5621 5662 5663 5622 
4 5622 5663 5664 5623 
4 5623 5664 5665 5624 
4 5624 5665 5666 5625 
4 5625 5666 5667 5626 
4 5626 5667 5668 5627 
4 5627 5668 5669 5628 
4 5628 5669 5670 5629 
4 5629 5670 5671 5630 
4 5630 5671 5672 5631 
4 5631 5672 5673 5632 
4 5632 5673 5674 5633 
4 5633 5674 5675 5634 
4 5634 5675 5676 5635 
4 5635 5676 5677 5636 
4 5636 5677 5678 5637 
4 5637 5678 5679 5638 
4 5638 5679 5680 5639 
4 5639 5680 5681 5640 
4 5640 5681 5682 5641 
4 5641 5682 5683 5642 
4 5642 5683 5684 5643 
4 5643 5684 5685 5644 
4 5644 5685 5686 5645 
4 5645 5686 5687 5646 
4 5646 5687 5688 5647 
4 5647 5688 5689 5648 
4 5648 5689 5690 5649 
4 5649 5690 5691 5650 
4 5650 5691 5692 5651 
4 5651 5692 5693 5652 
4 5652 5693 5694 5653 
4 5653 5694 5695 5654 
4 5654 5695 5696 5655 
4 5655 5696 5697 5656 
4 5656 5697 5698 5657 
4 5658 5699 5700 5659 
4 5659 5700 5701 5660 
4 5660 5701 5702 5661 
4 5661 5702 5703 5662 
4 5662 5703 5704 5663 
4 5663 5704 5705 5664 
4 5664 5705 5706 5665 
4 5665 5706 5707 5666 
4 5666 5707 5708 5667 
4 5667 5708 5709 5668 
4 5668 5709 5710 5669 
4 5669 5710 5711 5670 
4 5670 5711 5712 5671 
4 5671 5712 5713 5672 
4 5672 5713 5714 5673 
4 5673 5714 5715 5674 
4 5674 5715 5716 5675 
4 5675 5716 5717 5676 
4 5676 5717 5718 5677 
4 5677 5718 5719 5678 
4 5678 5719 5720 5679 
4 5679 5720 5721 5680 
4 5680 5721 5722 5681 
4 5681 5722 5723 5682 
4 5682 5723 5724 5683 
4 5683 5724 5725 5684 
4 5684 5725 5726 5685 
4 5685 5726 5727 5686 
4 5686 5727 5728 5687 
4 5687 5728 5729 5688 
4 5688 5729 5730 5689 
4 5689 5730 5731 5690 
4 5690 5731 5732 5691 
4 5691 5732 5733 5692 
4 5692 5733 5734 5693 
4 5693 5734 5735 5694 
4 5694 5735 5736 5695 
4 5695 5736 5737 5696 
4 5696 5737 5738 5697 
4 5697 5738 5739 5698 
4 5699 5740 5741 5700 
4 5700 5741 5742 5701 
4 5701 5742 5743 5702 
4 5702 5743 5744 5703 
4 5703 5744 5745 5704 
4 5704 5745 5746 5705 
4 5705 5746 5747 5706 
4 5706 5747 5748 5707 
4 5707 5748 5749 5708 
4 5708 5749 5750 5709 
4 5709 5750 5751 5710 
4 5710 5751 5752 5711 
4 5711 5752 5753 5712 
4 5712 5753 5754 5713 
4 5713 5754 5755 5714 
4 5714 5755 5756 5715 
4 5715 5756 5757 5716 
4 5716 5757 5758 5717 
4 5717 5758 5759 5718 
4 5718 5759 5760 5719 
4 5719 5760 5761 5720 
4 5720 5761 5762 5721 
4 5721 5762 5763 5722 
4 5722 5763 5764 5723 
4 5723 5764 5765 5724 
4 5724 5765 5766 5725 
4 5725 5766 5767 5726 
4 5726 5767 5768 5727 
4 5727 5768 5769 5728 
4 5728 5769 5770 5729 
4 5729 5770 5771 5730 
4 5730 5771 5772 5731 
4 5731 5772 5773 5732 
4 5732 5773 5774 5733 
4 5733 5774 5775 5734 
4 5734 5775 5776 5735 
4 5735 5776 5777 5736 
4 5736 5777 5778 5737 
4 5737 5778 5779 5738 
4 5738 5779 5780 5739 
4 5740 5781 5782 5741 
4 5741 5782 5783 5742 
4 5742 5783 5784 5743 
4 5743 5784 5785 5744 
4 5744 5785 5786 5745 
4 5745 5786 5787 5746 
4 5746 5787 5788 5747 
4 5747 5788 5789 5748 
4 5748 5789 5790 5749 
4 5749 5790 5791 5750 
4 5750 5791 5792 5751 
4 5751 5792 5793 5752 
4 5752 5793 5794 5753 
4 5753 5794 5795 5754 
4 5754 5795 5796 5755 
4 5755 5796 5797 5756 
4 5756 5797 5798 5757 
4 5757 5798 5799 5758 
4 5758 5799 5800 5759 
4 5759 5800 5801 5760 
4 5760 5801 5802 5761 
4 5761 5802 5803 5762 
4 5762 5803 5804 5763 
4 5763 5804 5805 5764 
4 5764 5805 5806 5765 
4 5765 5806 5807 5766 
4 5766 5807 5808 5767 
4 5767 5808 5809 5768 
4 5768 5809 5810 5769 
4 5769 5810 5811 5770 
4 5770 5811 5812 5771 
4 5771 5812 5813 5772 
4 5772 5813 5814 5773 
4 5773 5814 5815 5774 
4 5774 5815 5816 5775 
4 5775 5816 5817 5776 
4 5776 5817 5818 5777 
4 5777 5818 5819 5778 
4 5778 5819 5820 5779 
4 5779 5820 5821 5780 
4 5781 5822 5823 5782 
4 5782 5823 5824 5783 
4 5783 5824 5825 5784 
4 5784 5825 5826 5785 
4 5785 5826 5827 5786 
4 5786 5827 5828 5787 
4 5787 5828 5829 5788 
4 5788 5829 5830 5789 
4 5789 5830 5831 5790 
4 5790 5831 5832 5791 
4 5791 5832 5833 5792 
4 5792 5833 5834 5793 
4 5793 5834 5835 5794 
4 5794 5835 5836 5795 
4 5795 5836 5837 5796 
4 5796 5837 5838 5797 
4 5797 5838 5839 5798 
4 5798 5839 5840 5799 
4 5799 5840 5841 5800 
4 5800 5841 5842 5801 
4 5801 5842 5843 5802 
4 5802 5843 5844 5803 
4 5803 5844 5845 5804 
4 5804 5845 5846 5805 
4 5805 5846 5847 5806 
4 5806 5847 5848 5807 
4 5807 5848 5849 5808 
4 5808 5849 5850 5809 
4 5809 5850 5851 5810 
4 5810 5851 5852 5811 
4 5811 5852 5853 5812 
4 5812 5853 5854 5813 
4 5813 5854 5855 5814 
4 5814 5855 5856 5815 
4 5815 5856 5857 5816 
4 5816 5857 5858 5817 
4 5817 5858 5859 5818 
4 5818 5859 5860 5819 
4 5819 5860 5861 5820 
4 5820 5861 5862 5821 
4 5822 5863 5864 5823 
4 5823 5864 5865 5824 
4 5824 5865 5866 5825 
4 5825 5866 5867 5826 
4 5826 5867 5868 5827 
4 5827 5868 5869 5828 
4 5828 5869 5870 5829 
4 5829 5870 5871 5830 
4 5830 5871 5872 5831 
4 5831 5872 5873 5832 
4 5832 5873 5874 5833 
4 5833 5874 5875 5834 
4 5834 5875 5876 5835 
4 5835 5876 5877 5836 
4 5836 5877 5878 5837 
4 5837 5878 5879 5838 
4 5838 5879 5880 5839 
4 5839 5880 5881 5840 
4 5840 5881 5882 5841 
4 5841 5882 5883 5842 
4 5842 5883 5884 5843 
4 5843 5884 5885 5844 
4 5844 5885 5886 5845 
4 5845 5886 5887 5846 
4 5846 5887 5888 5847 
4 5847 5888 5889 5848 
4 5848 5889 5890 5849 
4 5849 5890 5891 5850 
4 5850 5891 5892 5851 
4 5851 5892 5893 5852 
4 5852 5893 5894 5853 
4 5853 5894 5895 5854 
4 5854 5895 5896 5855 
4 5855 5896 5897 5856 
4 5856 5897 5898 5857 
4 5857 5898 5899 5858 
4 5858 5899 5900 5859 
4 5859 5900 5901 5860 
4 5860 5901 5902 5861 
4 5861 5902 5903 5862 
4 5863 5904 5905 5864 
4 5864 5905 5906 5865 
4 5865 5906 5907 5866 
4 5866 5907 5908 5867 
4 5867 5908 5909 5868 
4 5868 5909 5910 5869 
4 5869 5910 5911 5870 
4 5870 5911 5912 5871 
4 5871 5912 5913 5872 
4 5872 5913 5914 5873 
4 5873 5914 5915 5874 
4 5874 5915 5916 5875 
4 5875 5916 5917 5876 
4 5876 5917 5918 5877 
4 5877 5918 5919 5878 
4 5878 5919 5920 5879 
4 5879 5920 5921 5880 
4 5880 5921 5922 5881 
4 5881 5922 5923 5882 
4 5882 5923 5924 5883 
4 5883 5924 5925 5884 
4 5884 5925 5926 5885 
4 5885 5926 5927 5886 
4 5886 5927 5928 5887 
4 5887 5928 5929 5888 
4 5888 5929 5930 5889 
4 5889 5930 5931 5890 
4 5890 5931 5932 5891 
4 5891 5932 5933 5892 
4 5892 5933 5934 5893 
4 5893 5934 5935 5894 
4 5894 5935 5936 5895 
4 5895 5936 5937 5896 
4 5896 5937 5938 5897 
4 5897 5938 5939 5898 
4 5898 5939 5940 5899 
4 5899 5940 5941 5900 
4 5900 5941 5942 5901 
4 5901 5942 5943 5902 
4 5902 5943 5944 5903 
4 5904 5945 5946 5905 
4 5905 5946 5947 5906 
4 5906 5947 5948 5907 
4 5907 5948 5949 5908 
4 5908 5949 5950 5909 
4 5909 5950 5951 5910 
4 5910 5951 5952 5911 
4 5911 5952 5953 5912 
4 5912 5953 5954 5913 
4 5913 5954 5955 5914 
4 5914 5955 5956 5915 
4 5915 5956 5957 5916 
4 5916 5957 5958 5917 
4 5917 5958 5959 5918 
4 5918 5959 5960 5919 
4 5919 5960 5961 5920 
4 5920 5961 5962 5921 
4 5921 5962 5963 5922 
4 5922 5963 5964 5923 
4 5923 5964 5965 5924 
4 5924 5965 5966 5925 
4 5925 5966 5967 5926 
4 5926 5967 5968 5927 
4 5927 5968 5969 5928 
4 5928 5969 5970 5929 
4 5929 5970 5971 5930 
4 5930 5971 5972 5931 
4 5931 5972 5973 5932 
4 5932 5973 5974 5933 
4 5933 5974 5975 5934 
4 5934 5975 5976 5935 
4 5935 5976 5977 5936 
4 5936 5977 5978 5937 
4 5937 5978 5979 5938 
4 5938 5979 5980 5939 
4 5939 5980 5981 5940 
4 5940 5981 5982 5941 
4 5941 5982 5983 5942 
4 5942 5983 5984 5943 
4 5943 5984 5985 5944 
4 5945 5986 5987 5946 
4 5946 5987 5988 5947 
4 5947 5988 5989 5948 
4 5948 5989 5990 5949 
4 5949 5990 5991 5950 
4 5950 5991 5992 5951 
4 5951 5992 5993 5952 
4 5952 5993 5994 5953 
4 5953 5994 5995 5954 
4 5954 5995 5996 5955 
4 5955 5996 5997 5956 
4 5956 5997 5998 5957 
4 5957 5998 5999 5958 
4 5958 5999 6000 5959 
4 5959 6000 6001 5960 
4 5960 6001 6002 5961 
4 5961 6002 6003 5962 
4 5962 6003 6004 5963 
4 5963 6004 6005 5964 
4 5964 6005 6006 5965 
4 5965 6006 6007 5966 
4 5966 6007 6008 5967 
4 5967 6008 6009 5968 
4 5968 6009 6010 5969 
4 5969 6010 6011 5970 
4 5970 6011 6012 5971 
4 5971 6012 6013 5972 
4 5972 6013 6014 5973 
4 5973 6014 6015 5974 
4 5974 6015 6016 5975 
4 5975 6016 6017 5976 
4 5976 6017 6018 5977 
4 5977 6018 6019 5978 
4 5978 6019 6020 5979 
4 5979 6020 6021 5980 
4 5980 6021 6022 5981 
4 5981 6022 6023 5982 
4 5982 6023 6024 5983 
4 5983 6024 6025 5984 
4 5984 6025 6026 5985 
4 5986 6027 6028 5987 
4 5987 6028 6029 5988 
4 5988 6029 6030 5989 
4 5989 6030 6031 5990 
4 5990 6031 6032 5991 
4 5991 6032 6033 5992 
4 5992 6033 6034 5993 
4 5993 6034 6035 5994 
4 5994 6035 6036 5995 
4 5995 6036 6037 5996 
4 5996 6037 6038 5997 
4 5997 6038 6039 5998 
4 5998 6039 6040 5999 
4 5999 6040 6041 6000 
4 6000 6041 6042 6001 
4 6001 6042 6043 6002 
4 6002 6043 6044 6003 
4 6003 6044 6045 6004 
4 6004 6045 6046 6005 
4 6005 6046 6047 6006 
4 6006 6047 6048 6007 
4 6007 6048 6049 6008 
4 6008 6049 6050 6009 
4 6009 6050 6051 6010 
4 6010 6051 6052 6011 
4 6011 6052 6053 6012 
4 6012 6053 6054 6013 
4 6013 6054 6055 6014 
4 6014 6055 6056 6015 
4 6015 6056 6057 6016 
4 6016 6057 6058 6017 
4 6017 6058 6059 6018 
4 6018 6059 6060 6019 
4 6019 6060 6061 6020 
4 6020 6061 6062 6021 
4 6021 6062 6063 6022 
4 6022 6063 6064 6023 
4 6023 6064 6065 6024 
4 6024 6065 6066 6025 
4 6025 6066 6067 6026 
4 6027 6068 6069 6028 
4 6028 6069 6070 6029 
4 6029 6070 6071 6030 
4 6030 6071 6072 6031 
4 6031 6072 6073 6032 
4 6032 6073 6074 6033 
4 6033 6074 6075 6034 
4 6034 6075 6076 6035 
4 6035 6076 6077 6036 
4 6036 6077 6078 6037 
4 6037 6078 6079 6038 
4 6038 6079 6080 6039 
4 6039 6080 6081 6040 
4 6040 6081 6082 6041 
4 6041 6082 6083 6042 
4 6042 6083 6084 6043 
4 6043 6084 6085 6044 
4 6044 6085 6086 6045 
4 6045 6086 6087 6046 
4 6046 6087 6088 6047 
4 6047 6088 6089 6048 
4 6048 6089 6090 6049 
4 6049 6090 6091 6050 
4 6050 6091 6092 6051 
4 6051 6092 6093 6052 
4 6052 6093 6094 6053 
4 6053 6094 6095 6054 
4 6054 6095 6096 6055 
4 6055 6096 6097 6056 
4 6056 6097 6098 6057 
4 6057 6098 6099 6058 
4 6058 6099 6100 6059 
4 6059 6100 6101 6060 
4 6060 6101 6102 6061 
4 6061 6102 6103 6062 
4 6062 6103 6104 6063 
4 6063 6104 6105 6064 
4 6064 6105 6106 6065 
4 6065 6106 6107 6066 
4 6066 6107 6108 6067 
4 6068 6109 6110 6069 
4 6069 6110 6111 6070 
4 6070 6111 6112 6071 
4 6071 6112 6113 6072 
4 6072 6113 6114 6073 
4 6073 6114 6115 6074 
4 6074 6115 6116 6075 
4 6075 6116 6117 6076 
4 6076 6117 6118 6077 
4 6077 6118 6119 6078 
4 6078 6119 6120 6079 
4 6079 6120 6121 6080 
4 6080 6121 6122 6081 
4 6081 6122 6123 6082 
4 6082 6123 6124 6083 
4 6083 6124 6125 6084 
4 6084 6125 6126 6085 
4 6085 6126 6127 6086 
4 6086 6127 6128 6087 
4 6087 6128 6129 6088 
4 6088 6129 6130 6089 
4 6089 6130 6131 6090 
4 6090 6131 6132 6091 
4 6091 6132 6133 6092 
4 6092 6133 6134 6093 
4 6093 6134 6135 6094 
4 6094 6135 6136 6095 
4 6095 6136 6137 6096 
4 6096 6137 6138 6097 
4 6097 6138 6139 6098 
4 6098 6139 6140 6099 
4 6099 6140 6141 6100 
4 6100 6141 6142 6101 
4 6101 6142 6143 6102 
4 6102 6143 6144 6103 
4 6103 6144 6145 6104 
4 6104 6145 6146 6105 
4 6105 6146 6147 6106 
4 6106 6147 6148 6107 
4 6107 6148 6149 6108 
4 6109 6150 6151 6110 
4 6110 6151 6152 6111 
4 6111 6152 6153 6112 
4 6112 6153 6154 6113 
4 6113 6154 6155 6114 
4 6114 6155 6156 6115 
4 6115 6156 6157 6116 
4 6116 6157 6158 6117 
4 6117 6158 6159 6118 
4 6118 6159 6160 6119 
4 6119 6160 6161 6120 
4 6120 6161 6162 6121 
4 6121 6162 6163 6122 
4 6122 6163 6164 6123 
4 6123 6164 6165 6124 
4 6124 6165 6166 6125 
4 6125 6166 6167 6126 
4 6126 6167 6168 6127 
4 6127 6168 6169 6128 
4 6128 6169 6170 6129 
4 6129 6170 6171 6130 
4 6130 6171 6172 6131 
4 6131 6172 6173 6132 
4 6132 6173 6174 6133 
4 6133 6174 6175 6134 
4 6134 6175 6176 6135 
4 6135 6176 6177 6136 
4 6136 6177 6178 6137 
4 6137 6178 6179 6138 
4 6138 6179 6180 6139 
4 6139 6180 6181 6140 
4 6140 6181 6182 6141 
4 6141 6182 6183 6142 
4 6142 6183 6184 6143 
4 6143 6184 6185 6144 
4 6144 6185 6186 6145 
4 6145 6186 6187 6146 
4 6146 6187 6188 6147 
4 6147 6188 6189 6148 
4 6148 6189 6190 6149 
4 6150 6191 6192 6151 
4 6151 6192 6193 6152 
4 6152 6193 6194 6153 
4 6153 6194 6195 6154 
4 6154 6195 6196 6155 
4 6155 6196 6197 6156 
4 6156 6197 6198 6157 
4 6157 6198 6199 6158 
4 6158 6199 6200 6159 
4 6159 6200 6201 6160 
4 6160 6201 6202 6161 
4 6161 6202 6203 6162 
4 6162 6203 6204 6163 
4 6163 6204 6205 6164 
4 6164 6205 6206 6165 
4 6165 6206 6207 6166 
4 6166 6207 6208 6167 
4 6167 6208 6209 6168 
4 6168 6209 6210 6169 
4 6169 6210 6211 6170 
4 6170 6211 6212 6171 
4 6171 6212 6213 6172 
4 6172 6213 6214 6173 
4 6173 6214 6215 6174 
4 6174 6215 6216 6175 
4 6175 6216 6217 6176 
4 6176 6217 6218 6177 
4 6177 6218 6219 6178 
4 6178 6219 6220 6179 
4 6179 6220 6221 6180 
4 6180 6221 6222 6181 
4 6181 6222 6223 6182 
4 6182 6223 6224 6183 
4 6183 6224 6225 6184 
4 6184 6225 6226 6185 
4 6185 6226 6227 6186 
4 6186 6227 6228 6187 
4 6187 6228 6229 6188 
4 6188 6229 6230 6189 
4 6189 6230 6231 6190 
4 6191 6232 6233 6192 
4 6192 6233 6234 6193 
4 6193 6234 6235 6194 
4 6194 6235 6236 6195 
4 6195 6236 6237 6196 
4 6196 6237 6238 6197 
4 6197 6238 6239 6198 
4 6198 6239 6240 6199 
4 6199 6240 6241 6200 
4 6200 6241 6242 6201 
4 6201 6242 6243 6202 
4 6202 6243 6244 6203 
4 6203 6244 6245 6204 
4 6204 6245 6246 6205 
4 6205 6246 6247 6206 
4 6206 6247 6248 6207 
4 6207 6248 6249 6208 
4 6208 6249 6250 6209 
4 6209 6250 6251 6210 
4 6210 6251 6252 6211 
4 6211 6252 6253 6212 
4 6212 6253 6254 6213 
4 6213 6254 6255 6214 
4 6214 6255 6256 6215 
4 6215 6256 6257 6216 
4 6216 6257 6258 6217 
4 6217 6258 6259 6218 
4 6218 6259 6260 6219 
4 6219 6260 6261 6220 
4 6220 6261 6262 6221 
4 6221 6262 6263 6222 
4 6222 6263 6264 6223 
4 6223 6264 6265 6224 
4 6224 6265 6266 6225 
4 6225 6266 6267 6226 
4 6226 6267 6268 6227 
4 6227 6268 6269 6228 
4 6228 6269 6270 6229 
4 6229 6270 6271 6230 
4 6230 6271 6272 6231 
4 6232 6273 6274 6233 
4 6233 6274 6275 6234 
4 6234 6275 6276 6235 
4 6235 6276 6277 6236 
4 6236 6277 6278 6237 
4 6237 6278 6279 6238 
4 6238 6279 6280 6239 
4 6239 6280 6281 6240 
4 6240 6281 6282 6241 
4 6241 6282 6283 6242 
4 6242 6283 6284 6243 
4 6243 6284 6285 6244 
4 6244 6285 6286 6245 
4 6245 6286 6287 6246 
4 6246 6287 6288 6247 
4 6247 6288 6289 6248 
4 6248 6289 6290 6249 
4 6249 6290 6291 6250 
4 6250 6291 6292 6251 
4 6251 6292 6293 6252 
4 6252 6293 6294 6253 
4 6253 6294 6295 6254 
4 6254 6295 6296 6255 
4 6255 6296 6297 6256 
4 6256 6297 6298 6257 
4 6257 6298 6299 6258 
4 6258 6299 6300 6259 
4 6259 6300 6301 6260 
4 6260 6301 6302 6261 
4 6261 6302 6303 6262 
4 6262 6303 6304 6263 
4 6263 6304 6305 6264 
4 6264 6305 6306 6265 
4 6265 6306 6307 6266 
4 6266 6307 6308 6267 
4 6267 6308 6309 6268 
4 6268 6309 6310 6269 
4 6269 6310 6311 6270 
4 6270 6311 6312 6271 
4 6271 6312 6313 6272 
4 6273 6314 6315 6274 
4 6274 6315 6316 6275 
4 6275 6316 6317 6276 
4 6276 6317 6318 6277 
4 6277 6318 6319 6278 
4 6278 6319 6320 6279 
4 6279 6320 6321 6280 
4 6280 6321 6322 6281 
4 6281 6322 6323 6282 
4 6282 6323 6324 6283 
4 6283 6324 6325 6284 
4 6284 6325 6326 6285 
4 6285 6326 6327 6286 
4 6286 6327 6328 6287 
4 6287 6328 6329 6288 
4 6288 6329 6330 6289 
4 6289 6330 6331 6290 
4 6290 6331 6332 6291 
4 6291 6332 6333 6292 
4 6292 6333 6334 6293 
4 6293 6334 6335 6294 
4 6294 6335 6336 6295 
4 6295 6336 6337 6296 
4 6296 6337 6338 6297 
4 6297 6338 6339 6298 
4 6298 6339 6340 6299 
4 6299 6340 6341 6300 
4 6300 6341 6342 6301 
4 6301 6342 6343 6302 
4 6302 6343 6344 6303 
4 6303 6344 6345 6304 
4 6304 6345 6346 6305 
4 6305 6346 6347 6306 
4 6306 6347 6348 6307 
4 6307 6348 6349 6308 
4 6308 6349 6350 6309 
4 6309 6350 6351 6310 
4 6310 6351 6352 6311 
4 6311 6352 6353 6312 
4 6312 6353 6354 6313 
4 6314 6355 6356 6315 
4 6315 6356 6357 6316 
4 6316 6357 6358 6317 
4 6317 6358 6359 6318 
4 6318 6359 6360 6319 
4 6319 6360 6361 6320 
4 6320 6361 6362 6321 
4 6321 6362 6363 6322 
4 6322 6363 6364 6323 
4 6323 6364 6365 6324 
4 6324 6365 6366 6325 
4 6325 6366 6367 6326 
4 6326 6367 6368 6327 
4 6327 6368 6369 6328 
4 6328 6369 6370 6329 
4 6329 6370 6371 6330 
4 6330 6371 6372 6331 
4 6331 6372 6373 6332 
4 6332 6373 6374 6333 
4 6333 6374 6375 6334 
4 6334 6375 6376 6335 
4 6335 6376 6377 6336 
4 6336 6377 6378 6337 
4 6337 6378 6379 6338 
4 6338 6379 6380 6339 
4 6339 6380 6381 6340 
4 6340 6381 6382 6341 
4 6341 6382 6383 6342 
4 6342 6383 6384 6343 
4 6343 6384 6385 6344 
4 6344 6385 6386 6345 
4 6345 6386 6387 6346 
4 6346 6387 6388 6347 
4 6347 6388 6389 6348 
4 6348 6389 6390 6349 
4 6349 6390 6391 6350 
4 6350 6391 6392 6351 
4 6351 6392 6393 6352 
4 6352 6393 6394 6353 
4 6353 6394 6395 6354 
4 6355 6396 6397 6356 
4 6356 6397 6398 6357 
4 6357 6398 6399 6358 
4 6358 6399 6400 6359 
4 6359 6400 6401 6360 
4 6360 6401 6402 6361 
4 6361 6402 6403 6362 
4 6362 6403 6404 6363 
4 6363 6404 6405 6364 
4 6364 6405 6406 6365 
4 6365 6406 6407 6366 
4 6366 6407 6408 6367 
4 6367 6408 6409 6368 
4 6368 6409 6410 6369 
4 6369 6410 6411 6370 
4 6370 6411 6412 6371 
4 6371 6412 6413 6372 
4 6372 6413 6414 6373 
4 6373 6414 6415 6374 
4 6374 6415 6416 6375 
4 6375 6416 6417 6376 
4 6376 6417 6418 6377 
4 6377 6418 6419 6378 
4 6378 6419 6420 6379 
4 6379 6420 6421 6380 
4 6380 6421 6422 6381 
4 6381 6422 6423 6382 
4 6382 6423 6424 6383 
4 6383 6424 6425 6384 
4 6384 6425 6426 6385 
4 6385 6426 6427 6386 
4 6386 6427 6428 6387 
4 6387 6428 6429 6388 
4 6388 6429 6430 6389 
4 6389 6430 6431 6390 
4 6390 6431 6432 6391 
4 6391 6432 6433 6392 
4 6392 6433 6434 6393 
4 6393 6434 6435 6394 
4 6394 6435 6436 6395 
4 6396 6437 6438 6397 
4 6397 6438 6439 6398 
4 6398 6439 6440 6399 
4 6399 6440 6441 6400 
4 6400 6441 6442 6401 
4 6401 6442 6443 6402 
4 6402 6443 6444 6403 
4 6403 6444 6445 6404 
4 6404 6445 6446 6405 
4 6405 6446 6447 6406 
4 6406 6447 6448 6407 
4 6407 6448 6449 6408 
4 6408 6449 6450 6409 
4 6409 6450 6451 6410 
4 6410 6451 6452 6411 
4 6411 6452 6453 6412 
4 6412 6453 6454 6413 
4 6413 6454 6455 6414 
4 6414 6455 6456 6415 
4 6415 6456 6457 6416 
4 6416 6457 6458 6417 
4 6417 6458 6459 6418 
4 6418 6459 6460 6419 
4 6419 6460 6461 6420 
4 6420 6461 6462 6421 
4 6421 6462 6463 6422 
4 6422 6463 6464 6423 
4 6423 6464 6465 6424 
4 6424 6465 6466 6425 
4 6425 6466 6467 6426 
4 6426 6467 6468 6427 
4 6427 6468 6469 6428 
4 6428 6469 6470 6429 
4 6429 6470 6471 6430 
4 6430 6471 6472 6431 
4 6431 6472 6473 6432 
4 6432 6473 6474 6433 
4 6433 6474 6475 6434 
4 6434 6475 6476 6435 
4 6435 6476 6477 6436 
4 6437 6478 6479 6438 
4 6438 6479 6480 6439 
4 6439 6480 6481 6440 
4 6440 6481 6482 6441 
4 6441 6482 6483 6442 
4 6442 6483 6484 6443 
4 6443 6484 6485 6444 
4 6444 6485 6486 6445 
4 6445 6486 6487 6446 
4 6446 6487 6488 6447 
4 6447 6488 6489 6448 
4 6448 6489 6490 6449 
4 6449 6490 6491 6450 
4 6450 6491 6492 6451 
4 6451 6492 6493 6452 
4 6452 6493 6494 6453 
4 6453 6494 6495 6454 
4 6454 6495 6496 6455 
4 6455 6496 6497 6456 
4 6456 6497 6498 6457 
4 6457 6498 6499 6458 
4 6458 6499 6500 6459 
4 6459 6500 6501 6460 
4 6460 6501 6502 6461 
4 6461 6502 6503 6462 
4 6462 6503 6504 6463 
4 6463 6504 6505 6464 
4 6464 6505 6506 6465 
4 6465 6506 6507 6466 
4 6466 6507 6508 6467 
4 6467 6508 6509 6468 
4 6468 6509 6510 6469 
4 6469 6510 6511 6470 
4 6470 6511 6512 6471 
4 6471 6512 6513 6472 
4 6472 6513 6514 6473 
4 6473 6514 6515 6474 
4 6474 6515 6516 6475 
4 6475 6516 6517 6476 
4 6476 6517 6518 6477 
4 6478 6519 6520 6479 
4 6479 6520 6521 6480 
4 6480 6521 6522 6481 
4 6481 6522 6523 6482 
4 6482 6523 6524 6483 
4 6483 6524 6525 6484 
4 6484 6525 6526 6485 
4 6485 6526 6527 6486 
4 6486 6527 6528 6487 
4 6487 6528 6529 6488 
4 6488 6529 6530 6489 
4 6489 6530 6531 6490 
4 6490 6531 6532 6491 
4 6491 6532 6533 6492 
4 6492 6533 6534 6493 
4 6493 6534 6535 6494 
4 6494 6535 6536 6495 
4 6495 6536 6537 6496 
4 6496 6537 6538 6497 
4 6497 6538 6539 6498 
4 6498 6539 6540 6499 
4 6499 6540 6541 6500 
4 6500 6541 6542 6501 
4 6501 6542 6543 6502 
4 6502 6543 6544 6503 
4 6503 6544 6545 6504 
4 6504 6545 6546 6505 
4 6505 6546 6547 6506 
4 6506 6547 6548 6507 
4 6507 6548 6549 6508 
4 6508 6549 6550 6509 
4 6509 6550 6551 6510 
4 6510 6551 6552 6511 
4 6511 6552 6553 6512 
4 6512 6553 6554 6513 
4 6513 6554 6555 6514 
4 6514 6555 6556 6515 
4 6515 6556 6557 6516 
4 6516 6557 6558 6517 
4 6517 6558 6559 6518 
4 6519 6560 6561 6520 
4 6520 6561 6562 6521 
4 6521 6562 6563 6522 
4 6522 6563 6564 6523 
4 6523 6564 6565 6524 
4 6524 6565 6566 6525 
4 6525 6566 6567 6526 
4 6526 6567 6568 6527 
4 6527 6568 6569 6528 
4 6528 6569 6570 6529 
4 6529 6570 6571 6530 
4 6530 6571 6572 6531 
4 6531 6572 6573 6532 
4 6532 6573 6574 6533 
4 6533 6574 6575 6534 
4 6534 6575 6576 6535 
4 6535 6576 6577 6536 
4 6536 6577 6578 6537 
4 6537 6578 6579 6538 
4 6538 6579 6580 6539 
4 6539 6580 6581 6540 
4 6540 6581 6582 6541 
4 6541 6582 6583 6542 
4 6542 6583 6584 6543 
4 6543 6584 6585 6544 
4 6544 6585 6586 6545 
4 6545 6586 6587 6546 
4 6546 6587 6588 6547 
4 6547 6588 6589 6548 
4 6548 6589 6590 6549 
4 6549 6590 6591 6550 
4 6550 6591 6592 6551 
4 6551 6592 6593 6552 
4 6552 6593 6594 6553 
4 6553 6594 6595 6554 
4 6554 6595 6596 6555 
4 6555 6596 6597 6556 
4 6556 6597 6598 6557 
4 6557 6598 6599 6558 
4 6558 6599 6600 6559 
CELL_TYPES 6400 
9 
9 
9 
9 
9 
9 
9 
9 
9 
9 
9 
9 
9 
9 
9 
9 
9 
9 
9 
9 
9 
9 
9 
9 
9 
9 
9 
9 
9 
9 
9 
9 
9 
9 
9 
9 
9 
9 
9 
9 
9 
9 
9 
9 
9 
9 
9 
9 
9 
9 
9 
9 
9 
9 
9 
9 
9 
9 
9 
9 
9 
9 
9 
9 
9 
9 
9 
9 
9 
9 
9 
9 
9 
9 
9 
9 
9 
9 
9 
9 
9 
9 
9 
9 
9 
9 
9 
9 
9 
9 
9 
9 
9 
9 
9 
9 
9 
9 
9 
9 
9 
9 
9 
9 
9 
9 
9 
9 
9 
9 
9 
9 
9 
9 
9 
9 
9 
9 
9 
9 
9 
9 
9 
9 
9 
9 
9 
9 
9 
9 
9 
9 
9 
9 
9 
9 
9 
9 
9 
9 
9 
9 
9 
9 
9 
9 
9 
9 
9 
9 
9 
9 
9 
9 
9 
9 
9 
9 
9 
9 
9 
9 
9 
9 
9 
9 
9 
9 
9 
9 
9 
9 
9 
9 
9 
9 
9 
9 
9 
9 
9 
9 
9 
9 
9 
9 
9 
9 
9 
9 
9 
9 
9 
9 
9 
9 
9 
9 
9 
9 
9 
9 
9 
9 
9 
9 
9 
9 
9 
9 
9 
9 
9 
9 
9 
9 
9 
9 
9 
9 
9 
9 
9 
9 
9 
9 
9 
9 
9 
9 
9 
9 
9 
9 
9 
9 
9 
9 
9 
9 
9 
9 
9 
9 
9 
9 
9 
9 
9 
9 
9 
9 
9 
9 
9 
9 
9 
9 
9 
9 
9 
9 
9 
9 
9 
9 
9 
9 
9 
9 
9 
9 
9 
9 
9 
9 
9 
9 
9 
9 
9 
9 
9 
9 
9 
9 
9 
9 
9 
9 
9 
9 
9 
9 
9 
9 
9 
9 
9 
9 
9 
9 
9 
9 
9 
9 
9 
9 
9 
9 
9 
9 
9 
9 
9 
9 
9 
9 
9 
9 
9 
9 
9 
9 
9 
9 
9 
9 
9 
9 
9 
9 
9 
9 
9 
9 
9 
9 
9 
9 
9 
9 
9 
9 
9 
9 
9 
9 
9 
9 
9 
9 
9 
9 
9 
9 
9 
9 
9 
9 
9 
9 
9 
9 
9 
9 
9 
9 
9 
9 
9 
9 
9 
9 
9 
9 
9 
9 
9 
9 
9 
9 
9 
9 
9 
9 
9 
9 
9 
9 
9 
9 
9 
9 
9 
9 
9 
9 
9 
9 
9 
9 
9 
9 
9 
9 
9 
9 
9 
9 
9 
9 
9 
9 
9 
9 
9 
9 
9 
9 
9 
9 
9 
9 
9 
9 
9 
9 
9 
9 
9 
9 
9 
9 
9 
9 
9 
9 
9 
9 
9 
9 
9 
9 
9 
9 
9 
9 
9 
9 
9 
9 
9 
9 
9 
9 
9 
9 
9 
9 
9 
9 
9 
9 
9 
9 
9 
9 
9 
9 
9 
9 
9 
9 
9 
9 
9 
9 
9 
9 
9 
9 
9 
9 
9 
9 
9 
9 
9 
9 
9 
9 
9 
9 
9 
9 
9 
9 
9 
9 
9 
9 
9 
9 
9 
9 
9 
9 
9 
9 
9 
9 
9 
9 
9 
9 
9 
9 
9 
9 
9 
9 
9 
9 
9 
9 
9 
9 
9 
9 
9 
9 
9 
9 
9 
9 
9 
9 
9 
9 
9 
9 
9 
9 
9 
9 
9 
9 
9 
9 
9 
9 
9 
9 
9 
9 
9 
9 
9 
9 
9 
9 
9 
9 
9 
9 
9 
9 
9 
9 
9 
9 
9 
9 
9 
9 
9 
9 
9 
9 
9 
9 
9 
9 
9 
9 
9 
9 
9 
9 
9 
9 
9 
9 
9 
9 
9 
9 
9 
9 
9 
9 
9 
9 
9 
9 
9 
9 
9 
9 
9 
9 
9 
9 
9 
9 
9 
9 
9 
9 
9 
9 
9 
9 
9 
9 
9 
9 
9 
9 
9 
9 
9 
9 
9 
9 
9 
9 
9 
9 
9 
9 
9 
9 
9 
9 
9 
9 
9 
9 
9 
9 
9 
9 
9 
9 
9 
9 
9 
9 
9 
9 
9 
9 
9 
9 
9 
9 
9 
9 
9 
9 
9 
9 
9 
9 
9 
9 
9 
9 
9 
9 
9 
9 
9 
9 
9 
9 
9 
9 
9 
9 
9 
9 
9 
9 
9 
9 
9 
9 
9 
9 
9 
9 
9 
9 
9 
9 
9 
9 
9 
9 
9 
9 
9 
9 
9 
9 
9 
9 
9 
9 
9 
9 
9 
9 
9 
9 
9 
9 
9 
9 
9 
9 
9 
9 
9 
9 
9 
9 
9 
9 
9 
9 
9 
9 
9 
9 
9 
9 
9 
9 
9 
9 
9 
9 
9 
9 
9 
9 
9 
9 
9 
9 
9 
9 
9 
9 
9 
9 
9 
9 
9 
9 
9 
9 
9 
9 
9 
9 
9 
9 
9 
9 
9 
9 
9 
9 
9 
9 
9 
9 
9 
9 
9 
9 
9 
9 
9 
9 
9 
9 
9 
9 
9 
9 
9 
9 
9 
9 
9 
9 
9 
9 
9 
9 
9 
9 
9 
9 
9 
9 
9 
9 
9 
9 
9 
9 
9 
9 
9 
9 
9 
9 
9 
9 
9 
9 
9 
9 
9 
9 
9 
9 
9 
9 
9 
9 
9 
9 
9 
9 
9 
9 
9 
9 
9 
9 
9 
9 
9 
9 
9 
9 
9 
9 
9 
9 
9 
9 
9 
9 
9 
9 
9 
9 
9 
9 
9 
9 
9 
9 
9 
9 
9 
9 
9 
9 
9 
9 
9 
9 
9 
9 
9 
9 
9 
9 
9 
9 
9 
9 
9 
9 
9 
9 
9 
9 
9 
9 
9 
9 
9 
9 
9 
9 
9 
9 
9 
9 
9 
9 
9 
9 
9 
9 
9 
9 
9 
9 
9 
9 
9 
9 
9 
9 
9 
9 
9 
9 
9 
9 
9 
9 
9 
9 
9 
9 
9 
9 
9 
9 
9 
9 
9 
9 
9 
9 
9 
9 
9 
9 
9 
9 
9 
9 
9 
9 
9 
9 
9 
9 
9 
9 
9 
9 
9 
9 
9 
9 
9 
9 
9 
9 
9 
9 
9 
9 
9 
9 
9 
9 
9 
9 
9 
9 
9 
9 
9 
9 
9 
9 
9 
9 
9 
9 
9 
9 
9 
9 
9 
9 
9 
9 
9 
9 
9 
9 
9 
9 
9 
9 
9 
9 
9 
9 
9 
9 
9 
9 
9 
9 
9 
9 
9 
9 
9 
9 
9 
9 
9 
9 
9 
9 
9 
9 
9 
9 
9 
9 
9 
9 
9 
9 
9 
9 
9 
9 
9 
9 
9 
9 
9 
9 
9 
9 
9 
9 
9 
9 
9 
9 
9 
9 
9 
9 
9 
9 
9 
9 
9 
9 
9 
9 
9 
9 
9 
9 
9 
9 
9 
9 
9 
9 
9 
9 
9 
9 
9 
9 
9 
9 
9 
9 
9 
9 
9 
9 
9 
9 
9 
9 
9 
9 
9 
9 
9 
9 
9 
9 
9 
9 
9 
9 
9 
9 
9 
9 
9 
9 
9 
9 
9 
9 
9 
9 
9 
9 
9 
9 
9 
9 
9 
9 
9 
9 
9 
9 
9 
9 
9 
9 
9 
9 
9 
9 
9 
9 
9 
9 
9 
9 
9 
9 
9 
9 
9 
9 
9 
9 
9 
9 
9 
9 
9 
9 
9 
9 
9 
9 
9 
9 
9 
9 
9 
9 
9 
9 
9 
9 
9 
9 
9 
9 
9 
9 
9 
9 
9 
9 
9 
9 
9 
9 
9 
9 
9 
9 
9 
9 
9 
9 
9 
9 
9 
9 
9 
9 
9 
9 
9 
9 
9 
9 
9 
9 
9 
9 
9 
9 
9 
9 
9 
9 
9 
9 
9 
9 
9 
9 
9 
9 
9 
9 
9 
9 
9 
9 
9 
9 
9 
9 
9 
9 
9 
9 
9 
9 
9 
9 
9 
9 
9 
9 
9 
9 
9 
9 
9 
9 
9 
9 
9 
9 
9 
9 
9 
9 
9 
9 
9 
9 
9 
9 
9 
9 
9 
9 
9 
9 
9 
9 
9 
9 
9 
9 
9 
9 
9 
9 
9 
9 
9 
9 
9 
9 
9 
9 
9 
9 
9 
9 
9 
9 
9 
9 
9 
9 
9 
9 
9 
9 
9 
9 
9 
9 
9 
9 
9 
9 
9 
9 
9 
9 
9 
9 
9 
9 
9 
9 
9 
9 
9 
9 
9 
9 
9 
9 
9 
9 
9 
9 
9 
9 
9 
9 
9 
9 
9 
9 
9 
9 
9 
9 
9 
9 
9 
9 
9 
9 
9 
9 
9 
9 
9 
9 
9 
9 
9 
9 
9 
9 
9 
9 
9 
9 
9 
9 
9 
9 
9 
9 
9 
9 
9 
9 
9 
9 
9 
9 
9 
9 
9 
9 
9 
9 
9 
9 
9 
9 
9 
9 
9 
9 
9 
9 
9 
9 
9 
9 
9 
9 
9 
9 
9 
9 
9 
9 
9 
9 
9 
9 
9 
9 
9 
9 
9 
9 
9 
9 
9 
9 
9 
9 
9 
9 
9 
9 
9 
9 
9 
9 
9 
9 
9 
9 
9 
9 
9 
9 
9 
9 
9 
9 
9 
9 
9 
9 
9 
9 
9 
9 
9 
9 
9 
9 
9 
9 
9 
9 
9 
9 
9 
9 
9 
9 
9 
9 
9 
9 
9 
9 
9 
9 
9 
9 
9 
9 
9 
9 
9 
9 
9 
9 
9 
9 
9 
9 
9 
9 
9 
9 
9 
9 
9 
9 
9 
9 
9 
9 
9 
9 
9 
9 
9 
9 
9 
9 
9 
9 
9 
9 
9 
9 
9 
9 
9 
9 
9 
9 
9 
9 
9 
9 
9 
9 
9 
9 
9 
9 
9 
9 
9 
9 
9 
9 
9 
9 
9 
9 
9 
9 
9 
9 
9 
9 
9 
9 
9 
9 
9 
9 
9 
9 
9 
9 
9 
9 
9 
9 
9 
9 
9 
9 
9 
9 
9 
9 
9 
9 
9 
9 
9 
9 
9 
9 
9 
9 
9 
9 
9 
9 
9 
9 
9 
9 
9 
9 
9 
9 
9 
9 
9 
9 
9 
9 
9 
9 
9 
9 
9 
9 
9 
9 
9 
9 
9 
9 
9 
9 
9 
9 
9 
9 
9 
9 
9 
9 
9 
9 
9 
9 
9 
9 
9 
9 
9 
9 
9 
9 
9 
9 
9 
9 
9 
9 
9 
9 
9 
9 
9 
9 
9 
9 
9 
9 
9 
9 
9 
9 
9 
9 
9 
9 
9 
9 
9 
9 
9 
9 
9 
9 
9 
9 
9 
9 
9 
9 
9 
9 
9 
9 
9 
9 
9 
9 
9 
9 
9 
9 
9 
9 
9 
9 
9 
9 
9 
9 
9 
9 
9 
9 
9 
9 
9 
9 
9 
9 
9 
9 
9 
9 
9 
9 
9 
9 
9 
9 
9 
9 
9 
9 
9 
9 
9 
9 
9 
9 
9 
9 
9 
9 
9 
9 
9 
9 
9 
9 
9 
9 
9 
9 
9 
9 
9 
9 
9 
9 
9 
9 
9 
9 
9 
9 
9 
9 
9 
9 
9 
9 
9 
9 
9 
9 
9 
9 
9 
9 
9 
9 
9 
9 
9 
9 
9 
9 
9 
9 
9 
9 
9 
9 
9 
9 
9 
9 
9 
9 
9 
9 
9 
9 
9 
9 
9 
9 
9 
9 
9 
9 
9 
9 
9 
9 
9 
9 
9 
9 
9 
9 
9 
9 
9 
9 
9 
9 
9 
9 
9 
9 
9 
9 
9 
9 
9 
9 
9 
9 
9 
9 
9 
9 
9 
9 
9 
9 
9 
9 
9 
9 
9 
9 
9 
9 
9 
9 
9 
9 
9 
9 
9 
9 
9 
9 
9 
9 
9 
9 
9 
9 
9 
9 
9 
9 
9 
9 
9 
9 
9 
9 
9 
9 
9 
9 
9 
9 
9 
9 
9 
9 
9 
9 
9 
9 
9 
9 
9 
9 
9 
9 
9 
9 
9 
9 
9 
9 
9 
9 
9 
9 
9 
9 
9 
9 
9 
9 
9 
9 
9 
9 
9 
9 
9 
9 
9 
9 
9 
9 
9 
9 
9 
9 
9 
9 
9 
9 
9 
9 
9 
9 
9 
9 
9 
9 
9 
9 
9 
9 
9 
9 
9 
9 
9 
9 
9 
9 
9 
9 
9 
9 
9 
9 
9 
9 
9 
9 
9 
9 
9 
9 
9 
9 
9 
9 
9 
9 
9 
9 
9 
9 
9 
9 
9 
9 
9 
9 
9 
9 
9 
9 
9 
9 
9 
9 
9 
9 
9 
9 
9 
9 
9 
9 
9 
9 
9 
9 
9 
9 
9 
9 
9 
9 
9 
9 
9 
9 
9 
9 
9 
9 
9 
9 
9 
9 
9 
9 
9 
9 
9 
9 
9 
9 
9 
9 
9 
9 
9 
9 
9 
9 
9 
9 
9 
9 
9 
9 
9 
9 
9 
9 
9 
9 
9 
9 
9 
9 
9 
9 
9 
9 
9 
9 
9 
9 
9 
9 
9 
9 
9 
9 
9 
9 
9 
9 
9 
9 
9 
9 
9 
9 
9 
9 
9 
9 
9 
9 
9 
9 
9 
9 
9 
9 
9 
9 
9 
9 
9 
9 
9 
9 
9 
9 
9 
9 
9 
9 
9 
9 
9 
9 
9 
9 
9 
9 
9 
9 
9 
9 
9 
9 
9 
9 
9 
9 
9 
9 
9 
9 
9 
9 
9 
9 
9 
9 
9 
9 
9 
9 
9 
9 
9 
9 
9 
9 
9 
9 
9 
9 
9 
9 
9 
9 
9 
9 
9 
9 
9 
9 
9 
9 
9 
9 
9 
9 
9 
9 
9 
9 
9 
9 
9 
9 
9 
9 
9 
9 
9 
9 
9 
9 
9 
9 
9 
9 
9 
9 
9 
9 
9 
9 
9 
9 
9 
9 
9 
9 
9 
9 
9 
9 
9 
9 
9 
9 
9 
9 
9 
9 
9 
9 
9 
9 
9 
9 
9 
9 
9 
9 
9 
9 
9 
9 
9 
9 
9 
9 
9 
9 
9 
9 
9 
9 
9 
9 
9 
9 
9 
9 
9 
9 
9 
9 
9 
9 
9 
9 
9 
9 
9 
9 
9 
9 
9 
9 
9 
9 
9 
9 
9 
9 
9 
9 
9 
9 
9 
9 
9 
9 
9 
9 
9 
9 
9 
9 
9 
9 
9 
9 
9 
9 
9 
9 
9 
9 
9 
9 
9 
9 
9 
9 
9 
9 
9 
9 
9 
9 
9 
9 
9 
9 
9 
9 
9 
9 
9 
9 
9 
9 
9 
9 
9 
9 
9 
9 
9 
9 
9 
9 
9 
9 
9 
9 
9 
9 
9 
9 
9 
9 
9 
9 
9 
9 
9 
9 
9 
9 
9 
9 
9 
9 
9 
9 
9 
9 
9 
9 
9 
9 
9 
9 
9 
9 
9 
9 
9 
9 
9 
9 
9 
9 
9 
9 
9 
9 
9 
9 
9 
9 
9 
9 
9 
9 
9 
9 
9 
9 
9 
9 
9 
9 
9 
9 
9 
9 
9 
9 
9 
9 
9 
9 
9 
9 
9 
9 
9 
9 
9 
9 
9 
9 
9 
9 
9 
9 
9 
9 
9 
9 
9 
9 
9 
9 
9 
9 
9 
9 
9 
9 
9 
9 
9 
9 
9 
9 
9 
9 
9 
9 
9 
9 
9 
9 
9 
9 
9 
9 
9 
9 
9 
9 
9 
9 
9 
9 
9 
9 
9 
9 
9 
9 
9 
9 
9 
9 
9 
9 
9 
9 
9 
9 
9 
9 
9 
9 
9 
9 
9 
9 
9 
9 
9 
9 
9 
9 
9 
9 
9 
9 
9 
9 
9 
9 
9 
9 
9 
9 
9 
9 
9 
9 
9 
9 
9 
9 
9 
9 
9 
9 
9 
9 
9 
9 
9 
9 
9 
9 
9 
9 
9 
9 
9 
9 
9 
9 
9 
9 
9 
9 
9 
9 
9 
9 
9 
9 
9 
9 
9 
9 
9 
9 
9 
9 
9 
9 
9 
9 
9 
9 
9 
9 
9 
9 
9 
9 
9 
9 
9 
9 
9 
9 
9 
9 
9 
9 
9 
9 
9 
9 
9 
9 
9 
9 
9 
9 
9 
9 
9 
9 
9 
9 
9 
9 
9 
9 
9 
9 
9 
9 
9 
9 
9 
9 
9 
9 
9 
9 
9 
9 
9 
9 
9 
9 
9 
9 
9 
9 
9 
9 
9 
9 
9 
9 
9 
9 
9 
9 
9 
9 
9 
9 
9 
9 
9 
9 
9 
9 
9 
9 
9 
9 
9 
9 
9 
9 
9 
9 
9 
9 
9 
9 
9 
9 
9 
9 
9 
9 
9 
9 
9 
9 
9 
9 
9 
9 
9 
9 
9 
9 
9 
9 
9 
9 
9 
9 
9 
9 
9 
9 
9 
9 
9 
9 
9 
9 
9 
9 
9 
9 
9 
9 
9 
9 
9 
9 
9 
9 
9 
9 
9 
9 
9 
9 
9 
9 
9 
9 
9 
9 
9 
9 
9 
9 
9 
9 
9 
9 
9 
9 
9 
9 
9 
9 
9 
9 
9 
9 
9 
9 
9 
9 
9 
9 
9 
9 
9 
9 
9 
9 
9 
9 
9 
9 
9 
9 
9 
9 
9 
9 
9 
9 
9 
9 
9 
9 
9 
9 
9 
9 
9 
9 
9 
9 
9 
9 
9 
9 
9 
9 
9 
9 
9 
9 
9 
9 
9 
9 
9 
9 
9 
9 
9 
9 
9 
9 
9 
9 
9 
9 
9 
9 
9 
9 
9 
9 
9 
9 
9 
9 
9 
9 
9 
9 
9 
9 
9 
9 
9 
9 
9 
9 
9 
9 
9 
9 
9 
9 
9 
9 
9 
9 
9 
9 
9 
9 
9 
9 
9 
9 
9 
9 
9 
9 
9 
9 
9 
9 
9 
9 
9 
9 
9 
9 
9 
9 
9 
9 
9 
9 
9 
9 
9 
9 
9 
9 
9 
9 
9 
9 
9 
9 
9 
9 
9 
9 
9 
9 
9 
9 
9 
9 
9 
9 
9 
9 
9 
9 
9 
9 
9 
9 
9 
9 
9 
9 
9 
9 
9 
9 
9 
9 
9 
9 
9 
9 
9 
9 
9 
9 
9 
9 
9 
9 
9 
9 
9 
9 
9 
9 
9 
9 
9 
9 
9 
9 
9 
9 
9 
9 
9 
9 
9 
9 
9 
9 
9 
9 
9 
9 
9 
9 
9 
9 
9 
9 
9 
9 
9 
9 
9 
9 
9 
9 
9 
9 
9 
9 
9 
9 
9 
9 
9 
9 
9 
9 
9 
9 
9 
9 
9 
9 
9 
9 
9 
9 
9 
9 
9 
9 
9 
9 
9 
9 
9 
9 
9 
9 
9 
9 
9 
9 
9 
9 
9 
9 
9 
9 
9 
9 
9 
9 
9 
9 
9 
9 
9 
9 
9 
9 
9 
9 
9 
9 
9 
9 
9 
9 
9 
9 
9 
9 
9 
9 
9 
9 
9 
9 
9 
9 
9 
9 
9 
9 
9 
9 
9 
9 
9 
9 
9 
9 
9 
9 
9 
9 
9 
9 
9 
9 
9 
9 
9 
9 
9 
9 
9 
9 
9 
9 
9 
9 
9 
9 
9 
9 
9 
9 
9 
9 
9 
9 
9 
9 
9 
9 
9 
9 
9 
9 
9 
9 
9 
9 
9 
9 
9 
9 
9 
9 
9 
9 
9 
9 
9 
9 
9 
9 
9 
9 
9 
9 
9 
9 
9 
9 
9 
9 
9 
9 
9 
9 
9 
9 
9 
9 
9 
9 
9 
9 
9 
9 
9 
9 
9 
9 
9 
9 
9 
9 
9 
9 
9 
9 
9 
9 
9 
9 
9 
9 
9 
9 
9 
9 
9 
9 
9 
9 
9 
9 
9 
9 
9 
9 
9 
9 
9 
9 
9 
9 
9 
9 
9 
9 
9 
9 
9 
9 
9 
9 
9 
9 
9 
9 
9 
9 
9 
9 
9 
9 
9 
9 
9 
9 
9 
9 
9 
9 
9 
9 
9 
9 
9 
9 
9 
9 
9 
9 
9 
9 
9 
9 
9 
9 
9 
9 
9 
9 
9 
9 
9 
9 
9 
9 
9 
9 
9 
9 
9 
9 
9 
9 
9 
9 
9 
9 
9 
9 
9 
9 
9 
9 
9 
9 
9 
9 
9 
9 
9 
9 
9 
9 
9 
9 
9 
9 
9 
9 
9 
9 
9 
9 
9 
9 
9 
9 
9 
9 
9 
9 
9 
9 
9 
9 
9 
9 
9 
9 
9 
9 
9 
9 
9 
9 
9 
9 
9 
9 
9 
9 
9 
9 
9 
9 
9 
9 
9 
9 
9 
9 
9 
9 
9 
9 
9 
9 
9 
9 
9 
9 
9 
9 
9 
9 
9 
9 
9 
9 
9 
9 
9 
9 
9 
9 
9 
9 
9 
9 
9 
9 
9 
9 
9 
9 
9 
9 
9 
9 
9 
9 
9 
9 
9 
9 
9 
9 
9 
9 
9 
9 
9 
9 
9 
9 
9 
9 
9 
9 
9 
9 
9 
9 
9 
9 
9 
9 
9 
9 
9 
9 
9 
9 
9 
9 
9 
9 
9 
9 
9 
9 
9 
9 
9 
9 
9 
9 
9 
9 
9 
9 
9 
9 
9 
9 
9 
9 
9 
9 
9 
9 
9 
9 
9 
9 
9 
9 
9 
9 
9 
9 
9 
9 
9 
9 
9 
9 
9 
9 
9 
9 
9 
9 
9 
9 
9 
9 
9 
9 
9 
9 
9 
9 
9 
9 
9 
9 
9 
9 
9 
9 
9 
9 
9 
9 
9 
9 
9 
9 
9 
9 
9 
9 
9 
9 
9 
9 
9 
9 
9 
9 
9 
9 
9 
9 
9 
9 
9 
9 
9 
9 
9 
9 
9 
9 
9 
9 
9 
9 
9 
9 
9 
9 
9 
9 
9 
9 
9 
9 
9 
9 
9 
9 
9 
9 
9 
9 
9 
9 
9 
9 
9 
9 
9 
9 
9 
9 
9 
9 
9 
9 
9 
9 
9 
9 
9 
9 
9 
9 
9 
9 
9 
9 
9 
9 
9 
9 
9 
9 
9 
9 
9 
9 
9 
9 
9 
9 
9 
9 
9 
9 
9 
9 
9 
9 
9 
9 
9 
9 
9 
9 
9 
9 
9 
9 
9 
9 
9 
9 
9 
9 
9 
9 
9 
9 
9 
9 
9 
9 
9 
9 
9 
9 
9 
9 
9 
9 
9 
9 
9 
9 
9 
9 
9 
9 
9 
9 
9 
9 
9 
9 
9 
9 
9 
9 
9 
9 
9 
9 
9 
9 
9 
9 
9 
9 
9 
9 
9 
9 
9 
9 
9 
9 
9 
9 
9 
9 
9 
9 
9 
9 
9 
9 
9 
9 
9 
9 
9 
9 
9 
9 
9 
9 
9 
9 
9 
9 
9 
9 
9 
9 
9 
9 
9 
9 
9 
9 
9 
9 
9 
9 
9 
9 
9 
9 
9 
9 
9 
9 
9 
9 
9 
9 
9 
9 
9 
9 
9 
9 
9 
9 
9 
9 
9 
9 
9 
9 
9 
9 
9 
9 
9 
9 
9 
9 
9 
9 
9 
9 
9 
9 
9 
9 
9 
9 
9 
9 
9 
9 
9 
9 
9 
9 
9 
9 
9 
9 
9 
9 
9 
9 
9 
9 
9 
9 
9 
9 
9 
9 
9 
9 
9 
9 
9 
9 
9 
9 
9 
9 
9 
9 
9 
9 
9 
9 
9 
9 
9 
9 
9 
9 
9 
9 
9 
9 
9 
9 
9 
9 
9 
9 
9 
9 
9 
9 
9 
9 
9 
9 
9 
9 
9 
9 
9 
9 
9 
9 
9 
9 
9 
9 
9 
9 
9 
9 
9 
9 
9 
9 
9 
9 
9 
9 
9 
9 
9 
9 
9 
9 
9 
9 
9 
9 
9 
9 
9 
9 
9 
9 
9 
9 
9 
9 
9 
9 
9 
9 
9 
9 
9 
9 
9 
9 
9 
9 
9 
9 
9 
9 
9 
9 
9 
9 
9 
9 
9 
9 
9 
9 
9 
9 
9 
9 
9 
9 
9 
9 
9 
9 
9 
9 
9 
9 
9 
9 
9 
9 
9 
9 
9 
9 
9 
9 
9 
9 
9 
9 
9 
9 
9 
9 
9 
9 
9 
9 
9 
9 
9 
9 
9 
9 
9 
9 
9 
9 
9 
9 
9 
9 
9 
9 
9 
9 
9 
9 
9 
9 
9 
9 
9 
9 
9 
9 
9 
9 
9 
9 
9 
9 
9 
9 
9 
9 
9 
9 
9 
9 
9 
9 
9 
9 
9 
9 
9 
9 
9 
9 
9 
9 
9 
9 
9 
9 
9 
9 
9 
9 
9 
9 
9 
9 
9 
9 
9 
9 
9 
9 
9 
9 
9 
9 
9 
9 
9 
9 
9 
9 
9 
9 
9 
9 
9 
9 
9 
9 
9 
9 
9 
9 
9 
9 
9 
9 
9 
9 
9 
9 
9 
9 
9 
9 
9 
9 
9 
9 
9 
9 
9 
9 
9 
9 
9 
9 
9 
9 
9 
9 
9 
9 
9 
9 
9 
9 
9 
9 
9 
9 
9 
9 
9 
9 
9 
9 
9 
9 
9 
9 
9 
9 
9 
9 
9 
9 
9 
9 
9 
9 
9 
9 
9 
9 
9 
9 
9 
9 
9 
9 
9 
9 
9 
9 
9 
9 
9 
9 
9 
9 
9 
9 
9 
9 
9 
9 
9 
9 
9 
9 
9 
9 
9 
9 
9 
9 
9 
9 
9 
9 
9 
9 
9 
9 
9 
9 
9 
9 
9 
9 
9 
9 
9 
9 
9 
9 
9 
9 
9 
9 
9 
9 
9 
9 
9 
9 
9 
9 
9 
9 
9 
9 
9 
9 
9 
9 
9 
9 
9 
9 
9 
9 
9 
9 
9 
9 
9 
9 
9 
9 
9 
9 
9 
9 
9 
9 
9 
9 
9 
9 
9 
9 
9 
9 
9 
9 
9 
9 
9 
9 
9 
9 
9 
9 
9 
9 
9 
9 
9 
9 
9 
9 
9 
9 
9 
9 
9 
9 
9 
9 
9 
9 
9 
9 
9 
9 
9 
9 
9 
9 
9 
9 
9 
9 
9 
9 
9 
9 
9 
9 
9 
9 
9 
9 
9 
9 
9 
9 
9 
9 
9 
9 
9 
9 
9 
9 
9 
9 
9 
9 
9 
9 
9 
9 
9 
9 
9 
9 
9 
9 
9 
9 
9 
9 
9 
9 
9 
9 
9 
9 
9 
9 
9 
9 
9 
9 
9 
9 
9 
9 
9 
9 
9 
9 
9 
9 
9 
9 
9 
9 
9 
9 
9 
9 
9 
9 
9 
9 
9 
9 
9 
9 
9 
9 
9 
9 
9 
9 
9 
9 
9 
9 
9 
9 
9 
9 
9 
9 
9 
9 
9 
9 
9 
9 
9 
9 
9 
9 
9 
9 
9 
9 
9 
9 
9 
9 
9 
9 
9 
9 
9 
9 
9 
9 
9 
9 
9 
9 
9 
9 
9 
9 
9 
9 
9 
9 
9 
9 
9 
9 
9 
9 
9 
9 
9 
9 
9 
9 
9 
9 
9 
9 
9 
9 
9 
9 
9 
9 
9 
9 
9 
9 
9 
9 
9 
9 
9 
9 
9 
9 
9 
9 
9 
9 
9 
9 
9 
9 
9 
9 
9 
9 
9 
9 
9 
9 
9 
9 
9 
9 
9 
9 
9 
9 
9 
9 
9 
9 
9 
9 
9 
9 
9 
9 
9 
9 
9 
9 
9 
9 
9 
9 
9 
9 
9 
9 
9 
9 
9 
9 
9 
9 
9 
9 
9 
9 
9 
9 
9 
9 
9 
9 
9 
9 
9 
9 
9 
9 
9 
9 
9 
9 
9 
9 
9 
9 
9 
9 
9 
9 
9 
9 
9 
9 
9 
9 
9 
9 
9 
9 
9 
9 
9 
9 
9 
9 
9 
9 
9 
9 
9 
9 
9 
9 
9 
9 
9 
9 
9 
9 
9 
9 
9 
9 
9 
9 
9 
9 
9 
9 
9 
9 
9 
9 
9 
9 
9 
9 
9 
9 
9 
9 
9 
9 
9 
9 
9 
9 
9 
9 
9 
9 
9 
9 
9 
9 
9 
9 
9 
9 
9 
9 
9 
9 
9 
9 
9 
9 
9 
9 
9 
9 
9 
9 
9 
9 
9 
9 
9 
9 
9 
9 
9 
9 
9 
9 
9 
9 
9 
9 
9 
9 
9 
9 
9 
9 
9 
9 
9 
9 
9 
9 
9 
9 
9 
9 
9 
9 
9 
9 
9 
9 
9 
9 
9 
9 
9 
9 
9 
9 
9 
9 
9 
9 
9 
9 
9 
9 
9 
9 
9 
9 
9 
9 
9 
9 
9 
9 
9 
9 
9 
9 
9 
9 
9 
9 
9 
9 
9 
9 
9 
9 
9 
9 
9 
9 
9 
9 
9 
9 
9 
9 
9 
9 
9 
9 
9 
9 
9 
9 
9 
9 
9 
9 
9 
9 
9 
9 
9 
9 
9 
9 
9 
9 
9 
9 
9 
9 
9 
9 
9 
9 
9 
9 
9 
9 
9 
9 
9 
9 
9 
9 
9 
9 
9 
9 
9 
9 
9 
9 
9 
9 
9 
9 
9 
9 
9 
9 
9 
9 
9 
9 
9 
9 
9 
9 
9 
9 
9 
9 
9 
9 
9 
9 
9 
9 
9 
9 
9 
9 
9 
9 
9 
9 
9 
9 
9 
9 
9 
9 
9 
9 
9 
9 
9 
9 
9 
9 
9 
9 
9 
9 
9 
9 
9 
9 
9 
9 
9 
9 
9 
9 
9 
9 
9 
9 
9 
9 
9 
9 
9 
9 
9 
9 
9 
9 
9 
9 
9 
9 
9 
9 
9 
9 
9 
9 
9 
9 
9 
9 
9 
9 
9 
9 
9 
9 
9 
9 
9 
9 
9 
9 
9 
9 
9 
9 
9 
9 
9 
9 
9 
9 
9 
9 
9 
9 
9 
9 
9 
9 
9 
9 
9 
9 
9 
9 
9 
9 
9 
9 
9 
9 
9 
9 
9 
9 
9 
9 
9 
9 
9 
9 
9 
9 
9 
9 
9 
9 
9 
9 
9 
9 
9 
9 
9 
9 
9 
9 
9 
9 
9 
9 
9 
9 
9 
9 
9 
9 
9 
9 
9 
9 
9 
9 
9 
9 
9 
9 
9 
9 
9 
9 
9 
9 
9 
9 
9 
9 
9 
9 
9 
9 
9 
9 
9 
9 
9 
9 
9 
9 
9 
9 
9 
9 
9 
9 
9 
9 
9 
9 
9 
9 
9 
9 
9 
9 
9 
9 
9 
9 
9 
9 
9 
9 
9 
9 
9 
9 
9 
9 
9 
9 
9 
9 
9 
9 
9 
9 
9 
9 
9 
9 
9 
9 
9 
9 
9 
9 
9 
9 
9 
9 
9 
9 
9 
9 
9 
9 
9 
9 
9 
9 
9 
9 
9 
9 
9 
9 
9 
9 
9 
9 
9 
9 
9 
9 
9 
9 
9 
9 
9 
9 
9 
9 
9 
9 
9 
9 
9 
9 
9 
9 
9 
9 
9 
9 
9 
9 
9 
9 
9 
9 
9 
9 
9 
9 
9 
9 
9 
9 
9 
9 
9 
9 
9 
9 
9 
9 
9 
9 
9 
9 
9 
9 
9 
9 
9 
9 
9 
9 
9 
9 
9 
9 
9 
9 
9 
9 
9 
9 
9 
9 
9 
9 
9 
9 
9 
9 
9 
9 
9 
9 
9 
9 
9 
9 
9 
9 
9 
9 
9 
9 
9 
9 
9 
9 
9 
9 
9 
9 
9 
9 
9 
9 
9 
9 
9 
9 
9 
9 
9 
9 
9 
9 
9 
9 
9 
9 
9 
9 
9 
9 
9 
9 
9 
9 
9 
9 
9 
9 
9 
9 
9 
9 
9 
9 
9 
9 
9 
9 
9 
9 
9 
9 
9 
9 
9 
9 
9 
9 
9 
9 
9 
9 
9 
9 
9 
9 
9 
9 
9 
9 
9 
9 
9 
9 
9 
9 
9 
9 
9 
9 
9 
9 
9 
9 
9 
9 
9 
9 
9 
9 
9 
9 
9 
9 
9 
9 
9 
9 
9 
9 
9 
9 
9 
9 
9 
9 
9 
9 
9 
9 
9 
9 
9 
9 
9 
9 
9 
9 
9 
9 
9 
9 
9 
9 
9 
9 
9 
9 
9 
9 
9 
9 
9 
9 
9 
9 
9 
9 
9 
9 
9 
9 
9 
9 
9 
9 
9 
9 
9 
9 
9 
9 
9 
9 
9 
9 
9 
9 
9 
9 
9 
9 
9 
9 
9 
9 
9 
9 
9 
9 
9 
9 
9 
9 
9 
9 
9 
9 
9 
9 
9 
9 
9 
9 
9 
9 
9 
9 
9 
9 
9 
9 
9 
9 
9 
9 
9 
9 
9 
9 
9 
9 
9 
9 
9 
9 
9 
9 
9 
9 
9 
9 
9 
9 
9 
9 
9 
9 
9 
9 
9 
9 
9 
9 
9 
9 
9 
9 
9 
9 
9 
9 
9 
9 
9 
9 
9 
9 
9 
9 
9 
9 
9 
9 
9 
9 
9 
9 
9 
9 
9 
9 
9 
9 
9 
9 
9 
9 
9 
9 
9 
9 
9 
9 
9 
9 
9 
9 
9 
9 
9 
9 
9 
9 
9 
9 
9 
9 
9 
9 
9 
9 
9 
9 
9 
9 
9 
9 
9 
9 
9 
9 
9 
9 
9 
9 
9 
9 
9 
9 
9 
9 
9 
9 
9 
9 
9 
9 
9 
9 
9 
9 
9 
9 
9 
9 
9 
9 
9 
9 
9 
9 
9 
9 
9 
9 
9 
9 
9 
9 
9 
9 
9 
9 
9 
9 
9 
9 
9 
9 
9 
9 
9 
9 
9 
9 
9 
9 
9 
9 
9 
9 
9 
9 
9 
9 
9 
9 
9 
9 
9 
9 
9 
9 
9 
9 
9 
9 
9 
9 
9 
9 
9 
9 
9 
9 
9 
9 
9 
9 
9 
9 
9 
9 
9 
9 
9 
9 
9 
9 
9 
9 
9 
9 
9 
9 
9 
9 
9 
9 
9 
9 
9 
9 
9 
9 
9 
9 
9 
9 
9 
9 
9 
9 
9 
9 
9 
9 
9 
9 
9 
9 
9 
9 
9 
9 
9 
9 
9 
9 
9 
9 
9 
9 
9 
9 
9 
9 
9 
9 
9 
9 
9 
9 
9 
9 
9 
9 
9 
9 
9 
9 
9 
9 
9 
9 
9 
9 
9 
9 
9 
9 
9 
9 
9 
9 
9 
9 
9 
9 
9 
9 
9 
9 
9 
9 
9 
9 
9 
9 
9 
9 
9 
9 
9 
9 
9 
9 
9 
9 
9 
9 
9 
9 
9 
9 
9 
9 
9 
9 
9 
9 
9 
9 
9 
9 
9 
9 
9 
9 
9 
9 
9 
9 
9 
9 
9 
9 
9 
9 
9 
9 
9 
9 
9 
9 
9 
9 
9 
9 
9 
9 
9 
9 
9 
9 
9 
9 
9 
9 
9 
9 
9 
9 
9 
9 
9 
9 
9 
9 
9 
9 
9 
9 
9 
9 
9 
9 
9 
9 
9 
9 
9 
9 
9 
9 
9 
9 
9 
9 
9 
9 
9 
9 
9 
9 
9 
9 
9 
9 
9 
9 
9 
9 
9 
9 
9 
9 
9 
9 
9 
9 
9 
9 
9 
9 
9 
9 
9 
9 
9 
9 
9 
9 
9 
9 
9 
9 
9 
9 
9 
9 
9 
9 
9 
9 
9 
9 
9 
9 
9 
9 
9 
9 
9 
9 
9 
9 
9 
9 
9 
9 
9 
9 
9 
9 
9 
9 
9 
9 
9 
9 
9 
9 
9 
9 
9 
9 
9 
9 
9 
9 
9 
9 
9 
9 
9 
9 
9 
9 
9 
9 
9 
9 
9 
9 
9 
9 
9 
9 
9 
9 
9 
9 
9 
9 
9 
9 
9 
9 
9 
9 
9 
9 
9 
9 
9 
9 
9 
9 
9 
9 
9 
9 
9 
9 
9 
9 
9 
9 
9 
9 
9 
9 
9 
9 
9 
9 
9 
9 
9 
9 
9 
9 
9 
9 
9 
9 
9 
9 
9 
9 
9 
9 
9 
9 
9 
9 
9 
9 
9 
9 
9 
9 
9 
9 
9 
9 
9 
9 
9 
9 
9 
9 
9 
9 
9 
9 
9 
9 
9 
9 
9 
9 
9 
9 
9 
9 
9 
9 
9 
9 
9 
9 
9 
9 
9 
9 
9 
9 
9 
9 
9 
9 
9 
9 
9 
9 
9 
9 
9 
9 
9 
9 
9 
9 
9 
9 
9 
9 
9 
9 
9 
9 
9 
9 
9 
9 
9 
9 
9 
9 
9 
9 
9 
9 
9 
9 
9 
9 
9 
9 
9 
9 
9 
9 
9 
9 
9 
9 
9 
9 
9 
9 
9 
9 
9 
9 
9 
9 
9 
9 
9 
9 
9 
9 
9 
9 
9 
9 
9 
9 
9 
9 
9 
9 
9 
9 
9 
9 
9 
9 
9 
9 
9 
9 
9 
9 
9 
9 
9 
9 
9 
9 
9 
9 
9 
9 
9 
9 
9 
9 
9 
9 
9 
9 
9 
9 
9 
9 
9 
9 
9 
9 
9 
9 
9 
9 
9 
9 
9 
9 
9 
9 
9 
9 
9 
9 
9 
9 
9 
9 
9 
9 
9 
9 
9 
9 
9 
9 
9 
9 
9 
9 
9 
9 
9 
9 
9 
9 
9 
9 
9 
9 
9 
9 
9 
9 
9 
9 
9 
9 
9 
9 
9 
9 
9 
9 
9 
9 
9 
9 
9 
9 
9 
9 
9 
9 
9 
9 
9 
9 
9 
9 
9 
9 
9 
9 
9 
9 
9 
9 
9 
9 
9 
9 
9 
9 
9 
9 
9 
9 
9 
9 
9 
9 
9 
9 
9 
9 
9 
9 
9 
9 
9 
9 
9 
9 
9 
9 
9 
9 
9 
9 
9 
9 
9 
9 
9 
9 
9 
9 
9 
9 
9 
9 
9 
9 
9 
9 
9 
9 
9 
9 
9 
9 
9 
9 
9 
9 
9 
9 
9 
9 
9 
9 
9 
9 
9 
9 
9 
9 
9 
9 
9 
9 
9 
9 
9 
9 
9 
9 
9 
9 
9 
9 
9 
9 
9 
9 
9 
9 
9 
9 
9 
9 
9 
9 
9 
9 
9 
9 
9 
9 
9 
9 
9 
9 
9 
9 
9 
9 
9 
9 
9 
9 
9 
9 
9 
9 
9 
9 
9 
9 
9 
9 
9 
9 
9 
9 
9 
9 
9 
9 
9 
9 
9 
9 
9 
9 
9 
9 
9 
9 
9 
9 
9 
9 
9 
9 
9 
9 
9 
9 
9 
9 
9 
9 
9 
9 
9 
9 
9 
9 
9 
9 
9 
9 
9 
9 
9 
9 
9 
9 
9 
9 
9 
9 
9 
9 
9 
9 
9 
9 
9 
9 
9 
9 
9 
9 
9 
9 
9 
9 
9 
9 
9 
9 
9 
9 
9 
9 
9 
9 
9 
9 
9 
9 
9 
9 
9 
9 
9 
9 
9 
9 
9 
9 
9 
9 
9 
9 
9 
9 
9 
9 
9 
9 
9 
9 
9 
9 
9 
9 
9 
9 
9 
9 
9 
9 
9 
9 
9 
9 
9 
9 
9 
9 
9 
9 
9 
9 
9 
9 
9 
9 
9 
9 
9 
9 
9 
9 
9 
9 
9 
9 
9 
9 
9 
9 
9 
9 
9 
9 
9 
9 
9 
9 
9 
9 
9 
9 
9 
9 
9 
9 
9 
9 
9 
9 
9 
9 
9 
9 
9 
9 
9 
9 
9 
9 
9 
9 
9 
9 
9 
9 
9 
9 
9 
9 
9 
9 
9 
9 
9 
9 
9 
9 
9 
9 
9 
9 
9 
9 
9 
9 
9 
9 
9 
9 
9 
9 
9 
9 
9 
9 
9 
9 
9 
9 
9 
9 
9 
9 
9 
9 
9 
9 
9 
9 
9 
9 
9 
9 
9 
9 
9 
9 
9 
9 
9 
9 
9 
9 
9 
9 
9 
9 
9 
9 
9 
9 
9 
9 
9 
9 
9 
9 
9 
9 
9 
9 
9 
9 
9 
9 
9 
9 
9 
9 
9 
9 
9 
9 
9 
9 
9 
9 
9 
9 
9 
9 
9 
9 
9 
9 
9 
9 
9 
9 
9 
9 
9 
9 
9 
9 
9 
9 
9 
9 
9 
9 
9 
9 
9 
9 
9 
9 
9 
9 
9 
9 
9 
9 
9 
9 
9 
9 
9 
9 
9 
9 
9 
9 
9 
9 
9 
9 
9 
9 
9 
9 
9 
9 
9 
9 
9 
9 
9 
9 
9 
9 
9 
9 
9 
9 
9 
9 
9 
9 
9 
9 
9 
9 
9 
9 
9 
9 
9 
9 
9 
9 
9 
9 
9 
9 
9 
9 
9 
9 
9 
9 
9 
9 
CELL_DATA 6400 
FIELD FieldData 2 
density 1 6400 float
0.001000 
0.001000 
0.001000 
0.001000 
0.001000 
0.001000 
0.001000 
0.001000 
0.001000 
0.001000 
0.001000 
0.001000 
0.001000 
0.001000 
0.001000 
0.001000 
0.001000 
0.001000 
0.001000 
0.001000 
0.001025 
0.002489 
0.020434 
0.117365 
0.418486 
0.773223 
0.960581 
0.999628 
0.999783 
0.999846 
0.999872 
0.999880 
0.999879 
0.999874 
0.999870 
0.999869 
0.999870 
0.999871 
0.999873 
0.999874 
0.999874 
0.999875 
0.999875 
0.999875 
0.999875 
0.999876 
0.999876 
0.999876 
0.999877 
0.999878 
0.999879 
0.999880 
0.999880 
0.999881 
0.999882 
0.999882 
0.999883 
0.999883 
0.999883 
0.999883 
0.999882 
0.999882 
0.999882 
0.999881 
0.999880 
0.999879 
0.999878 
0.999877 
0.999876 
0.999874 
0.999873 
0.999871 
0.999869 
0.999866 
0.999864 
0.999861 
0.999857 
0.999854 
0.999850 
0.999847 
0.999844 
0.999841 
0.999841 
0.999842 
0.999845 
0.999848 
0.999852 
0.999857 
0.999861 
0.999865 
0.999869 
0.999872 
0.999874 
0.999874 
0.999871 
0.999864 
0.999859 
0.999856 
0.999854 
0.999849 
0.001000 
0.001000 
0.001000 
0.001000 
0.001000 
0.001000 
0.001000 
0.001000 
0.001000 
0.001000 
0.001000 
0.001000 
0.001000 
0.001000 
0.001000 
0.001000 
0.001000 
0.001000 
0.001000 
0.001036 
0.003822 
0.028380 
0.121025 
0.345649 
0.644671 
0.891101 
0.984335 
0.999699 
0.999792 
0.999834 
0.999853 
0.999860 
0.999862 
0.999862 
0.999862 
0.999864 
0.999866 
0.999867 
0.999867 
0.999866 
0.999865 
0.999865 
0.999865 
0.999865 
0.999865 
0.999866 
0.999866 
0.999867 
0.999868 
0.999868 
0.999869 
0.999870 
0.999871 
0.999872 
0.999873 
0.999875 
0.999876 
0.999877 
0.999877 
0.999878 
0.999879 
0.999879 
0.999879 
0.999880 
0.999880 
0.999880 
0.999880 
0.999879 
0.999879 
0.999878 
0.999878 
0.999877 
0.999876 
0.999875 
0.999873 
0.999872 
0.999870 
0.999868 
0.999866 
0.999864 
0.999863 
0.999862 
0.999862 
0.999863 
0.999865 
0.999867 
0.999870 
0.999873 
0.999877 
0.999880 
0.999882 
0.999885 
0.999886 
0.999887 
0.999885 
0.999881 
0.999877 
0.999873 
0.999867 
0.999859 
0.001000 
0.001000 
0.001000 
0.001000 
0.001000 
0.001000 
0.001000 
0.001000 
0.001000 
0.001000 
0.001000 
0.001000 
0.001000 
0.001000 
0.001000 
0.001000 
0.001000 
0.001000 
0.001030 
0.004618 
0.043869 
0.207257 
0.451158 
0.702110 
0.896234 
0.985313 
0.999686 
0.999753 
0.999783 
0.999793 
0.999792 
0.999793 
0.999803 
0.999817 
0.999827 
0.999834 
0.999837 
0.999836 
0.999833 
0.999828 
0.999825 
0.999823 
0.999822 
0.999822 
0.999822 
0.999823 
0.999824 
0.999825 
0.999826 
0.999827 
0.999828 
0.999829 
0.999831 
0.999833 
0.999836 
0.999839 
0.999842 
0.999845 
0.999849 
0.999852 
0.999854 
0.999857 
0.999859 
0.999861 
0.999863 
0.999865 
0.999867 
0.999868 
0.999870 
0.999871 
0.999872 
0.999873 
0.999874 
0.999874 
0.999875 
0.999875 
0.999875 
0.999876 
0.999876 
0.999876 
0.999876 
0.999876 
0.999877 
0.999877 
0.999879 
0.999880 
0.999882 
0.999883 
0.999885 
0.999886 
0.999888 
0.999889 
0.999891 
0.999891 
0.999891 
0.999889 
0.999887 
0.999881 
0.999870 
0.999857 
0.001000 
0.001000 
0.001000 
0.001000 
0.001000 
0.001000 
0.001000 
0.001000 
0.001000 
0.001000 
0.001000 
0.001000 
0.001000 
0.001000 
0.001000 
0.001000 
0.001000 
0.001031 
0.004645 
0.048119 
0.258086 
0.579521 
0.850034 
0.966559 
0.999671 
0.999718 
0.999743 
0.999747 
0.999726 
0.999670 
0.999565 
0.990080 
0.980254 
0.983851 
0.982088 
0.977213 
0.981646 
0.981207 
0.980940 
0.984495 
0.982522 
0.981440 
0.983251 
0.983694 
0.983615 
0.983678 
0.984034 
0.985903 
0.987711 
0.988972 
0.990868 
0.992251 
0.993849 
0.996593 
0.998531 
0.999236 
0.999493 
0.999600 
0.999659 
0.999696 
0.999723 
0.999743 
0.999759 
0.999772 
0.999784 
0.999793 
0.999802 
0.999809 
0.999816 
0.999822 
0.999827 
0.999832 
0.999837 
0.999841 
0.999845 
0.999848 
0.999852 
0.999855 
0.999858 
0.999860 
0.999862 
0.999864 
0.999865 
0.999866 
0.999866 
0.999867 
0.999867 
0.999867 
0.999867 
0.999867 
0.999868 
0.999868 
0.999869 
0.999869 
0.999870 
0.999869 
0.999867 
0.999859 
0.999842 
0.999823 
0.001000 
0.001000 
0.001000 
0.001000 
0.001000 
0.001000 
0.001000 
0.001000 
0.001000 
0.001000 
0.001000 
0.001000 
0.001000 
0.001000 
0.001000 
0.001000 
0.001031 
0.004672 
0.048420 
0.259136 
0.603148 
0.907071 
0.998991 
0.999635 
0.999681 
0.999703 
0.999700 
0.999651 
0.999517 
0.992161 
0.945626 
0.853064 
0.786452 
0.766978 
0.763379 
0.759032 
0.759236 
0.764249 
0.765838 
0.769524 
0.769056 
0.766751 
0.769240 
0.771616 
0.771958 
0.772161 
0.774666 
0.779674 
0.785474 
0.791231 
0.796570 
0.802307 
0.808810 
0.816730 
0.823341 
0.826572 
0.827750 
0.828210 
0.828430 
0.828559 
0.828645 
0.828706 
0.828754 
0.828792 
0.828823 
0.828849 
0.828872 
0.828893 
0.828912 
0.828930 
0.828947 
0.828964 
0.828981 
0.828998 
0.829018 
0.829040 
0.829067 
0.829103 
0.829154 
0.829242 
0.829431 
0.829979 
0.831680 
0.836631 
0.844004 
0.849958 
0.854686 
0.860191 
0.865630 
0.870729 
0.876210 
0.881516 
0.885807 
0.890840 
0.898490 
0.901672 
0.894122 
0.900535 
0.930376 
0.958500 
0.001000 
0.001000 
0.001000 
0.001000 
0.001000 
0.001000 
0.001000 
0.001000 
0.001000 
0.001000 
0.001000 
0.001000 
0.001000 
0.001000 
0.001000 
0.001080 
0.005145 
0.048583 
0.260083 
0.604771 
0.908093 
0.999015 
0.999563 
0.999584 
0.999584 
0.999559 
0.999453 
0.989603 
0.969875 
0.922779 
0.778324 
0.550598 
0.362755 
0.294488 
0.278875 
0.272314 
0.277982 
0.277130 
0.280398 
0.283713 
0.282063 
0.281196 
0.282968 
0.284692 
0.284933 
0.285469 
0.287069 
0.291234 
0.296096 
0.300139 
0.305189 
0.309436 
0.314861 
0.321507 
0.326815 
0.329593 
0.330608 
0.331002 
0.331187 
0.331295 
0.331366 
0.331417 
0.331456 
0.331488 
0.331515 
0.331539 
0.331560 
0.331580 
0.331599 
0.331619 
0.331638 
0.331660 
0.331683 
0.331709 
0.331741 
0.331781 
0.331832 
0.331906 
0.332023 
0.332246 
0.332802 
0.334459 
0.339431 
0.350247 
0.364837 
0.379116 
0.391730 
0.404616 
0.418023 
0.431414 
0.445194 
0.458491 
0.471114 
0.486056 
0.502212 
0.506254 
0.502658 
0.531589 
0.590272 
0.658440 
0.001000 
0.001000 
0.001000 
0.001000 
0.001000 
0.001000 
0.001000 
0.001000 
0.001000 
0.001000 
0.001000 
0.001000 
0.001000 
0.001003 
0.001364 
0.008668 
0.059344 
0.267980 
0.605496 
0.909084 
0.999513 
0.999566 
0.999520 
0.999414 
0.980131 
0.963018 
0.970075 
0.950338 
0.906729 
0.839479 
0.643865 
0.311539 
0.101234 
0.036582 
0.024525 
0.023217 
0.023234 
0.023713 
0.023867 
0.024224 
0.024180 
0.023957 
0.024198 
0.024429 
0.024462 
0.024482 
0.024726 
0.025219 
0.025796 
0.026374 
0.026916 
0.027504 
0.028178 
0.029009 
0.029711 
0.030056 
0.030183 
0.030232 
0.030256 
0.030270 
0.030280 
0.030287 
0.030292 
0.030297 
0.030302 
0.030306 
0.030309 
0.030313 
0.030317 
0.030321 
0.030326 
0.030331 
0.030337 
0.030344 
0.030353 
0.030364 
0.030380 
0.030402 
0.030438 
0.030508 
0.030686 
0.031219 
0.032841 
0.036269 
0.041438 
0.046567 
0.051470 
0.056741 
0.062360 
0.068274 
0.074547 
0.080914 
0.087150 
0.094710 
0.102832 
0.105416 
0.104523 
0.118693 
0.159360 
0.204443 
0.001000 
0.001000 
0.001000 
0.001000 
0.001000 
0.001000 
0.001000 
0.001000 
0.001000 
0.001000 
0.001000 
0.001000 
0.001010 
0.002026 
0.016096 
0.093721 
0.316109 
0.631075 
0.909372 
0.999664 
0.999652 
0.999570 
0.992733 
0.922651 
0.798948 
0.775260 
0.845918 
0.889865 
0.854703 
0.832814 
0.675497 
0.304723 
0.049908 
0.004198 
0.001291 
0.001150 
0.001163 
0.001162 
0.001161 
0.001172 
0.001166 
0.001163 
0.001168 
0.001170 
0.001170 
0.001170 
0.001171 
0.001177 
0.001183 
0.001187 
0.001193 
0.001198 
0.001203 
0.001213 
0.001220 
0.001222 
0.001223 
0.001224 
0.001224 
0.001224 
0.001224 
0.001224 
0.001224 
0.001224 
0.001224 
0.001224 
0.001225 
0.001225 
0.001225 
0.001225 
0.001225 
0.001225 
0.001225 
0.001225 
0.001226 
0.001226 
0.001226 
0.001227 
0.001228 
0.001229 
0.001234 
0.001247 
0.001290 
0.001397 
0.001576 
0.001789 
0.002011 
0.002271 
0.002578 
0.002922 
0.003316 
0.003735 
0.004168 
0.004725 
0.005382 
0.005556 
0.005401 
0.006723 
0.010928 
0.015385 
0.001000 
0.001000 
0.001000 
0.001000 
0.001000 
0.001000 
0.001000 
0.001000 
0.001000 
0.001000 
0.001000 
0.001025 
0.003286 
0.027431 
0.139556 
0.390717 
0.695588 
0.926830 
0.999740 
0.999736 
0.999670 
0.983268 
0.866639 
0.612220 
0.417282 
0.393337 
0.591615 
0.802871 
0.874382 
0.902254 
0.794677 
0.385358 
0.061388 
0.002772 
0.001003 
0.001000 
0.001000 
0.001000 
0.001000 
0.001000 
0.001000 
0.001000 
0.001000 
0.001000 
0.001000 
0.001000 
0.001000 
0.001000 
0.001000 
0.001000 
0.001000 
0.001000 
0.001000 
0.001000 
0.001000 
0.001000 
0.001000 
0.001000 
0.001000 
0.001000 
0.001000 
0.001000 
0.001000 
0.001000 
0.001000 
0.001000 
0.001000 
0.001000 
0.001000 
0.001000 
0.001000 
0.001000 
0.001000 
0.001000 
0.001000 
0.001000 
0.001000 
0.001000 
0.001000 
0.001000 
0.001000 
0.001000 
0.001000 
0.001000 
0.001000 
0.001001 
0.001001 
0.001002 
0.001003 
0.001004 
0.001006 
0.001008 
0.001009 
0.001012 
0.001017 
0.001019 
0.001014 
0.001019 
0.001069 
0.001135 
0.001000 
0.001000 
0.001000 
0.001000 
0.001000 
0.001000 
0.001000 
0.001000 
0.001000 
0.001000 
0.001031 
0.004416 
0.041566 
0.203918 
0.477681 
0.767223 
0.949092 
0.999764 
0.999779 
0.999741 
0.960522 
0.810417 
0.521500 
0.235866 
0.090294 
0.107270 
0.308169 
0.672822 
0.902765 
0.960911 
0.868576 
0.474925 
0.089008 
0.004342 
0.001006 
0.001000 
0.001000 
0.001000 
0.001000 
0.001000 
0.001000 
0.001000 
0.001000 
0.001000 
0.001000 
0.001000 
0.001000 
0.001000 
0.001000 
0.001000 
0.001000 
0.001000 
0.001000 
0.001000 
0.001000 
0.001000 
0.001000 
0.001000 
0.001000 
0.001000 
0.001000 
0.001000 
0.001000 
0.001000 
0.001000 
0.001000 
0.001000 
0.001000 
0.001000 
0.001000 
0.001000 
0.001000 
0.001000 
0.001000 
0.001000 
0.001000 
0.001000 
0.001000 
0.001000 
0.001000 
0.001000 
0.001000 
0.001000 
0.001000 
0.001000 
0.001000 
0.001000 
0.001000 
0.001000 
0.001000 
0.001000 
0.001000 
0.001000 
0.001000 
0.001000 
0.001000 
0.001000 
0.001000 
0.001000 
0.001000 
0.001000 
0.001000 
0.001000 
0.001000 
0.001000 
0.001000 
0.001000 
0.001000 
0.001000 
0.001049 
0.004876 
0.047744 
0.250570 
0.566366 
0.847362 
0.971027 
0.999759 
0.999784 
0.999766 
0.933933 
0.724187 
0.432416 
0.173469 
0.035396 
0.008116 
0.016056 
0.122204 
0.461596 
0.831035 
0.985600 
0.923686 
0.584788 
0.151780 
0.009654 
0.001043 
0.001000 
0.001000 
0.001000 
0.001000 
0.001000 
0.001000 
0.001000 
0.001000 
0.001000 
0.001000 
0.001000 
0.001000 
0.001000 
0.001000 
0.001000 
0.001000 
0.001000 
0.001000 
0.001000 
0.001000 
0.001000 
0.001000 
0.001000 
0.001000 
0.001000 
0.001000 
0.001000 
0.001000 
0.001000 
0.001000 
0.001000 
0.001000 
0.001000 
0.001000 
0.001000 
0.001000 
0.001000 
0.001000 
0.001000 
0.001000 
0.001000 
0.001000 
0.001000 
0.001000 
0.001000 
0.001000 
0.001000 
0.001000 
0.001000 
0.001000 
0.001000 
0.001000 
0.001000 
0.001000 
0.001000 
0.001000 
0.001000 
0.001000 
0.001000 
0.001000 
0.001000 
0.001000 
0.001000 
0.001000 
0.001000 
0.001000 
0.001000 
0.001000 
0.001000 
0.001000 
0.001000 
0.001000 
0.001001 
0.001165 
0.006512 
0.053249 
0.263519 
0.601113 
0.898999 
0.993993 
0.999744 
0.999766 
0.999745 
0.918141 
0.656918 
0.342770 
0.110455 
0.021198 
0.002681 
0.001085 
0.002255 
0.031667 
0.231679 
0.640236 
0.942705 
0.979115 
0.724741 
0.267694 
0.027162 
0.001338 
0.001000 
0.001000 
0.001000 
0.001000 
0.001000 
0.001000 
0.001000 
0.001000 
0.001000 
0.001000 
0.001000 
0.001000 
0.001000 
0.001000 
0.001000 
0.001000 
0.001000 
0.001000 
0.001000 
0.001000 
0.001000 
0.001000 
0.001000 
0.001000 
0.001000 
0.001000 
0.001000 
0.001000 
0.001000 
0.001000 
0.001000 
0.001000 
0.001000 
0.001000 
0.001000 
0.001000 
0.001000 
0.001000 
0.001000 
0.001000 
0.001000 
0.001000 
0.001000 
0.001000 
0.001000 
0.001000 
0.001000 
0.001000 
0.001000 
0.001000 
0.001000 
0.001000 
0.001000 
0.001000 
0.001000 
0.001000 
0.001000 
0.001000 
0.001000 
0.001000 
0.001000 
0.001000 
0.001000 
0.001000 
0.001000 
0.001000 
0.001000 
0.001000 
0.001000 
0.001000 
0.001000 
0.001006 
0.001610 
0.011348 
0.072439 
0.288399 
0.616929 
0.909157 
0.999631 
0.999740 
0.999744 
0.999668 
0.909243 
0.618237 
0.289642 
0.072267 
0.011059 
0.001580 
0.001006 
0.001000 
0.001038 
0.005463 
0.083512 
0.439195 
0.855904 
0.999633 
0.852157 
0.436725 
0.074888 
0.003773 
0.001004 
0.001000 
0.001000 
0.001000 
0.001000 
0.001000 
0.001000 
0.001000 
0.001000 
0.001000 
0.001000 
0.001000 
0.001000 
0.001000 
0.001000 
0.001000 
0.001000 
0.001000 
0.001000 
0.001000 
0.001000 
0.001000 
0.001000 
0.001000 
0.001000 
0.001000 
0.001000 
0.001000 
0.001000 
0.001000 
0.001000 
0.001000 
0.001000 
0.001000 
0.001000 
0.001000 
0.001000 
0.001000 
0.001000 
0.001000 
0.001000 
0.001000 
0.001000 
0.001000 
0.001000 
0.001000 
0.001000 
0.001000 
0.001000 
0.001000 
0.001000 
0.001000 
0.001000 
0.001000 
0.001000 
0.001000 
0.001000 
0.001000 
0.001000 
0.001000 
0.001000 
0.001000 
0.001000 
0.001000 
0.001000 
0.001000 
0.001000 
0.001000 
0.001000 
0.001000 
0.001021 
0.002767 
0.021818 
0.112867 
0.345774 
0.657410 
0.917260 
0.999719 
0.999753 
0.999737 
0.994576 
0.900091 
0.601650 
0.263977 
0.053788 
0.006600 
0.001163 
0.001001 
0.001000 
0.001000 
0.001000 
0.001473 
0.029243 
0.274473 
0.733948 
0.982687 
0.953726 
0.635785 
0.192121 
0.013726 
0.001108 
0.001000 
0.001000 
0.001000 
0.001000 
0.001000 
0.001000 
0.001000 
0.001000 
0.001000 
0.001000 
0.001000 
0.001000 
0.001000 
0.001000 
0.001000 
0.001000 
0.001000 
0.001000 
0.001000 
0.001000 
0.001000 
0.001000 
0.001000 
0.001000 
0.001000 
0.001000 
0.001000 
0.001000 
0.001000 
0.001000 
0.001000 
0.001000 
0.001000 
0.001000 
0.001000 
0.001000 
0.001000 
0.001000 
0.001000 
0.001000 
0.001000 
0.001000 
0.001000 
0.001000 
0.001000 
0.001000 
0.001000 
0.001000 
0.001000 
0.001000 
0.001000 
0.001000 
0.001000 
0.001000 
0.001000 
0.001000 
0.001000 
0.001000 
0.001000 
0.001000 
0.001000 
0.001000 
0.001000 
0.001000 
0.001000 
0.001000 
0.001000 
0.001000 
0.001031 
0.004172 
0.037268 
0.179499 
0.437160 
0.727608 
0.935252 
0.999739 
0.999764 
0.999744 
0.974301 
0.854210 
0.570564 
0.251590 
0.047847 
0.004901 
0.001052 
0.001000 
0.001000 
0.001000 
0.001000 
0.001000 
0.001047 
0.008944 
0.142407 
0.565615 
0.921990 
0.999591 
0.794509 
0.326073 
0.038992 
0.001646 
0.001000 
0.001000 
0.001000 
0.001000 
0.001000 
0.001000 
0.001000 
0.001000 
0.001000 
0.001000 
0.001000 
0.001000 
0.001000 
0.001000 
0.001000 
0.001000 
0.001000 
0.001000 
0.001000 
0.001000 
0.001000 
0.001000 
0.001000 
0.001000 
0.001000 
0.001000 
0.001000 
0.001000 
0.001000 
0.001000 
0.001000 
0.001000 
0.001000 
0.001000 
0.001000 
0.001000 
0.001000 
0.001000 
0.001000 
0.001000 
0.001000 
0.001000 
0.001000 
0.001000 
0.001000 
0.001000 
0.001000 
0.001000 
0.001000 
0.001000 
0.001000 
0.001000 
0.001000 
0.001000 
0.001000 
0.001000 
0.001000 
0.001000 
0.001000 
0.001000 
0.001000 
0.001000 
0.001000 
0.001000 
0.001000 
0.001000 
0.001000 
0.001031 
0.004679 
0.047022 
0.241154 
0.540908 
0.818573 
0.960951 
0.999721 
0.999757 
0.999746 
0.952550 
0.779041 
0.489898 
0.209808 
0.042294 
0.004443 
0.001031 
0.001000 
0.001000 
0.001000 
0.001000 
0.001000 
0.001000 
0.001001 
0.002587 
0.056902 
0.384261 
0.824575 
0.998872 
0.883419 
0.484592 
0.091821 
0.004676 
0.001008 
0.001000 
0.001000 
0.001000 
0.001000 
0.001000 
0.001000 
0.001000 
0.001000 
0.001000 
0.001000 
0.001000 
0.001000 
0.001000 
0.001000 
0.001000 
0.001000 
0.001000 
0.001000 
0.001000 
0.001000 
0.001000 
0.001000 
0.001000 
0.001000 
0.001000 
0.001000 
0.001000 
0.001000 
0.001000 
0.001000 
0.001000 
0.001000 
0.001000 
0.001000 
0.001000 
0.001000 
0.001000 
0.001000 
0.001000 
0.001000 
0.001000 
0.001000 
0.001000 
0.001000 
0.001000 
0.001000 
0.001000 
0.001000 
0.001000 
0.001000 
0.001000 
0.001000 
0.001000 
0.001000 
0.001000 
0.001000 
0.001000 
0.001000 
0.001000 
0.001000 
0.001000 
0.001000 
0.001000 
0.001000 
0.001000 
0.001031 
0.004687 
0.048627 
0.260234 
0.597052 
0.888675 
0.988103 
0.999691 
0.999726 
0.999724 
0.933034 
0.710937 
0.405133 
0.148306 
0.029232 
0.003421 
0.001026 
0.001000 
0.001000 
0.001000 
0.001000 
0.001000 
0.001000 
0.001000 
0.001000 
0.001213 
0.020090 
0.228366 
0.680648 
0.967417 
0.960902 
0.658372 
0.212970 
0.017669 
0.001180 
0.001000 
0.001000 
0.001000 
0.001000 
0.001000 
0.001000 
0.001000 
0.001000 
0.001000 
0.001000 
0.001000 
0.001000 
0.001000 
0.001000 
0.001000 
0.001000 
0.001000 
0.001000 
0.001000 
0.001000 
0.001000 
0.001000 
0.001000 
0.001000 
0.001000 
0.001000 
0.001000 
0.001000 
0.001000 
0.001000 
0.001000 
0.001000 
0.001000 
0.001000 
0.001000 
0.001000 
0.001000 
0.001000 
0.001000 
0.001000 
0.001000 
0.001000 
0.001000 
0.001000 
0.001000 
0.001000 
0.001000 
0.001000 
0.001000 
0.001000 
0.001000 
0.001000 
0.001000 
0.001000 
0.001000 
0.001000 
0.001000 
0.001000 
0.001000 
0.001000 
0.001000 
0.001000 
0.001000 
0.001000 
0.001037 
0.004678 
0.048619 
0.260425 
0.605641 
0.909230 
0.999615 
0.999688 
0.999686 
0.999657 
0.914769 
0.649722 
0.334960 
0.102734 
0.017786 
0.002176 
0.001012 
0.001000 
0.001000 
0.001000 
0.001000 
0.001000 
0.001000 
0.001000 
0.001000 
0.001000 
0.001016 
0.005804 
0.107289 
0.511330 
0.896728 
0.999641 
0.817311 
0.371361 
0.053481 
0.002418 
0.001001 
0.001000 
0.001000 
0.001000 
0.001000 
0.001000 
0.001000 
0.001000 
0.001000 
0.001000 
0.001000 
0.001000 
0.001000 
0.001000 
0.001000 
0.001000 
0.001000 
0.001000 
0.001000 
0.001000 
0.001000 
0.001000 
0.001000 
0.001000 
0.001000 
0.001000 
0.001000 
0.001000 
0.001000 
0.001000 
0.001000 
0.001000 
0.001000 
0.001000 
0.001000 
0.001000 
0.001000 
0.001000 
0.001000 
0.001000 
0.001000 
0.001000 
0.001000 
0.001000 
0.001000 
0.001000 
0.001000 
0.001000 
0.001000 
0.001000 
0.001000 
0.001000 
0.001000 
0.001000 
0.001000 
0.001000 
0.001000 
0.001000 
0.001000 
0.001000 
0.001000 
0.001000 
0.001000 
0.001030 
0.004025 
0.044809 
0.260232 
0.605622 
0.909386 
0.999702 
0.999706 
0.999663 
0.999502 
0.909333 
0.613765 
0.282253 
0.068454 
0.010328 
0.001473 
0.001004 
0.001000 
0.001000 
0.001000 
0.001000 
0.001000 
0.001000 
0.001000 
0.001000 
0.001000 
0.001000 
0.001000 
0.001921 
0.044207 
0.341434 
0.800877 
0.999283 
0.916727 
0.553720 
0.132910 
0.007865 
0.001034 
0.001000 
0.001000 
0.001000 
0.001000 
0.001000 
0.001000 
0.001000 
0.001000 
0.001000 
0.001000 
0.001000 
0.001000 
0.001000 
0.001000 
0.001000 
0.001000 
0.001000 
0.001000 
0.001000 
0.001000 
0.001000 
0.001000 
0.001000 
0.001000 
0.001000 
0.001000 
0.001000 
0.001000 
0.001000 
0.001000 
0.001000 
0.001000 
0.001000 
0.001000 
0.001000 
0.001000 
0.001000 
0.001000 
0.001000 
0.001000 
0.001000 
0.001000 
0.001000 
0.001000 
0.001000 
0.001000 
0.001000 
0.001000 
0.001000 
0.001000 
0.001000 
0.001000 
0.001000 
0.001000 
0.001000 
0.001000 
0.001000 
0.001000 
0.001000 
0.001000 
0.001000 
0.001000 
0.002846 
0.030873 
0.214369 
0.584746 
0.909224 
0.999679 
0.999697 
0.999647 
0.999416 
0.929125 
0.647776 
0.288571 
0.056170 
0.006286 
0.001137 
0.001001 
0.001000 
0.001000 
0.001000 
0.001000 
0.001000 
0.001000 
0.001000 
0.001000 
0.001000 
0.001000 
0.001000 
0.001000 
0.001128 
0.014598 
0.194758 
0.635916 
0.953624 
0.979333 
0.718736 
0.257720 
0.024922 
0.001292 
0.001000 
0.001000 
0.001000 
0.001000 
0.001000 
0.001000 
0.001000 
0.001000 
0.001000 
0.001000 
0.001000 
0.001000 
0.001000 
0.001000 
0.001000 
0.001000 
0.001000 
0.001000 
0.001000 
0.001000 
0.001000 
0.001000 
0.001000 
0.001000 
0.001000 
0.001000 
0.001000 
0.001000 
0.001000 
0.001000 
0.001000 
0.001000 
0.001000 
0.001000 
0.001000 
0.001000 
0.001000 
0.001000 
0.001000 
0.001000 
0.001000 
0.001000 
0.001000 
0.001000 
0.001000 
0.001000 
0.001000 
0.001000 
0.001000 
0.001000 
0.001000 
0.001000 
0.001000 
0.001000 
0.001000 
0.001000 
0.001000 
0.001000 
0.001000 
0.001000 
0.001000 
0.001000 
0.018990 
0.126344 
0.466004 
0.858339 
0.999581 
0.999641 
0.999594 
0.999393 
0.957083 
0.763961 
0.433972 
0.117587 
0.014600 
0.001271 
0.001000 
0.001000 
0.001000 
0.001000 
0.001000 
0.001000 
0.001000 
0.001000 
0.001000 
0.001000 
0.001000 
0.001000 
0.001000 
0.001000 
0.001004 
0.003800 
0.077662 
0.451849 
0.864451 
0.999617 
0.843480 
0.414317 
0.065583 
0.003058 
0.001002 
0.001000 
0.001000 
0.001000 
0.001000 
0.001000 
0.001000 
0.001000 
0.001000 
0.001000 
0.001000 
0.001000 
0.001000 
0.001000 
0.001000 
0.001000 
0.001000 
0.001000 
0.001000 
0.001000 
0.001000 
0.001000 
0.001000 
0.001000 
0.001000 
0.001000 
0.001000 
0.001000 
0.001000 
0.001000 
0.001000 
0.001000 
0.001000 
0.001000 
0.001000 
0.001000 
0.001000 
0.001000 
0.001000 
0.001000 
0.001000 
0.001000 
0.001000 
0.001000 
0.001000 
0.001000 
0.001000 
0.001000 
0.001000 
0.001000 
0.001000 
0.001000 
0.001000 
0.001000 
0.001000 
0.001000 
0.001000 
0.001000 
0.001000 
0.001000 
0.001000 
0.001000 
0.086829 
0.315566 
0.699964 
0.970733 
0.999581 
0.999518 
0.999273 
0.972811 
0.848800 
0.648359 
0.370843 
0.147770 
0.028634 
0.003237 
0.001042 
0.001000 
0.001000 
0.001000 
0.001000 
0.001000 
0.001000 
0.001000 
0.001000 
0.001000 
0.001000 
0.001000 
0.001000 
0.001000 
0.001000 
0.001413 
0.031587 
0.293577 
0.762592 
0.992096 
0.936219 
0.596269 
0.163300 
0.010903 
0.001071 
0.001000 
0.001000 
0.001000 
0.001000 
0.001000 
0.001000 
0.001000 
0.001000 
0.001000 
0.001000 
0.001000 
0.001000 
0.001000 
0.001000 
0.001000 
0.001000 
0.001000 
0.001000 
0.001000 
0.001000 
0.001000 
0.001000 
0.001000 
0.001000 
0.001000 
0.001000 
0.001000 
0.001000 
0.001000 
0.001000 
0.001000 
0.001000 
0.001000 
0.001000 
0.001000 
0.001000 
0.001000 
0.001000 
0.001000 
0.001000 
0.001000 
0.001000 
0.001000 
0.001000 
0.001000 
0.001000 
0.001000 
0.001000 
0.001000 
0.001000 
0.001000 
0.001000 
0.001000 
0.001000 
0.001000 
0.001000 
0.001000 
0.001000 
0.001000 
0.001000 
0.001000 
0.284367 
0.563200 
0.864764 
0.999544 
0.999502 
0.999255 
0.976856 
0.867404 
0.707726 
0.565061 
0.488321 
0.350074 
0.163199 
0.034420 
0.003868 
0.001078 
0.001000 
0.001000 
0.001000 
0.001000 
0.001000 
0.001000 
0.001000 
0.001000 
0.001000 
0.001000 
0.001000 
0.001000 
0.001000 
0.001067 
0.010917 
0.167286 
0.604573 
0.939955 
0.990076 
0.760587 
0.296904 
0.033102 
0.001515 
0.001000 
0.001000 
0.001000 
0.001000 
0.001000 
0.001000 
0.001000 
0.001000 
0.001000 
0.001000 
0.001000 
0.001000 
0.001000 
0.001000 
0.001000 
0.001000 
0.001000 
0.001000 
0.001000 
0.001000 
0.001000 
0.001000 
0.001000 
0.001000 
0.001000 
0.001000 
0.001000 
0.001000 
0.001000 
0.001000 
0.001000 
0.001000 
0.001000 
0.001000 
0.001000 
0.001000 
0.001000 
0.001000 
0.001000 
0.001000 
0.001000 
0.001000 
0.001000 
0.001000 
0.001000 
0.001000 
0.001000 
0.001000 
0.001000 
0.001000 
0.001000 
0.001000 
0.001000 
0.001000 
0.001000 
0.001000 
0.001000 
0.001000 
0.001000 
0.001000 
0.001000 
0.641040 
0.811226 
0.965212 
0.999535 
0.999405 
0.986031 
0.893263 
0.707365 
0.536686 
0.471142 
0.539165 
0.582177 
0.442459 
0.188378 
0.044499 
0.007775 
0.001623 
0.001012 
0.001000 
0.001000 
0.001000 
0.001000 
0.001000 
0.001000 
0.001000 
0.001000 
0.001000 
0.001000 
0.001000 
0.001002 
0.003199 
0.067765 
0.420705 
0.846804 
0.999643 
0.867873 
0.456345 
0.081986 
0.004034 
0.001006 
0.001000 
0.001000 
0.001000 
0.001000 
0.001000 
0.001000 
0.001000 
0.001000 
0.001000 
0.001000 
0.001000 
0.001000 
0.001000 
0.001000 
0.001000 
0.001000 
0.001000 
0.001000 
0.001000 
0.001000 
0.001000 
0.001000 
0.001000 
0.001000 
0.001000 
0.001000 
0.001000 
0.001000 
0.001000 
0.001000 
0.001000 
0.001000 
0.001000 
0.001000 
0.001000 
0.001000 
0.001000 
0.001000 
0.001000 
0.001000 
0.001000 
0.001000 
0.001000 
0.001000 
0.001000 
0.001000 
0.001000 
0.001000 
0.001000 
0.001000 
0.001000 
0.001000 
0.001000 
0.001000 
0.001000 
0.001000 
0.001000 
0.001000 
0.001000 
0.001000 
0.907253 
0.962918 
0.999516 
0.999544 
0.999288 
0.958464 
0.782532 
0.550831 
0.408060 
0.396115 
0.446920 
0.578408 
0.614513 
0.477742 
0.259138 
0.101118 
0.025196 
0.004705 
0.001488 
0.001096 
0.001004 
0.001000 
0.001000 
0.001000 
0.001000 
0.001000 
0.001000 
0.001000 
0.001000 
0.001000 
0.001308 
0.025786 
0.262140 
0.723807 
0.980856 
0.949390 
0.631138 
0.190076 
0.014623 
0.001126 
0.001000 
0.001000 
0.001000 
0.001000 
0.001000 
0.001000 
0.001000 
0.001000 
0.001000 
0.001000 
0.001000 
0.001000 
0.001000 
0.001000 
0.001000 
0.001000 
0.001000 
0.001000 
0.001000 
0.001000 
0.001000 
0.001000 
0.001000 
0.001000 
0.001000 
0.001000 
0.001000 
0.001000 
0.001000 
0.001000 
0.001000 
0.001000 
0.001000 
0.001000 
0.001000 
0.001000 
0.001000 
0.001000 
0.001000 
0.001000 
0.001000 
0.001000 
0.001000 
0.001000 
0.001000 
0.001000 
0.001000 
0.001000 
0.001000 
0.001000 
0.001000 
0.001000 
0.001000 
0.001000 
0.001000 
0.001000 
0.001000 
0.001000 
0.001000 
0.001000 
0.999447 
0.999560 
0.999630 
0.999560 
0.999062 
0.923697 
0.712338 
0.505938 
0.428176 
0.429390 
0.456088 
0.529628 
0.671263 
0.749738 
0.655726 
0.446077 
0.231220 
0.084720 
0.035493 
0.013149 
0.003766 
0.001444 
0.001092 
0.001004 
0.001000 
0.001000 
0.001000 
0.001000 
0.001000 
0.001000 
0.001037 
0.008185 
0.134382 
0.548538 
0.911313 
0.993856 
0.789847 
0.337656 
0.044016 
0.001984 
0.001000 
0.001000 
0.001000 
0.001000 
0.001000 
0.001000 
0.001000 
0.001000 
0.001000 
0.001000 
0.001000 
0.001000 
0.001000 
0.001000 
0.001000 
0.001000 
0.001000 
0.001000 
0.001000 
0.001000 
0.001000 
0.001000 
0.001000 
0.001000 
0.001000 
0.001000 
0.001000 
0.001000 
0.001000 
0.001000 
0.001000 
0.001000 
0.001000 
0.001000 
0.001000 
0.001000 
0.001000 
0.001000 
0.001000 
0.001000 
0.001000 
0.001000 
0.001000 
0.001000 
0.001000 
0.001000 
0.001000 
0.001000 
0.001000 
0.001000 
0.001000 
0.001000 
0.001000 
0.001000 
0.001000 
0.001000 
0.001000 
0.001000 
0.001000 
0.001000 
0.999713 
0.999727 
0.999701 
0.999541 
0.993994 
0.911128 
0.742359 
0.578905 
0.605002 
0.655152 
0.669579 
0.699752 
0.804913 
0.909523 
0.938093 
0.850196 
0.653591 
0.464962 
0.315282 
0.190234 
0.078412 
0.034395 
0.012928 
0.003755 
0.001390 
0.001059 
0.001002 
0.001000 
0.001000 
0.001000 
0.001001 
0.002389 
0.052095 
0.365654 
0.802338 
0.991059 
0.895245 
0.509975 
0.109964 
0.006040 
0.001019 
0.001000 
0.001000 
0.001000 
0.001000 
0.001000 
0.001000 
0.001000 
0.001000 
0.001000 
0.001000 
0.001000 
0.001000 
0.001000 
0.001000 
0.001000 
0.001000 
0.001000 
0.001000 
0.001000 
0.001000 
0.001000 
0.001000 
0.001000 
0.001000 
0.001000 
0.001000 
0.001000 
0.001000 
0.001000 
0.001000 
0.001000 
0.001000 
0.001000 
0.001000 
0.001000 
0.001000 
0.001000 
0.001000 
0.001000 
0.001000 
0.001000 
0.001000 
0.001000 
0.001000 
0.001000 
0.001000 
0.001000 
0.001000 
0.001000 
0.001000 
0.001000 
0.001000 
0.001000 
0.001000 
0.001000 
0.001000 
0.001000 
0.001000 
0.001000 
0.999820 
0.999805 
0.999740 
0.999426 
0.971777 
0.889737 
0.776657 
0.761816 
0.822011 
0.900504 
0.911364 
0.914742 
0.948031 
0.985117 
0.999101 
0.999162 
0.955110 
0.873614 
0.789813 
0.635707 
0.459109 
0.311579 
0.189174 
0.076520 
0.030388 
0.010276 
0.003047 
0.001333 
0.001054 
0.001002 
0.001000 
0.001186 
0.019197 
0.217136 
0.668826 
0.958213 
0.965392 
0.678906 
0.224463 
0.019594 
0.001197 
0.001000 
0.001000 
0.001000 
0.001000 
0.001000 
0.001000 
0.001000 
0.001000 
0.001000 
0.001000 
0.001000 
0.001000 
0.001000 
0.001000 
0.001000 
0.001000 
0.001000 
0.001000 
0.001000 
0.001000 
0.001000 
0.001000 
0.001000 
0.001000 
0.001000 
0.001000 
0.001000 
0.001000 
0.001000 
0.001000 
0.001000 
0.001000 
0.001000 
0.001000 
0.001000 
0.001000 
0.001000 
0.001000 
0.001000 
0.001000 
0.001000 
0.001000 
0.001000 
0.001000 
0.001000 
0.001000 
0.001000 
0.001000 
0.001000 
0.001000 
0.001000 
0.001000 
0.001000 
0.001000 
0.001000 
0.001000 
0.001000 
0.001000 
0.001000 
0.999863 
0.999841 
0.999760 
0.981664 
0.878489 
0.720486 
0.635110 
0.672037 
0.767855 
0.815174 
0.831083 
0.862376 
0.896676 
0.935300 
0.975518 
0.996980 
0.999628 
0.999695 
0.999669 
0.953756 
0.870540 
0.787744 
0.635075 
0.447874 
0.286843 
0.160543 
0.066881 
0.028025 
0.009819 
0.002912 
0.001282 
0.001221 
0.007042 
0.108934 
0.490956 
0.877553 
0.992779 
0.814700 
0.373557 
0.053617 
0.002413 
0.001001 
0.001000 
0.001000 
0.001000 
0.001000 
0.001000 
0.001000 
0.001000 
0.001000 
0.001000 
0.001000 
0.001000 
0.001000 
0.001000 
0.001000 
0.001000 
0.001000 
0.001000 
0.001000 
0.001000 
0.001000 
0.001000 
0.001000 
0.001000 
0.001000 
0.001000 
0.001000 
0.001000 
0.001000 
0.001000 
0.001000 
0.001000 
0.001000 
0.001000 
0.001000 
0.001000 
0.001000 
0.001000 
0.001000 
0.001000 
0.001000 
0.001000 
0.001000 
0.001000 
0.001000 
0.001000 
0.001000 
0.001000 
0.001000 
0.001000 
0.001000 
0.001000 
0.001000 
0.001000 
0.001000 
0.001000 
0.001000 
0.001000 
0.001000 
0.999876 
0.999856 
0.999777 
0.942111 
0.711050 
0.403921 
0.258941 
0.266587 
0.307385 
0.329837 
0.361446 
0.421723 
0.507192 
0.616976 
0.727661 
0.816022 
0.894547 
0.968389 
0.999684 
0.999723 
0.999720 
0.999504 
0.953477 
0.861568 
0.754073 
0.595239 
0.423165 
0.278319 
0.155257 
0.063435 
0.024559 
0.008827 
0.009665 
0.057130 
0.324375 
0.740929 
0.968696 
0.914792 
0.552282 
0.141586 
0.010198 
0.001075 
0.001000 
0.001001 
0.001028 
0.001149 
0.001224 
0.001225 
0.001225 
0.001225 
0.001225 
0.001225 
0.001225 
0.001225 
0.001225 
0.001225 
0.001225 
0.001226 
0.001226 
0.001226 
0.001226 
0.001226 
0.001226 
0.001226 
0.001226 
0.001226 
0.001226 
0.001226 
0.001226 
0.001226 
0.001226 
0.001226 
0.001226 
0.001226 
0.001226 
0.001226 
0.001226 
0.001226 
0.001226 
0.001226 
0.001226 
0.001226 
0.001226 
0.001226 
0.001225 
0.001225 
0.001225 
0.001225 
0.001225 
0.001225 
0.001225 
0.001225 
0.001225 
0.001225 
0.001225 
0.001225 
0.001225 
0.001225 
0.001272 
0.001280 
0.999877 
0.999861 
0.999798 
0.908654 
0.571740 
0.194549 
0.049742 
0.027265 
0.028730 
0.032606 
0.042149 
0.065209 
0.107267 
0.170403 
0.257751 
0.360034 
0.509007 
0.682541 
0.823197 
0.914992 
0.978422 
0.999696 
0.999725 
0.999732 
0.989785 
0.935772 
0.851317 
0.747936 
0.587004 
0.408519 
0.256298 
0.128606 
0.062686 
0.088739 
0.272563 
0.627409 
0.898214 
0.971697 
0.744758 
0.314319 
0.048705 
0.004388 
0.001443 
0.002277 
0.007310 
0.018767 
0.028162 
0.030322 
0.030332 
0.030340 
0.030346 
0.030349 
0.030350 
0.030350 
0.030350 
0.030351 
0.030352 
0.030354 
0.030356 
0.030359 
0.030362 
0.030364 
0.030367 
0.030369 
0.030371 
0.030373 
0.030374 
0.030375 
0.030375 
0.030376 
0.030375 
0.030375 
0.030374 
0.030373 
0.030371 
0.030370 
0.030368 
0.030366 
0.030364 
0.030362 
0.030359 
0.030357 
0.030355 
0.030353 
0.030351 
0.030349 
0.030347 
0.030345 
0.030344 
0.030342 
0.030340 
0.030338 
0.030335 
0.030332 
0.030328 
0.030324 
0.030323 
0.030331 
0.031304 
0.030317 
0.999872 
0.999862 
0.999816 
0.904665 
0.532458 
0.125383 
0.010810 
0.001636 
0.001267 
0.001304 
0.001631 
0.002767 
0.005643 
0.011709 
0.022489 
0.046305 
0.106767 
0.228501 
0.376794 
0.549963 
0.715546 
0.840512 
0.931836 
0.987692 
0.999708 
0.999747 
0.999760 
0.988015 
0.931917 
0.840382 
0.718403 
0.530203 
0.346106 
0.282121 
0.384403 
0.626058 
0.854248 
0.973621 
0.902014 
0.564414 
0.213438 
0.063478 
0.038162 
0.056082 
0.126227 
0.237061 
0.311038 
0.331645 
0.331679 
0.331709 
0.331729 
0.331738 
0.331740 
0.331740 
0.331740 
0.331742 
0.331746 
0.331753 
0.331761 
0.331769 
0.331779 
0.331787 
0.331796 
0.331803 
0.331810 
0.331815 
0.331819 
0.331822 
0.331824 
0.331824 
0.331823 
0.331821 
0.331818 
0.331814 
0.331809 
0.331803 
0.331796 
0.331789 
0.331782 
0.331774 
0.331766 
0.331758 
0.331749 
0.331741 
0.331734 
0.331727 
0.331720 
0.331714 
0.331708 
0.331702 
0.331696 
0.331687 
0.331676 
0.331662 
0.331646 
0.331631 
0.331627 
0.331650 
0.326958 
0.331999 
0.999867 
0.999861 
0.999826 
0.912653 
0.534015 
0.122556 
0.006944 
0.001035 
0.001000 
0.001000 
0.001000 
0.001003 
0.001017 
0.001060 
0.001193 
0.001889 
0.005816 
0.019684 
0.053769 
0.130489 
0.254523 
0.407771 
0.586498 
0.746837 
0.855972 
0.946156 
0.995555 
0.999754 
0.999797 
0.999276 
0.979081 
0.899256 
0.762539 
0.658334 
0.659043 
0.745740 
0.888221 
0.972845 
0.981438 
0.831150 
0.572886 
0.388536 
0.342088 
0.399496 
0.543335 
0.709864 
0.808684 
0.828994 
0.829014 
0.829030 
0.829039 
0.829042 
0.829041 
0.829039 
0.829038 
0.829039 
0.829041 
0.829045 
0.829049 
0.829053 
0.829058 
0.829062 
0.829066 
0.829069 
0.829072 
0.829074 
0.829076 
0.829077 
0.829077 
0.829077 
0.829076 
0.829074 
0.829072 
0.829069 
0.829066 
0.829062 
0.829058 
0.829053 
0.829049 
0.829044 
0.829039 
0.829034 
0.829028 
0.829023 
0.829018 
0.829013 
0.829008 
0.829004 
0.829000 
0.828996 
0.828991 
0.828985 
0.828978 
0.828968 
0.828955 
0.828942 
0.828934 
0.828938 
0.818667 
0.817113 
0.999863 
0.999860 
0.999830 
0.906560 
0.530477 
0.118268 
0.006671 
0.001023 
0.001000 
0.001000 
0.001000 
0.001000 
0.001000 
0.001000 
0.001000 
0.001000 
0.001016 
0.001202 
0.002366 
0.007664 
0.024211 
0.063222 
0.154594 
0.279835 
0.435951 
0.618412 
0.777469 
0.872596 
0.954513 
0.997892 
0.999829 
0.999848 
0.980610 
0.930500 
0.889405 
0.906390 
0.951844 
0.990140 
0.999812 
0.976280 
0.900085 
0.827432 
0.810013 
0.845176 
0.912033 
0.976880 
0.999888 
0.999888 
0.999886 
0.999884 
0.999881 
0.999879 
0.999877 
0.999876 
0.999875 
0.999875 
0.999875 
0.999875 
0.999874 
0.999874 
0.999874 
0.999874 
0.999873 
0.999873 
0.999873 
0.999872 
0.999871 
0.999871 
0.999870 
0.999869 
0.999868 
0.999867 
0.999866 
0.999865 
0.999864 
0.999863 
0.999862 
0.999861 
0.999859 
0.999858 
0.999856 
0.999855 
0.999853 
0.999852 
0.999850 
0.999849 
0.999847 
0.999845 
0.999844 
0.999843 
0.999841 
0.999840 
0.999839 
0.999837 
0.999833 
0.999827 
0.999821 
0.999812 
0.999796 
0.999778 
0.999862 
0.999860 
0.999832 
0.903258 
0.530172 
0.118168 
0.006655 
0.001021 
0.001000 
0.001000 
0.001000 
0.001000 
0.001000 
0.001000 
0.001000 
0.001000 
0.001000 
0.001000 
0.001001 
0.001032 
0.001277 
0.002899 
0.009736 
0.028844 
0.072120 
0.178361 
0.308387 
0.464500 
0.640857 
0.791006 
0.880384 
0.960271 
0.999858 
0.999849 
0.990150 
0.981544 
0.990163 
0.999862 
0.999876 
0.999872 
0.994616 
0.989947 
0.994652 
0.999927 
0.999941 
0.999941 
0.999936 
0.999931 
0.999926 
0.999921 
0.999918 
0.999915 
0.999914 
0.999913 
0.999912 
0.999911 
0.999911 
0.999910 
0.999910 
0.999909 
0.999908 
0.999907 
0.999906 
0.999905 
0.999905 
0.999904 
0.999903 
0.999902 
0.999901 
0.999900 
0.999899 
0.999898 
0.999897 
0.999896 
0.999895 
0.999894 
0.999894 
0.999893 
0.999892 
0.999891 
0.999890 
0.999889 
0.999888 
0.999886 
0.999885 
0.999884 
0.999883 
0.999882 
0.999881 
0.999880 
0.999880 
0.999880 
0.999880 
0.999880 
0.999878 
0.999875 
0.999868 
0.999854 
0.999832 
0.999809 
0.999860 
0.999858 
0.999830 
0.915012 
0.545312 
0.128470 
0.007415 
0.001032 
0.001000 
0.001000 
0.001000 
0.001000 
0.001000 
0.001000 
0.001000 
0.001000 
0.001000 
0.001000 
0.001000 
0.001000 
0.001000 
0.001002 
0.001053 
0.001357 
0.003441 
0.012178 
0.034842 
0.083188 
0.193970 
0.323264 
0.479586 
0.656803 
0.814894 
0.903943 
0.962847 
0.993176 
0.999871 
0.999900 
0.999920 
0.999932 
0.999941 
0.999949 
0.999956 
0.999960 
0.999959 
0.999954 
0.999949 
0.999943 
0.999938 
0.999934 
0.999931 
0.999929 
0.999927 
0.999926 
0.999925 
0.999925 
0.999924 
0.999923 
0.999922 
0.999920 
0.999919 
0.999918 
0.999917 
0.999916 
0.999914 
0.999913 
0.999912 
0.999911 
0.999910 
0.999909 
0.999908 
0.999907 
0.999905 
0.999904 
0.999903 
0.999903 
0.999902 
0.999901 
0.999900 
0.999899 
0.999898 
0.999897 
0.999896 
0.999895 
0.999894 
0.999894 
0.999893 
0.999892 
0.999891 
0.999890 
0.999889 
0.999889 
0.999890 
0.999890 
0.999889 
0.999886 
0.999879 
0.999863 
0.999837 
0.999812 
0.999859 
0.999856 
0.999826 
0.918241 
0.558382 
0.134496 
0.008111 
0.001035 
0.001000 
0.001000 
0.001000 
0.001000 
0.001000 
0.001000 
0.001000 
0.001000 
0.001000 
0.001000 
0.001000 
0.001000 
0.001000 
0.001000 
0.001000 
0.001000 
0.001003 
0.001085 
0.001516 
0.004103 
0.014004 
0.038065 
0.090076 
0.211465 
0.361356 
0.542090 
0.758782 
0.932535 
0.993212 
0.999923 
0.999949 
0.999963 
0.999970 
0.999971 
0.999970 
0.999966 
0.999961 
0.999955 
0.999948 
0.999944 
0.999941 
0.999938 
0.999936 
0.999935 
0.999934 
0.999933 
0.999932 
0.999930 
0.999929 
0.999927 
0.999926 
0.999924 
0.999923 
0.999921 
0.999919 
0.999918 
0.999916 
0.999914 
0.999913 
0.999911 
0.999910 
0.999909 
0.999907 
0.999906 
0.999905 
0.999904 
0.999903 
0.999902 
0.999901 
0.999900 
0.999899 
0.999898 
0.999897 
0.999896 
0.999896 
0.999895 
0.999894 
0.999894 
0.999893 
0.999892 
0.999891 
0.999891 
0.999890 
0.999889 
0.999888 
0.999888 
0.999886 
0.999881 
0.999873 
0.999859 
0.999838 
0.999815 
0.999857 
0.999853 
0.999822 
0.916456 
0.562201 
0.137338 
0.008321 
0.001033 
0.001000 
0.001000 
0.001000 
0.001000 
0.001000 
0.001000 
0.001000 
0.001000 
0.001000 
0.001000 
0.001000 
0.001000 
0.001000 
0.001000 
0.001000 
0.001000 
0.001000 
0.001000 
0.001000 
0.001006 
0.001108 
0.001606 
0.004612 
0.017329 
0.060194 
0.200704 
0.495244 
0.813055 
0.970935 
0.999940 
0.999967 
0.999980 
0.999984 
0.999981 
0.989984 
0.981094 
0.989954 
0.999928 
0.999924 
0.999929 
0.999934 
0.999936 
0.999937 
0.999937 
0.999935 
0.999934 
0.999932 
0.999930 
0.999927 
0.999925 
0.999923 
0.999920 
0.999918 
0.999915 
0.999913 
0.999911 
0.999908 
0.999906 
0.999904 
0.999902 
0.999900 
0.999898 
0.999896 
0.999895 
0.999893 
0.999892 
0.999890 
0.999889 
0.999888 
0.999887 
0.999886 
0.999886 
0.999885 
0.999884 
0.999884 
0.999884 
0.999883 
0.999883 
0.999883 
0.999883 
0.999882 
0.999882 
0.999881 
0.999879 
0.999875 
0.999870 
0.999861 
0.999846 
0.999835 
0.999833 
0.999832 
0.999824 
0.999854 
0.999850 
0.999819 
0.921787 
0.571426 
0.143252 
0.008841 
0.001039 
0.001000 
0.001000 
0.001000 
0.001000 
0.001000 
0.001000 
0.001000 
0.001000 
0.001000 
0.001000 
0.001000 
0.001000 
0.001000 
0.001000 
0.001000 
0.001000 
0.001000 
0.001000 
0.001000 
0.001000 
0.001000 
0.001000 
0.001008 
0.001642 
0.015777 
0.113699 
0.418578 
0.780172 
0.962307 
0.999957 
0.999978 
0.999988 
0.999990 
0.989353 
0.956716 
0.940520 
0.956647 
0.989238 
0.999870 
0.999894 
0.999916 
0.999928 
0.999932 
0.999933 
0.999931 
0.999929 
0.999926 
0.999922 
0.999919 
0.999915 
0.999911 
0.999908 
0.999904 
0.999901 
0.999897 
0.999894 
0.999891 
0.999888 
0.999884 
0.999882 
0.999879 
0.999876 
0.999874 
0.999871 
0.999869 
0.999868 
0.999866 
0.999864 
0.999863 
0.999862 
0.999861 
0.999861 
0.999860 
0.999860 
0.999860 
0.999861 
0.999861 
0.999862 
0.999862 
0.999863 
0.999863 
0.999863 
0.999861 
0.999857 
0.999850 
0.999835 
0.999809 
0.999776 
0.999760 
0.999777 
0.999807 
0.999825 
0.999850 
0.999847 
0.999816 
0.926008 
0.582117 
0.149642 
0.009467 
0.001045 
0.001000 
0.001000 
0.001000 
0.001000 
0.001000 
0.001000 
0.001000 
0.001000 
0.001000 
0.001000 
0.001000 
0.001000 
0.001000 
0.001000 
0.001000 
0.001000 
0.001000 
0.001000 
0.001000 
0.001000 
0.001000 
0.001000 
0.001030 
0.004505 
0.046960 
0.253586 
0.594804 
0.877607 
0.983458 
0.999968 
0.999979 
0.999988 
0.999992 
0.973380 
0.919854 
0.868857 
0.919740 
0.972598 
0.999805 
0.999853 
0.999896 
0.999918 
0.999925 
0.999926 
0.999925 
0.999921 
0.999917 
0.999912 
0.999907 
0.999902 
0.999898 
0.999893 
0.999888 
0.999884 
0.999879 
0.999875 
0.999871 
0.999867 
0.999863 
0.999859 
0.999855 
0.999852 
0.999849 
0.999846 
0.999843 
0.999841 
0.999839 
0.999837 
0.999836 
0.999835 
0.999834 
0.999834 
0.999834 
0.999834 
0.999834 
0.999835 
0.999836 
0.999837 
0.999839 
0.999840 
0.999841 
0.999842 
0.999840 
0.999834 
0.999822 
0.999798 
0.999753 
0.999698 
0.999671 
0.999712 
0.999776 
0.999819 
0.999847 
0.999843 
0.999813 
0.926518 
0.587948 
0.153093 
0.009819 
0.001046 
0.001000 
0.001000 
0.001000 
0.001000 
0.001000 
0.001000 
0.001000 
0.001000 
0.001000 
0.001000 
0.001000 
0.001000 
0.001000 
0.001000 
0.001000 
0.001000 
0.001000 
0.001000 
0.001000 
0.001000 
0.001000 
0.001020 
0.004076 
0.045813 
0.252975 
0.580092 
0.868157 
0.980255 
0.999959 
0.999956 
0.951896 
0.891813 
0.999843 
0.999840 
0.999810 
0.928622 
0.594239 
0.157454 
0.010206 
0.001048 
0.001000 
0.001000 
0.001000 
0.001000 
0.001000 
0.001000 
0.001000 
0.001000 
0.001000 
0.001000 
0.001000 
0.001000 
0.001000 
0.001000 
0.001000 
0.001000 
0.001000 
0.001000 
0.001000 
0.001000 
0.001010 
0.002998 
0.037594 
0.237212 
0.590472 
0.901710 
0.996692 
0.999952 
0.999950 
0.937511 
0.738333 
0.562214 
0.999838 
0.999836 
0.999806 
0.932471 
0.604510 
0.163884 
0.010856 
0.001054 
0.001000 
0.001000 
0.001000 
0.001000 
0.001000 
0.001000 
0.001000 
0.001000 
0.001000 
0.001000 
0.001000 
0.001000 
0.001000 
0.001000 
0.001000 
0.001000 
0.001000 
0.001000 
0.001000 
0.001002 
0.001968 
0.026100 
0.190125 
0.542904 
0.884701 
0.998732 
0.999933 
0.999951 
0.982922 
0.786501 
0.456157 
0.186132 
0.999834 
0.999832 
0.999803 
0.936145 
0.615774 
0.171140 
0.011595 
0.001060 
0.001000 
0.001000 
0.001000 
0.001000 
0.001000 
0.001000 
0.001000 
0.001000 
0.001000 
0.001000 
0.001000 
0.001000 
0.001000 
0.001000 
0.001000 
0.001000 
0.001000 
0.001000 
0.001000 
0.001264 
0.014824 
0.136840 
0.468467 
0.831986 
0.987194 
0.999889 
0.999921 
0.999935 
0.933180 
0.614346 
0.226764 
0.051109 
0.999829 
0.999828 
0.999799 
0.939542 
0.626666 
0.178542 
0.012334 
0.001065 
0.001000 
0.001000 
0.001000 
0.001000 
0.001000 
0.001000 
0.001000 
0.001000 
0.001000 
0.001000 
0.001000 
0.001000 
0.001000 
0.001000 
0.001000 
0.001000 
0.001000 
0.001000 
0.001056 
0.007286 
0.083615 
0.379429 
0.762375 
0.969942 
0.999817 
0.999845 
0.999883 
0.989365 
0.824746 
0.419805 
0.101147 
0.011978 
0.999824 
0.999823 
0.999795 
0.943188 
0.639233 
0.186898 
0.013217 
0.001072 
0.001000 
0.001000 
0.001000 
0.001000 
0.001000 
0.001000 
0.001000 
0.001000 
0.001000 
0.001000 
0.001000 
0.001000 
0.001000 
0.001000 
0.001000 
0.001000 
0.001000 
0.001031 
0.004946 
0.054775 
0.298913 
0.678714 
0.946526 
0.999585 
0.999389 
0.999562 
0.999807 
0.949343 
0.653904 
0.226111 
0.030063 
0.002710 
0.999819 
0.999819 
0.999791 
0.948395 
0.654961 
0.197704 
0.014368 
0.001081 
0.001000 
0.001000 
0.001000 
0.001000 
0.001000 
0.001000 
0.001000 
0.001000 
0.001000 
0.001000 
0.001000 
0.001000 
0.001000 
0.001000 
0.001000 
0.001000 
0.001031 
0.004679 
0.048575 
0.264806 
0.620660 
0.919804 
0.999598 
0.961759 
0.928926 
0.961683 
0.999531 
0.873672 
0.468105 
0.096161 
0.006752 
0.001073 
0.999814 
0.999814 
0.999786 
0.954213 
0.672113 
0.209844 
0.015680 
0.001093 
0.001000 
0.001000 
0.001000 
0.001000 
0.001000 
0.001000 
0.001000 
0.001000 
0.001000 
0.001000 
0.001000 
0.001000 
0.001000 
0.001000 
0.001000 
0.001032 
0.004701 
0.048610 
0.260334 
0.605629 
0.909449 
0.999814 
0.945202 
0.786414 
0.719342 
0.815025 
0.947357 
0.772159 
0.320910 
0.037948 
0.001842 
0.001000 
0.999808 
0.999809 
0.999782 
0.958846 
0.688016 
0.221087 
0.016950 
0.001103 
0.001000 
0.001000 
0.001000 
0.001000 
0.001000 
0.001000 
0.001000 
0.001000 
0.001000 
0.001000 
0.001000 
0.001000 
0.001000 
0.001000 
0.001081 
0.005216 
0.049007 
0.260716 
0.605722 
0.909464 
0.999836 
0.982189 
0.785274 
0.502094 
0.398753 
0.617819 
0.848027 
0.673895 
0.214157 
0.017634 
0.001151 
0.001000 
0.999803 
0.999804 
0.999777 
0.963153 
0.704197 
0.233275 
0.018292 
0.001113 
0.001000 
0.001000 
0.001000 
0.001000 
0.001000 
0.001000 
0.001000 
0.001000 
0.001000 
0.001000 
0.001000 
0.001000 
0.001003 
0.001375 
0.008690 
0.059640 
0.269192 
0.606717 
0.909534 
0.999855 
0.999642 
0.881391 
0.525688 
0.237481 
0.211400 
0.474895 
0.783677 
0.589010 
0.155192 
0.009876 
0.001054 
0.001000 
0.999797 
0.999799 
0.999771 
0.969604 
0.727148 
0.250325 
0.020285 
0.001130 
0.001000 
0.001000 
0.001000 
0.001000 
0.001000 
0.001000 
0.001000 
0.001000 
0.001000 
0.001000 
0.001000 
0.001006 
0.001852 
0.015824 
0.094545 
0.316422 
0.631735 
0.910172 
0.999878 
0.977519 
0.873151 
0.587612 
0.257288 
0.095916 
0.148530 
0.472686 
0.783069 
0.529623 
0.118920 
0.006622 
0.001027 
0.001000 
0.999790 
0.999793 
0.999765 
0.979726 
0.758972 
0.274745 
0.023215 
0.001158 
0.001000 
0.001000 
0.001000 
0.001000 
0.001000 
0.001000 
0.001000 
0.001000 
0.001000 
0.001000 
0.001006 
0.002075 
0.020563 
0.129601 
0.388391 
0.697309 
0.926623 
0.999886 
0.964145 
0.802676 
0.514275 
0.232164 
0.063880 
0.046826 
0.181514 
0.590563 
0.828545 
0.495217 
0.098577 
0.005087 
0.001016 
0.001000 
0.999779 
0.999784 
0.999759 
0.990478 
0.791361 
0.300425 
0.026392 
0.001192 
0.001000 
0.001000 
0.001000 
0.001000 
0.001000 
0.001000 
0.001000 
0.001000 
0.001000 
0.001006 
0.002126 
0.022155 
0.142845 
0.427571 
0.752179 
0.950769 
0.999875 
0.960823 
0.777515 
0.454504 
0.166422 
0.033818 
0.009337 
0.030750 
0.259909 
0.740308 
0.874241 
0.472651 
0.089210 
0.004220 
0.001013 
0.001000 
0.999762 
0.999772 
0.999754 
0.996218 
0.811001 
0.316331 
0.028412 
0.001212 
0.001000 
0.001000 
0.001000 
0.001000 
0.001000 
0.001000 
0.001000 
0.001000 
0.001005 
0.002020 
0.021849 
0.145940 
0.439777 
0.771286 
0.959751 
0.999854 
0.949885 
0.750984 
0.430810 
0.148118 
0.024126 
0.002558 
0.001652 
0.029226 
0.318011 
0.815559 
0.878968 
0.452210 
0.076673 
0.003531 
0.001008 
0.001000 
0.999735 
0.999754 
0.999749 
0.996094 
0.813272 
0.318234 
0.028650 
0.001211 
0.001000 
0.001000 
0.001000 
0.001000 
0.001000 
0.001000 
0.001000 
0.001004 
0.001859 
0.019982 
0.139646 
0.437453 
0.775275 
0.962337 
0.999829 
0.944883 
0.725834 
0.396833 
0.128061 
0.020968 
0.002152 
0.001007 
0.001224 
0.030287 
0.331478 
0.828831 
0.868152 
0.427298 
0.067405 
0.002811 
0.001004 
0.001000 
0.999690 
0.999726 
0.999742 
0.993025 
0.803791 
0.310676 
0.027663 
0.001201 
0.001000 
0.001000 
0.001000 
0.001000 
0.001000 
0.001000 
0.001003 
0.001715 
0.018053 
0.129764 
0.422981 
0.766781 
0.961851 
0.999805 
0.934400 
0.699963 
0.372375 
0.112026 
0.016792 
0.001837 
0.001006 
0.001000 
0.001224 
0.030309 
0.331599 
0.828943 
0.862317 
0.411239 
0.058720 
0.002417 
0.001002 
0.001000 
0.999618 
0.999683 
0.999729 
0.988687 
0.790590 
0.300264 
0.026315 
0.001186 
0.001000 
0.001000 
0.001000 
0.001000 
0.001000 
0.001002 
0.001582 
0.016162 
0.120360 
0.407367 
0.752729 
0.957497 
0.999783 
0.926835 
0.671044 
0.340200 
0.095859 
0.014054 
0.001593 
0.001003 
0.001000 
0.001000 
0.001225 
0.030322 
0.331651 
0.828984 
0.857514 
0.394926 
0.053276 
0.002072 
0.001002 
0.001000 
0.999501 
0.999616 
0.999709 
0.985539 
0.784294 
0.295352 
0.025684 
0.001176 
0.001000 
0.001000 
0.001000 
0.001000 
0.001002 
0.001491 
0.014531 
0.110949 
0.391293 
0.738794 
0.953514 
0.999748 
0.916613 
0.643529 
0.312416 
0.079552 
0.010812 
0.001393 
0.001002 
0.001000 
0.001000 
0.001000 
0.001225 
0.030332 
0.331688 
0.829011 
0.848376 
0.374859 
0.044693 
0.001721 
0.001000 
0.001000 
0.999318 
0.999514 
0.999676 
0.988820 
0.793868 
0.302433 
0.026647 
0.001186 
0.001000 
0.001000 
0.001000 
0.001002 
0.001471 
0.013662 
0.103991 
0.376722 
0.724411 
0.949103 
0.999679 
0.909302 
0.616017 
0.283047 
0.065650 
0.008359 
0.001225 
0.001001 
0.001000 
0.001000 
0.001000 
0.001000 
0.001225 
0.030340 
0.331719 
0.829030 
0.836881 
0.352418 
0.037210 
0.001421 
0.001000 
0.001000 
0.999109 
0.999397 
0.999632 
0.996126 
0.811154 
0.317082 
0.028428 
0.001211 
0.001000 
0.001000 
0.001004 
0.001591 
0.014196 
0.102344 
0.368652 
0.713330 
0.944885 
0.999557 
0.908998 
0.605300 
0.263349 
0.052845 
0.006133 
0.001115 
0.001000 
0.001000 
0.001000 
0.001000 
0.001000 
0.001000 
0.001225 
0.030352 
0.331754 
0.829039 
0.830830 
0.338142 
0.032376 
0.001278 
0.001000 
0.001000 
0.999002 
0.999339 
0.999603 
0.998370 
0.812299 
0.316031 
0.029406 
0.001349 
0.001004 
0.001034 
0.002071 
0.017353 
0.111026 
0.373668 
0.710764 
0.942378 
0.999531 
0.908739 
0.604854 
0.259902 
0.048515 
0.004862 
0.001047 
0.001000 
0.001000 
0.001000 
0.001000 
0.001000 
0.001000 
0.001000 
0.001226 
0.030370 
0.331807 
0.829042 
0.828268 
0.331897 
0.030606 
0.001232 
0.001000 
0.001000 
0.999116 
0.999393 
0.999613 
0.987369 
0.783629 
0.302475 
0.033286 
0.002943 
0.002247 
0.005648 
0.027703 
0.135050 
0.399381 
0.724052 
0.943431 
0.999615 
0.908815 
0.604722 
0.259629 
0.048419 
0.004665 
0.001031 
0.001000 
0.001000 
0.001000 
0.001000 
0.001000 
0.001000 
0.001000 
0.001000 
0.001227 
0.030399 
0.331898 
0.828391 
0.823250 
0.326524 
0.029688 
0.001221 
0.001000 
0.001000 
0.999362 
0.999523 
0.999644 
0.975719 
0.763665 
0.314025 
0.060267 
0.020778 
0.033082 
0.077236 
0.194147 
0.449196 
0.753196 
0.950516 
0.999642 
0.908971 
0.604920 
0.259696 
0.048392 
0.004657 
0.001031 
0.001000 
0.001000 
0.001000 
0.001000 
0.001000 
0.001000 
0.001000 
0.001000 
0.001000 
0.001228 
0.030443 
0.332039 
0.824951 
0.812201 
0.318260 
0.028517 
0.001207 
0.001000 
0.001000 
0.999572 
0.999635 
0.999655 
0.980262 
0.790867 
0.401235 
0.146838 
0.121694 
0.208617 
0.347389 
0.555366 
0.792751 
0.959771 
0.999574 
0.908935 
0.605004 
0.259837 
0.048428 
0.004658 
0.001030 
0.001000 
0.001000 
0.001000 
0.001000 
0.001000 
0.001000 
0.001000 
0.001000 
0.001000 
0.001000 
0.001229 
0.030500 
0.332217 
0.822001 
0.800996 
0.307190 
0.027355 
0.001195 
0.001000 
0.001000 
0.999672 
0.999681 
0.999630 
0.981361 
0.837506 
0.532055 
0.331606 
0.348663 
0.527428 
0.711229 
0.857760 
0.966165 
0.999364 
0.914460 
0.613189 
0.262313 
0.048444 
0.004662 
0.001031 
0.001000 
0.001000 
0.001000 
0.001000 
0.001000 
0.001000 
0.001000 
0.001000 
0.001000 
0.001000 
0.001000 
0.001231 
0.030554 
0.332396 
0.819773 
0.787417 
0.298754 
0.025978 
0.001186 
0.001000 
0.001000 
0.999664 
0.999656 
0.999565 
0.977299 
0.873985 
0.659265 
0.525709 
0.609463 
0.758264 
0.858426 
0.941102 
0.993471 
0.943048 
0.667013 
0.287453 
0.051803 
0.004809 
0.001031 
0.001000 
0.001000 
0.001000 
0.001000 
0.001000 
0.001000 
0.001000 
0.001000 
0.001000 
0.001000 
0.001000 
0.001000 
0.001238 
0.030910 
0.333350 
0.815069 
0.772207 
0.284014 
0.024474 
0.001169 
0.001000 
0.001000 
0.999518 
0.999539 
0.999457 
0.988218 
0.912702 
0.761951 
0.675681 
0.708641 
0.728602 
0.742377 
0.842314 
0.945183 
0.782986 
0.386215 
0.078814 
0.006465 
0.001043 
0.001000 
0.001000 
0.001000 
0.001000 
0.001000 
0.001000 
0.001000 
0.001000 
0.001000 
0.001000 
0.001000 
0.001000 
0.001000 
0.001260 
0.031549 
0.335967 
0.811910 
0.757243 
0.274635 
0.023038 
0.001153 
0.001000 
0.001000 
0.971019 
0.988294 
0.999309 
0.998594 
0.936472 
0.780462 
0.665773 
0.620127 
0.548317 
0.536631 
0.717945 
0.827671 
0.564725 
0.171205 
0.016761 
0.001240 
0.001000 
0.001000 
0.001000 
0.001000 
0.001000 
0.001000 
0.001000 
0.001000 
0.001000 
0.001000 
0.001000 
0.001000 
0.001000 
0.001000 
0.001270 
0.032149 
0.337102 
0.812818 
0.752650 
0.268715 
0.022607 
0.001152 
0.001000 
0.001000 
0.892477 
0.944853 
0.988824 
0.992132 
0.904895 
0.711084 
0.532102 
0.460546 
0.418531 
0.472361 
0.679690 
0.693203 
0.345421 
0.058126 
0.003255 
0.001006 
0.001000 
0.001000 
0.001000 
0.001000 
0.001000 
0.001000 
0.001000 
0.001000 
0.001000 
0.001000 
0.001000 
0.001000 
0.001000 
0.001000 
0.001316 
0.034017 
0.342161 
0.811166 
0.748095 
0.267364 
0.022184 
0.001152 
0.001000 
0.001000 
0.765382 
0.886237 
0.970596 
0.983656 
0.871150 
0.602876 
0.383666 
0.342762 
0.400705 
0.566546 
0.707764 
0.537573 
0.166551 
0.015786 
0.001216 
0.001000 
0.001000 
0.001000 
0.001000 
0.001000 
0.001000 
0.001000 
0.001000 
0.001000 
0.001000 
0.001000 
0.001000 
0.001000 
0.001000 
0.001000 
0.001520 
0.038847 
0.360491 
0.818430 
0.738922 
0.258103 
0.021343 
0.001142 
0.001000 
0.001000 
0.614858 
0.804308 
0.958523 
0.986652 
0.855569 
0.548632 
0.303728 
0.284437 
0.454472 
0.688480 
0.666056 
0.326146 
0.058684 
0.003599 
0.001010 
0.001000 
0.001000 
0.001000 
0.001000 
0.001000 
0.001000 
0.001000 
0.001000 
0.001000 
0.001000 
0.001000 
0.001000 
0.001000 
0.001000 
0.001001 
0.001680 
0.045294 
0.372020 
0.824725 
0.723787 
0.248424 
0.019991 
0.001129 
0.001000 
0.001000 
0.396785 
0.662234 
0.920581 
0.995528 
0.880585 
0.583831 
0.309993 
0.298313 
0.518390 
0.711388 
0.487704 
0.138929 
0.013471 
0.001223 
0.001000 
0.001000 
0.001000 
0.001000 
0.001000 
0.001000 
0.001000 
0.001000 
0.001000 
0.001000 
0.001000 
0.001000 
0.001000 
0.001000 
0.001000 
0.001000 
0.001646 
0.042096 
0.369628 
0.812979 
0.717084 
0.243431 
0.019414 
0.001119 
0.001000 
0.001000 
0.177607 
0.478834 
0.836393 
0.998807 
0.942964 
0.703480 
0.447743 
0.379042 
0.525864 
0.541485 
0.259557 
0.041496 
0.002678 
0.001006 
0.001000 
0.001000 
0.001000 
0.001000 
0.001000 
0.001000 
0.001000 
0.001000 
0.001000 
0.001000 
0.001000 
0.001000 
0.001000 
0.001000 
0.001000 
0.001000 
0.001784 
0.048037 
0.369180 
0.784649 
0.719950 
0.255598 
0.020970 
0.001131 
0.001000 
0.001000 
0.067388 
0.296692 
0.703154 
0.974177 
0.989906 
0.865650 
0.644687 
0.489223 
0.430215 
0.268499 
0.079572 
0.008465 
0.001118 
0.001000 
0.001000 
0.001000 
0.001000 
0.001000 
0.001000 
0.001000 
0.001000 
0.001000 
0.001000 
0.001000 
0.001000 
0.001000 
0.001000 
0.001000 
0.001000 
0.001004 
0.003591 
0.075024 
0.401819 
0.733994 
0.683892 
0.290525 
0.030697 
0.001313 
0.001000 
0.001000 
0.018978 
0.133025 
0.479192 
0.864896 
0.999313 
0.971066 
0.823522 
0.601230 
0.317736 
0.109606 
0.014452 
0.001505 
0.001003 
0.001000 
0.001000 
0.001000 
0.001000 
0.001000 
0.001000 
0.001000 
0.001000 
0.001000 
0.001000 
0.001000 
0.001000 
0.001000 
0.001000 
0.001000 
0.001000 
0.001072 
0.011157 
0.145331 
0.456999 
0.623123 
0.621436 
0.359729 
0.062808 
0.002934 
0.001002 
0.001000 
0.003210 
0.033185 
0.233437 
0.636314 
0.943124 
0.999443 
0.948851 
0.737021 
0.406632 
0.104700 
0.012921 
0.001316 
0.001001 
0.001000 
0.001000 
0.001000 
0.001000 
0.001000 
0.001000 
0.001000 
0.001000 
0.001000 
0.001000 
0.001000 
0.001000 
0.001000 
0.001000 
0.001000 
0.001000 
0.001519 
0.030949 
0.254186 
0.506421 
0.511874 
0.529982 
0.458378 
0.150882 
0.010643 
0.001082 
0.001000 
0.001036 
0.005097 
0.066430 
0.366404 
0.761191 
0.971002 
0.999489 
0.923036 
0.644978 
0.302751 
0.073274 
0.010569 
0.001425 
0.001002 
0.001000 
0.001000 
0.001000 
0.001000 
0.001000 
0.001000 
0.001000 
0.001000 
0.001000 
0.001000 
0.001000 
0.001000 
0.001000 
0.001000 
0.001005 
0.003220 
0.070226 
0.370989 
0.513038 
0.364347 
0.400410 
0.502861 
0.267064 
0.031463 
0.001575 
0.001000 
0.001000 
0.001189 
0.013431 
0.137206 
0.452631 
0.784102 
0.958234 
0.999557 
0.915529 
0.654547 
0.337422 
0.099142 
0.015022 
0.001751 
0.001006 
0.001000 
0.001000 
0.001000 
0.001000 
0.001000 
0.001000 
0.001000 
0.001000 
0.001000 
0.001000 
0.001000 
0.001000 
0.001000 
0.001036 
0.008038 
0.132139 
0.472657 
0.453773 
0.213273 
0.223179 
0.444646 
0.376787 
0.074468 
0.003952 
0.001011 
0.001000 
0.001002 
0.001955 
0.023896 
0.152388 
0.421419 
0.727934 
0.937381 
0.999626 
0.935258 
0.704548 
0.381188 
0.122126 
0.021211 
0.002398 
0.001012 
0.001000 
0.001000 
0.001000 
0.001000 
0.001000 
0.001000 
0.001000 
0.001000 
0.001000 
0.001000 
0.001000 
0.001000 
0.001169 
0.018660 
0.219115 
0.554342 
0.370161 
0.105554 
0.107008 
0.363793 
0.483209 
0.159604 
0.012462 
0.001174 
0.001000 
0.001000 
0.001010 
0.002245 
0.019792 
0.113563 
0.349111 
0.658334 
0.915782 
0.999602 
0.945904 
0.742409 
0.432535 
0.161383 
0.029633 
0.003153 
0.001020 
0.001000 
0.001000 
0.001000 
0.001000 
0.001000 
0.001000 
0.001000 
0.001000 
0.001000 
0.001000 
0.001000 
0.001719 
0.039004 
0.320974 
0.585128 
0.287174 
0.051553 
0.050912 
0.277539 
0.549977 
0.264057 
0.028893 
0.001682 
0.001000 
0.001000 
0.001000 
0.001005 
0.001614 
0.011677 
0.072820 
0.286477 
0.613711 
0.906338 
0.998096 
0.959673 
0.795033 
0.492570 
0.196773 
0.038168 
0.004115 
0.001031 
0.001000 
0.001000 
0.001000 
0.001000 
0.001000 
0.001000 
0.001000 
0.001000 
0.001000 
0.001005 
0.003393 
0.074153 
0.405398 
0.548938 
0.194605 
0.023158 
0.019233 
0.171211 
0.486127 
0.337841 
0.055332 
0.003496 
0.001000 
0.001000 
0.001000 
0.001000 
0.001001 
0.001170 
0.006381 
0.052202 
0.260278 
0.589018 
0.878455 
0.984041 
0.975254 
0.840343 
0.546343 
0.238943 
0.046838 
0.004905 
0.001052 
0.001000 
0.001000 
0.001000 
0.001000 
0.001000 
0.001000 
0.001000 
0.001000 
0.001042 
0.008118 
0.128364 
0.477740 
0.470735 
0.118311 
0.008189 
0.005225 
0.072929 
0.382500 
0.403014 
0.111938 
0.012030 
0.001000 
0.001000 
0.001000 
0.001000 
0.001000 
0.001000 
0.001046 
0.004766 
0.045549 
0.231615 
0.529130 
0.815754 
0.963712 
0.986735 
0.886250 
0.596041 
0.264011 
0.053828 
0.006833 
0.001207 
0.001001 
0.001000 
0.001000 
0.001000 
0.001000 
0.001000 
0.001000 
0.001267 
0.019559 
0.212558 
0.540612 
0.376870 
0.065833 
0.002973 
0.001747 
0.035494 
0.299540 
0.477342 
0.210509 
0.033465 
0.001000 
0.001000 
0.001000 
0.001000 
0.001000 
0.001000 
0.001000 
0.001029 
0.003935 
0.035338 
0.176823 
0.448758 
0.750100 
0.945534 
0.999592 
0.909208 
0.618309 
0.292829 
0.077416 
0.012864 
0.001749 
0.001007 
0.001000 
0.001000 
0.001000 
0.001000 
0.001001 
0.001909 
0.042023 
0.307276 
0.564522 
0.288451 
0.031664 
0.001516 
0.001204 
0.018553 
0.225995 
0.491148 
0.290973 
0.066538 
0.001000 
0.001000 
0.001000 
0.001000 
0.001000 
0.001000 
0.001000 
0.001000 
0.001018 
0.002720 
0.023366 
0.128084 
0.375529 
0.682483 
0.922583 
0.999663 
0.918142 
0.667130 
0.360987 
0.122815 
0.023062 
0.002741 
0.001018 
0.001000 
0.001000 
0.001000 
0.001004 
0.003251 
0.068064 
0.390466 
0.545962 
0.198350 
0.016767 
0.001198 
0.001105 
0.010442 
0.138732 
0.427494 
0.357188 
0.117529 
0.001000 
0.001000 
0.001000 
0.001000 
0.001000 
0.001000 
0.001000 
0.001000 
0.001000 
0.001007 
0.001831 
0.014402 
0.085960 
0.305106 
0.625311 
0.909394 
0.999529 
0.940667 
0.742258 
0.446513 
0.177981 
0.035543 
0.004181 
0.001055 
0.001000 
0.001000 
0.001043 
0.007069 
0.111173 
0.453088 
0.484532 
0.141153 
0.009216 
0.001306 
0.001326 
0.007194 
0.090157 
0.354917 
0.407782 
0.216537 
0.001000 
0.001000 
0.001000 
0.001000 
0.001000 
0.001000 
0.001000 
0.001000 
0.001000 
0.001000 
0.001002 
0.001285 
0.007772 
0.056873 
0.266497 
0.597636 
0.889497 
0.988668 
0.963882 
0.817046 
0.530393 
0.235940 
0.051690 
0.006628 
0.001145 
0.001003 
0.001463 
0.019759 
0.188774 
0.500163 
0.412658 
0.089278 
0.009693 
0.003238 
0.004936 
0.012007 
0.070205 
0.290120 
0.441406 
0.326088 
0.001000 
0.001000 
0.001000 
0.001000 
0.001000 
0.001000 
0.001000 
0.001000 
0.001000 
0.001000 
0.001000 
0.001000 
0.001067 
0.005061 
0.047226 
0.242007 
0.550909 
0.840495 
0.973091 
0.984492 
0.878421 
0.603710 
0.288050 
0.069728 
0.008524 
0.001517 
0.003356 
0.050720 
0.284091 
0.530700 
0.337458 
0.087880 
0.023261 
0.023370 
0.030174 
0.032726 
0.074602 
0.245651 
0.447085 
0.427769 
0.001000 
0.001000 
0.001000 
0.001000 
0.001000 
0.001000 
0.001000 
0.001000 
0.001000 
0.001000 
0.001000 
0.001000 
0.001000 
0.001031 
0.004198 
0.038933 
0.197266 
0.489336 
0.795384 
0.962710 
0.997673 
0.916639 
0.650344 
0.314310 
0.075566 
0.013562 
0.012269 
0.084438 
0.347661 
0.512934 
0.274771 
0.084881 
0.045590 
0.058901 
0.065054 
0.048412 
0.064485 
0.201162 
0.440461 
0.525429 
0.001000 
0.001000 
0.001000 
0.001000 
0.001000 
0.001000 
0.001000 
0.001000 
0.001000 
0.001000 
0.001000 
0.001000 
0.001000 
0.001000 
0.001021 
0.003155 
0.029150 
0.160988 
0.441262 
0.753422 
0.948459 
0.999612 
0.927891 
0.663656 
0.325262 
0.101401 
0.052839 
0.113942 
0.342128 
0.449468 
0.220972 
0.058121 
0.026576 
0.027261 
0.024007 
0.016871 
0.026633 
0.131717 
0.418320 
0.623021 
0.001000 
0.001000 
0.001000 
0.001000 
0.001000 
0.001000 
0.001000 
0.001000 
0.001000 
0.001000 
0.001000 
0.001000 
0.001000 
0.001000 
0.001000 
0.001011 
0.002404 
0.022360 
0.130403 
0.387710 
0.702419 
0.932120 
0.999655 
0.928617 
0.683185 
0.380904 
0.188539 
0.191992 
0.335729 
0.411045 
0.177774 
0.029765 
0.004921 
0.002752 
0.002319 
0.002021 
0.005944 
0.075471 
0.378013 
0.718291 
0.001000 
0.001000 
0.001000 
0.001000 
0.001000 
0.001000 
0.001000 
0.001000 
0.001000 
0.001000 
0.001000 
0.001000 
0.001000 
0.001000 
0.001000 
0.001000 
0.001007 
0.001867 
0.015755 
0.097379 
0.332792 
0.654618 
0.918450 
0.999592 
0.940070 
0.724384 
0.486226 
0.366242 
0.435922 
0.396710 
0.153091 
0.015526 
0.001482 
0.001012 
0.001005 
0.001010 
0.001924 
0.044394 
0.339706 
0.753367 
0.001000 
0.001000 
0.001000 
0.001000 
0.001000 
0.001000 
0.001000 
0.001000 
0.001000 
0.001000 
0.001000 
0.001000 
0.001000 
0.001000 
0.001000 
0.001000 
0.001000 
0.001003 
0.001410 
0.010130 
0.071054 
0.290740 
0.620877 
0.907882 
0.997707 
0.944542 
0.795186 
0.672508 
0.595066 
0.409074 
0.131232 
0.014175 
0.001198 
0.001000 
0.001000 
0.001000 
0.001306 
0.033146 
0.311085 
0.758890 
0.001000 
0.001000 
0.001000 
0.001000 
0.001000 
0.001000 
0.001000 
0.001000 
0.001000 
0.001000 
0.001000 
0.001000 
0.001000 
0.001000 
0.001000 
0.001000 
0.001000 
0.001000 
0.001001 
0.001155 
0.006685 
0.055409 
0.265490 
0.596045 
0.888719 
0.989968 
0.966551 
0.904783 
0.786082 
0.532533 
0.204104 
0.040264 
0.005290 
0.001379 
0.001036 
0.001001 
0.001225 
0.030309 
0.303641 
0.758816 
0.001000 
0.001000 
0.001000 
0.001000 
0.001000 
0.001000 
0.001000 
0.001000 
0.001000 
0.001000 
0.001000 
0.001000 
0.001000 
0.001000 
0.001000 
0.001000 
0.001000 
0.001000 
0.001000 
0.001000 
0.001060 
0.005103 
0.047698 
0.242219 
0.559294 
0.855297 
0.979823 
0.995777 
0.944012 
0.765717 
0.484994 
0.232321 
0.078292 
0.026831 
0.008070 
0.002409 
0.002402 
0.034459 
0.303592 
0.758835 
0.001000 
0.001000 
0.001000 
0.001000 
0.001000 
0.001000 
0.001000 
0.001000 
0.001000 
0.001000 
0.001000 
0.001000 
0.001000 
0.001000 
0.001000 
0.001000 
0.001000 
0.001000 
0.001000 
0.001000 
0.001000 
0.001034 
0.004265 
0.040493 
0.210424 
0.496877 
0.773111 
0.942071 
0.999624 
0.964405 
0.847342 
0.643944 
0.437785 
0.263980 
0.134043 
0.050525 
0.027306 
0.077424 
0.342711 
0.752302 
0.001000 
0.001000 
0.001000 
0.001000 
0.001000 
0.001000 
0.001000 
0.001000 
0.001000 
0.001000 
0.001000 
0.001000 
0.001000 
0.001000 
0.001000 
0.001000 
0.001000 
0.001000 
0.001000 
0.001000 
0.001000 
0.001000 
0.001023 
0.003453 
0.030283 
0.145341 
0.368046 
0.619053 
0.813417 
0.921616 
0.981952 
0.953688 
0.853067 
0.721972 
0.551205 
0.352261 
0.228375 
0.242002 
0.493212 
0.787920 
0.001000 
0.001000 
0.001000 
0.001000 
0.001000 
0.001000 
0.001000 
0.001000 
0.001000 
0.001000 
0.001000 
0.001000 
0.001000 
0.001000 
0.001000 
0.001000 
0.001000 
0.001000 
0.001000 
0.001000 
0.001000 
0.001000 
0.001000 
0.001015 
0.002100 
0.013601 
0.062231 
0.195402 
0.370107 
0.564276 
0.727772 
0.827742 
0.890545 
0.933212 
0.904512 
0.793852 
0.641321 
0.611928 
0.716270 
0.889192 
0.001000 
0.001000 
0.001000 
0.001000 
0.001000 
0.001000 
0.001000 
0.001000 
0.001000 
0.001000 
0.001000 
0.001000 
0.001000 
0.001000 
0.001000 
0.001000 
0.001000 
0.001000 
0.001000 
0.001000 
0.001000 
0.001000 
0.001000 
0.001000 
0.001002 
0.001181 
0.004062 
0.019222 
0.065756 
0.168346 
0.308291 
0.442466 
0.593800 
0.778462 
0.926800 
0.983387 
0.934529 
0.880129 
0.911817 
0.961836 
0.001000 
0.001000 
0.001000 
0.001000 
0.001000 
0.001000 
0.001000 
0.001000 
0.001000 
0.001000 
0.001000 
0.001000 
0.001000 
0.001000 
0.001000 
0.001000 
0.001000 
0.001000 
0.001000 
0.001000 
0.001000 
0.001000 
0.001000 
0.001000 
0.001000 
0.001000 
0.001012 
0.001501 
0.005728 
0.023479 
0.066559 
0.138677 
0.295419 
0.573671 
0.846184 
0.972796 
0.998671 
0.990596 
0.981877 
0.984944 

stress 1 6400 float
0.000093 
0.000210 
0.000268 
0.000255 
0.000203 
0.000371 
0.000796 
0.001388 
0.002113 
0.002950 
0.003881 
0.004893 
0.005986 
0.007180 
0.008514 
0.010050 
0.011863 
0.014039 
0.016802 
0.021052 
0.269244 
0.409116 
0.495065 
0.529336 
0.524105 
0.590160 
0.725409 
0.889732 
1.027127 
1.110983 
1.144248 
1.139344 
1.114210 
1.085964 
1.065347 
1.055579 
1.054981 
1.060218 
1.068246 
1.077148 
1.086007 
1.094598 
1.103012 
1.111255 
1.119312 
1.127304 
1.135404 
1.143659 
1.151977 
1.160223 
1.168307 
1.176208 
1.183884 
1.191207 
1.197969 
1.204019 
1.209374 
1.214170 
1.218554 
1.222641 
1.226495 
1.230153 
1.233633 
1.236945 
1.240096 
1.243091 
1.245938 
1.248641 
1.251206 
1.253639 
1.255947 
1.258135 
1.260209 
1.262174 
1.264039 
1.265812 
1.267511 
1.269170 
1.270856 
1.272691 
1.274859 
1.277589 
1.281066 
1.285323 
1.290194 
1.295398 
1.300692 
1.305944 
1.311104 
1.316141 
1.320992 
1.325513 
1.329411 
1.332157 
1.333005 
1.331264 
1.327419 
1.323445 
1.339492 
1.370809 
0.000211 
0.000199 
0.000113 
0.000353 
0.000783 
0.001306 
0.001905 
0.002576 
0.003316 
0.004125 
0.005001 
0.005947 
0.006973 
0.008099 
0.009360 
0.010811 
0.012513 
0.014573 
0.017641 
0.246096 
0.442895 
0.648548 
0.851404 
0.904717 
0.877236 
0.870775 
0.905530 
0.954047 
1.000695 
1.038212 
1.061969 
1.069929 
1.067620 
1.064519 
1.065184 
1.069738 
1.076521 
1.082928 
1.088601 
1.093700 
1.098004 
1.102131 
1.106367 
1.110445 
1.114286 
1.117965 
1.121587 
1.125228 
1.128738 
1.132033 
1.135180 
1.138174 
1.141119 
1.144055 
1.146817 
1.149338 
1.151691 
1.153956 
1.156165 
1.158315 
1.160391 
1.162382 
1.164286 
1.166101 
1.167829 
1.169474 
1.171038 
1.172525 
1.173937 
1.175278 
1.176551 
1.177760 
1.178907 
1.179996 
1.181029 
1.182010 
1.182937 
1.183806 
1.184612 
1.185358 
1.186086 
1.186901 
1.187954 
1.189317 
1.190870 
1.192410 
1.193835 
1.195177 
1.196492 
1.197807 
1.199144 
1.200545 
1.202107 
1.203955 
1.206130 
1.208720 
1.211738 
1.213635 
1.195148 
1.084527 
0.000271 
0.000114 
0.000407 
0.000885 
0.001486 
0.002168 
0.002903 
0.003679 
0.004490 
0.005333 
0.006211 
0.007129 
0.008100 
0.009148 
0.010320 
0.011698 
0.013417 
0.015990 
0.220657 
0.429333 
0.615203 
0.794340 
0.954441 
1.011922 
1.004070 
1.009450 
1.033284 
1.043148 
1.040875 
1.038428 
1.037523 
1.037285 
1.040308 
1.049081 
1.066175 
1.084533 
1.096561 
1.104606 
1.108364 
1.109128 
1.109917 
1.110067 
1.109794 
1.109753 
1.109506 
1.108970 
1.108256 
1.107066 
1.105648 
1.104105 
1.102229 
1.100440 
1.098714 
1.096993 
1.095652 
1.094741 
1.094194 
1.093991 
1.094045 
1.094252 
1.094534 
1.094844 
1.095159 
1.095468 
1.095766 
1.096053 
1.096328 
1.096591 
1.096843 
1.097084 
1.097315 
1.097535 
1.097746 
1.097946 
1.098133 
1.098299 
1.098422 
1.098460 
1.098336 
1.097944 
1.097182 
1.096029 
1.094606 
1.093093 
1.091418 
1.089328 
1.086897 
1.084391 
1.081924 
1.079579 
1.077494 
1.075843 
1.074943 
1.075277 
1.076969 
1.078879 
1.077660 
1.063263 
1.011038 
0.922641 
0.000260 
0.000360 
0.000898 
0.001536 
0.002275 
0.003078 
0.003924 
0.004797 
0.005685 
0.006581 
0.007482 
0.008388 
0.009317 
0.010298 
0.011415 
0.012879 
0.015562 
0.214060 
0.430569 
0.627200 
0.787665 
0.899098 
0.983805 
1.016727 
1.023214 
1.052440 
1.084331 
1.090287 
1.074636 
1.052106 
1.034597 
1.033164 
1.043574 
1.061480 
1.088089 
1.112332 
1.122859 
1.125840 
1.125294 
1.120468 
1.117831 
1.115124 
1.110151 
1.105743 
1.101902 
1.097924 
1.093112 
1.086986 
1.080540 
1.074193 
1.067767 
1.061490 
1.055189 
1.048514 
1.042840 
1.038813 
1.035885 
1.033613 
1.031741 
1.030117 
1.028653 
1.027300 
1.026033 
1.024838 
1.023708 
1.022638 
1.021625 
1.020666 
1.019759 
1.018901 
1.018089 
1.017321 
1.016594 
1.015904 
1.015243 
1.014599 
1.013943 
1.013220 
1.012328 
1.011101 
1.009303 
1.006684 
1.003065 
0.998188 
0.992269 
0.986096 
0.979829 
0.973404 
0.967136 
0.961140 
0.955419 
0.950242 
0.946097 
0.943168 
0.940965 
0.938713 
0.933013 
0.910214 
0.857545 
0.781815 
0.000207 
0.000819 
0.001541 
0.002321 
0.003171 
0.004065 
0.004989 
0.005930 
0.006876 
0.007812 
0.008724 
0.009607 
0.010475 
0.011428 
0.012668 
0.016375 
0.213799 
0.452313 
0.653905 
0.834571 
0.927283 
0.979137 
1.008537 
1.022738 
1.038037 
1.070044 
1.092946 
1.089560 
1.065218 
1.032409 
1.012419 
1.028396 
1.071456 
1.095847 
1.110720 
1.120998 
1.115676 
1.107898 
1.099469 
1.088465 
1.083155 
1.078514 
1.069238 
1.060499 
1.053966 
1.047632 
1.039617 
1.029071 
1.018145 
1.008006 
0.997997 
0.988451 
0.978339 
0.967169 
0.957626 
0.951168 
0.946619 
0.942815 
0.939345 
0.936094 
0.933025 
0.930122 
0.927371 
0.924762 
0.922287 
0.919940 
0.917715 
0.915606 
0.913608 
0.911715 
0.909923 
0.908225 
0.906616 
0.905089 
0.903635 
0.902241 
0.900891 
0.899556 
0.898183 
0.896672 
0.894802 
0.892079 
0.887414 
0.879242 
0.868769 
0.858895 
0.849995 
0.840877 
0.831864 
0.823211 
0.814604 
0.806495 
0.799269 
0.791773 
0.783343 
0.777552 
0.772796 
0.749943 
0.704835 
0.652531 
0.000397 
0.001407 
0.002307 
0.003217 
0.004159 
0.005114 
0.006081 
0.007057 
0.008029 
0.008980 
0.009880 
0.010705 
0.011525 
0.012565 
0.087344 
0.245013 
0.495275 
0.707273 
0.876233 
0.963135 
1.001117 
1.004190 
1.006867 
1.020954 
1.047018 
1.069138 
1.063429 
1.035701 
0.996990 
0.960079 
0.944422 
0.971488 
1.063442 
1.104773 
1.061473 
1.023457 
0.984163 
0.965429 
0.947579 
0.931795 
0.925746 
0.919669 
0.908146 
0.897018 
0.889332 
0.881873 
0.872656 
0.859828 
0.846631 
0.835217 
0.823356 
0.812777 
0.800895 
0.787499 
0.776162 
0.768551 
0.763269 
0.758678 
0.754305 
0.750085 
0.746036 
0.742173 
0.738498 
0.735007 
0.731693 
0.728548 
0.725565 
0.722736 
0.720055 
0.717515 
0.715108 
0.712828 
0.710667 
0.708618 
0.706672 
0.704827 
0.703088 
0.701482 
0.700077 
0.698988 
0.698265 
0.697382 
0.693907 
0.684795 
0.672437 
0.661977 
0.653878 
0.645548 
0.636948 
0.628521 
0.619773 
0.611330 
0.603147 
0.592066 
0.578300 
0.571396 
0.569470 
0.546734 
0.516115 
0.525535 
0.000889 
0.002124 
0.003186 
0.004216 
0.005234 
0.006225 
0.007206 
0.008183 
0.009154 
0.010092 
0.010968 
0.011738 
0.012596 
0.124712 
0.298365 
0.515616 
0.753295 
0.932646 
1.007227 
1.028764 
1.015922 
0.996800 
0.990990 
1.003962 
1.028543 
1.026819 
0.987245 
0.936403 
0.893847 
0.866754 
0.877894 
0.909838 
0.913039 
0.999046 
0.932965 
0.793462 
0.710199 
0.670012 
0.647707 
0.630231 
0.623250 
0.618262 
0.607879 
0.598323 
0.591761 
0.585571 
0.577557 
0.566642 
0.555440 
0.545382 
0.535428 
0.526059 
0.515842 
0.504242 
0.494276 
0.487508 
0.482622 
0.478342 
0.474270 
0.470329 
0.466527 
0.462880 
0.459397 
0.456076 
0.452913 
0.449903 
0.447038 
0.444314 
0.441724 
0.439261 
0.436921 
0.434698 
0.432586 
0.430582 
0.428685 
0.426908 
0.425289 
0.423925 
0.423022 
0.422949 
0.424122 
0.426227 
0.425806 
0.419452 
0.409207 
0.402700 
0.398973 
0.394714 
0.389815 
0.384561 
0.378585 
0.372360 
0.365603 
0.354265 
0.339780 
0.333131 
0.331207 
0.311372 
0.298673 
0.387235 
0.001610 
0.002983 
0.004181 
0.005316 
0.006393 
0.007400 
0.008365 
0.009315 
0.010250 
0.011186 
0.012034 
0.012988 
0.150234 
0.329677 
0.528547 
0.745442 
0.939433 
1.037983 
1.060785 
1.042983 
1.019741 
1.000324 
0.989402 
0.993693 
0.992080 
0.960597 
0.902105 
0.853590 
0.817368 
0.795714 
0.809801 
0.853106 
0.864646 
0.769732 
0.659863 
0.545979 
0.512653 
0.488143 
0.476954 
0.476932 
0.474145 
0.474729 
0.478102 
0.479167 
0.479396 
0.479210 
0.477834 
0.476483 
0.473541 
0.468629 
0.463651 
0.457116 
0.449764 
0.442574 
0.434157 
0.425020 
0.416098 
0.407497 
0.399131 
0.390895 
0.382728 
0.374605 
0.366521 
0.358478 
0.350482 
0.342543 
0.334669 
0.326872 
0.319162 
0.311551 
0.304048 
0.296664 
0.289409 
0.282292 
0.275323 
0.268516 
0.261898 
0.255522 
0.249504 
0.244055 
0.239511 
0.236245 
0.234297 
0.232382 
0.226731 
0.218897 
0.211071 
0.203458 
0.196047 
0.188911 
0.181750 
0.174711 
0.167598 
0.157769 
0.145526 
0.137974 
0.134488 
0.122662 
0.125099 
0.223182 
0.002560 
0.004003 
0.005302 
0.006522 
0.007641 
0.008641 
0.009569 
0.010462 
0.011390 
0.012332 
0.013648 
0.179161 
0.353215 
0.540235 
0.756857 
0.929929 
1.036352 
1.074855 
1.066039 
1.050598 
1.041493 
1.028616 
1.014798 
1.013730 
0.973943 
0.937368 
0.929235 
0.873241 
0.807492 
0.763766 
0.769564 
0.784815 
0.754204 
0.639902 
0.302107 
0.028229 
0.026781 
0.026386 
0.026300 
0.026392 
0.026592 
0.026758 
0.026935 
0.027105 
0.027201 
0.027223 
0.027183 
0.027083 
0.026924 
0.026694 
0.026393 
0.026041 
0.025645 
0.025229 
0.024803 
0.024352 
0.023886 
0.023423 
0.022967 
0.022519 
0.022077 
0.021638 
0.021202 
0.020771 
0.020343 
0.019920 
0.019503 
0.019094 
0.018695 
0.018307 
0.017934 
0.017579 
0.017247 
0.016944 
0.016681 
0.016473 
0.016343 
0.016339 
0.016553 
0.017211 
0.018940 
0.023615 
0.034253 
0.053698 
0.071885 
0.081192 
0.085472 
0.089000 
0.090639 
0.090416 
0.089203 
0.086630 
0.082278 
0.077030 
0.071368 
0.063532 
0.053178 
0.046919 
0.053634 
0.082981 
0.003753 
0.005200 
0.006562 
0.007847 
0.008991 
0.009968 
0.010838 
0.011737 
0.012746 
0.014712 
0.198896 
0.390730 
0.555849 
0.747776 
0.921046 
1.031710 
1.076289 
1.078696 
1.072002 
1.074059 
1.074397 
1.045139 
1.007007 
1.005090 
0.957415 
1.028848 
1.075655 
0.973824 
0.870300 
0.804253 
0.800376 
0.794288 
0.711924 
0.551165 
0.264258 
0.024036 
0.023529 
0.023889 
0.024324 
0.024736 
0.025102 
0.025402 
0.025667 
0.025894 
0.026047 
0.026118 
0.026115 
0.026052 
0.025931 
0.025745 
0.025494 
0.025188 
0.024838 
0.024461 
0.024064 
0.023638 
0.023182 
0.022710 
0.022231 
0.021749 
0.021268 
0.020785 
0.020302 
0.019820 
0.019337 
0.018854 
0.018373 
0.017894 
0.017417 
0.016943 
0.016474 
0.016008 
0.015549 
0.015096 
0.014650 
0.014214 
0.013789 
0.013375 
0.012976 
0.012588 
0.012205 
0.011814 
0.011407 
0.010998 
0.010594 
0.010175 
0.009704 
0.009182 
0.008629 
0.008051 
0.007450 
0.006828 
0.006174 
0.005496 
0.004819 
0.004127 
0.003382 
0.002759 
0.002595 
0.003221 
0.005202 
0.006591 
0.007976 
0.009304 
0.010456 
0.011405 
0.012282 
0.013297 
0.063951 
0.233276 
0.458905 
0.630503 
0.784934 
0.913680 
1.019418 
1.072549 
1.081718 
1.082051 
1.090220 
1.100520 
1.077025 
0.997089 
0.887024 
0.847930 
0.865965 
1.058560 
1.118915 
1.053466 
0.976586 
0.898705 
0.868811 
0.840330 
0.721767 
0.521155 
0.281559 
0.021106 
0.021077 
0.021938 
0.022763 
0.023451 
0.024020 
0.024486 
0.024865 
0.025163 
0.025375 
0.025498 
0.025540 
0.025512 
0.025418 
0.025262 
0.025045 
0.024775 
0.024463 
0.024118 
0.023744 
0.023342 
0.022911 
0.022459 
0.021992 
0.021517 
0.021036 
0.020552 
0.020065 
0.019577 
0.019087 
0.018597 
0.018107 
0.017618 
0.017130 
0.016645 
0.016163 
0.015684 
0.015211 
0.014743 
0.014281 
0.013827 
0.013381 
0.012942 
0.012509 
0.012076 
0.011637 
0.011186 
0.010726 
0.010269 
0.009820 
0.009369 
0.008894 
0.008386 
0.007846 
0.007280 
0.006692 
0.006080 
0.005444 
0.004792 
0.004124 
0.003424 
0.002703 
0.002089 
0.001882 
0.002287 
0.006919 
0.008189 
0.009553 
0.010893 
0.012072 
0.012996 
0.014049 
0.116824 
0.298398 
0.528785 
0.731516 
0.882602 
0.964010 
1.026587 
1.067925 
1.083391 
1.084577 
1.090250 
1.098571 
1.079932 
1.004161 
0.846763 
0.661934 
0.640567 
0.582082 
0.875721 
0.991752 
1.091769 
1.087192 
1.012289 
0.948243 
0.892417 
0.762435 
0.545125 
0.314265 
0.021660 
0.019250 
0.020304 
0.021328 
0.022234 
0.022992 
0.023610 
0.024102 
0.024481 
0.024754 
0.024927 
0.025011 
0.025014 
0.024947 
0.024816 
0.024626 
0.024385 
0.024101 
0.023781 
0.023430 
0.023049 
0.022642 
0.022210 
0.021761 
0.021299 
0.020828 
0.020350 
0.019867 
0.019381 
0.018891 
0.018400 
0.017907 
0.017414 
0.016922 
0.016430 
0.015941 
0.015455 
0.014972 
0.014493 
0.014019 
0.013549 
0.013084 
0.012623 
0.012161 
0.011696 
0.011222 
0.010739 
0.010251 
0.009764 
0.009283 
0.008801 
0.008308 
0.007795 
0.007257 
0.006697 
0.006114 
0.005509 
0.004884 
0.004238 
0.003571 
0.002877 
0.002171 
0.001558 
0.001293 
0.001548 
0.008913 
0.010006 
0.011294 
0.012651 
0.013809 
0.015098 
0.167599 
0.361505 
0.575561 
0.795589 
0.959508 
1.030989 
1.060102 
1.073162 
1.083445 
1.086267 
1.081953 
1.074247 
1.046117 
0.972394 
0.810511 
0.610281 
0.505158 
0.335704 
0.155210 
0.495515 
0.832785 
1.048771 
1.118026 
1.085143 
1.022954 
0.951633 
0.821219 
0.606329 
0.368229 
0.153404 
0.017734 
0.018779 
0.020000 
0.021091 
0.022010 
0.022760 
0.023354 
0.023810 
0.024140 
0.024359 
0.024478 
0.024510 
0.024466 
0.024357 
0.024189 
0.023971 
0.023710 
0.023412 
0.023081 
0.022721 
0.022334 
0.021923 
0.021492 
0.021046 
0.020587 
0.020119 
0.019644 
0.019162 
0.018676 
0.018187 
0.017694 
0.017201 
0.016706 
0.016212 
0.015718 
0.015226 
0.014736 
0.014248 
0.013763 
0.013281 
0.012801 
0.012320 
0.011838 
0.011350 
0.010856 
0.010354 
0.009848 
0.009344 
0.008841 
0.008339 
0.007830 
0.007308 
0.006769 
0.006212 
0.005634 
0.005037 
0.004421 
0.003786 
0.003129 
0.002451 
0.001764 
0.001136 
0.000753 
0.000884 
0.011195 
0.012061 
0.013247 
0.014616 
0.016380 
0.212843 
0.406404 
0.598985 
0.820525 
0.987790 
1.066148 
1.084971 
1.078900 
1.078569 
1.083190 
1.074185 
1.040151 
0.982758 
0.901746 
0.746996 
0.566149 
0.429049 
0.219874 
0.030487 
0.031254 
0.158724 
0.634984 
0.855503 
1.023918 
1.093264 
1.068391 
0.997169 
0.865351 
0.651606 
0.418178 
0.222850 
0.016085 
0.017378 
0.018803 
0.020060 
0.021114 
0.021971 
0.022649 
0.023168 
0.023547 
0.023802 
0.023949 
0.024004 
0.023980 
0.023888 
0.023739 
0.023539 
0.023297 
0.023019 
0.022707 
0.022366 
0.021998 
0.021607 
0.021194 
0.020764 
0.020320 
0.019864 
0.019398 
0.018924 
0.018444 
0.017959 
0.017470 
0.016977 
0.016483 
0.015988 
0.015492 
0.014996 
0.014501 
0.014007 
0.013514 
0.013022 
0.012530 
0.012036 
0.011540 
0.011038 
0.010531 
0.010019 
0.009505 
0.008990 
0.008475 
0.007961 
0.007442 
0.006915 
0.006375 
0.005821 
0.005252 
0.004666 
0.004064 
0.003447 
0.002815 
0.002169 
0.001518 
0.000897 
0.000357 
0.000301 
0.013812 
0.014425 
0.015615 
0.018849 
0.243352 
0.459506 
0.630141 
0.820059 
0.981660 
1.068622 
1.088136 
1.076876 
1.071623 
1.077221 
1.074420 
1.028943 
0.931316 
0.807769 
0.653468 
0.511200 
0.359148 
0.129664 
0.027659 
0.028649 
0.029499 
0.030797 
0.465068 
0.685942 
0.914161 
1.067896 
1.093922 
1.039566 
0.938825 
0.770137 
0.547112 
0.309930 
0.060841 
0.016371 
0.017825 
0.019192 
0.020342 
0.021272 
0.022009 
0.022574 
0.022987 
0.023267 
0.023434 
0.023504 
0.023493 
0.023415 
0.023279 
0.023096 
0.022871 
0.022609 
0.022316 
0.021994 
0.021645 
0.021272 
0.020877 
0.020464 
0.020035 
0.019592 
0.019138 
0.018673 
0.018201 
0.017722 
0.017238 
0.016749 
0.016257 
0.015762 
0.015266 
0.014769 
0.014272 
0.013774 
0.013276 
0.012778 
0.012279 
0.011777 
0.011272 
0.010764 
0.010251 
0.009735 
0.009217 
0.008698 
0.008180 
0.007661 
0.007139 
0.006611 
0.006076 
0.005530 
0.004972 
0.004403 
0.003824 
0.003236 
0.002644 
0.002054 
0.001480 
0.000961 
0.000565 
0.000450 
0.016871 
0.017393 
0.021445 
0.264678 
0.528120 
0.709879 
0.858340 
0.976225 
1.055390 
1.077059 
1.063595 
1.057789 
1.068562 
1.074659 
1.038425 
0.933636 
0.767162 
0.579661 
0.454330 
0.326493 
0.029686 
0.026534 
0.027245 
0.027785 
0.028495 
0.029309 
0.251120 
0.602603 
0.817238 
1.015415 
1.091889 
1.074302 
1.011718 
0.888638 
0.685450 
0.429869 
0.160960 
0.015843 
0.017142 
0.018537 
0.019717 
0.020684 
0.021453 
0.022042 
0.022472 
0.022764 
0.022938 
0.023015 
0.023011 
0.022941 
0.022816 
0.022645 
0.022435 
0.022190 
0.021915 
0.021610 
0.021280 
0.020926 
0.020549 
0.020153 
0.019740 
0.019311 
0.018869 
0.018415 
0.017953 
0.017481 
0.017004 
0.016520 
0.016032 
0.015541 
0.015047 
0.014551 
0.014053 
0.013555 
0.013055 
0.012554 
0.012052 
0.011547 
0.011040 
0.010530 
0.010017 
0.009502 
0.008985 
0.008469 
0.007952 
0.007436 
0.006917 
0.006396 
0.005870 
0.005337 
0.004798 
0.004253 
0.003705 
0.003158 
0.002622 
0.002110 
0.001643 
0.001272 
0.001060 
0.001025 
0.020765 
0.023141 
0.281732 
0.566744 
0.793771 
0.950262 
1.020848 
1.062151 
1.070540 
1.051563 
1.036376 
1.047975 
1.066314 
1.041854 
0.946411 
0.776899 
0.564534 
0.435391 
0.320559 
0.028486 
0.026422 
0.026836 
0.027047 
0.027576 
0.028051 
0.028843 
0.031350 
0.516321 
0.682045 
0.923185 
1.063615 
1.084610 
1.046346 
0.952636 
0.762536 
0.510390 
0.263341 
0.015757 
0.016807 
0.018079 
0.019240 
0.020214 
0.020990 
0.021582 
0.022011 
0.022298 
0.022468 
0.022541 
0.022536 
0.022470 
0.022352 
0.022192 
0.021996 
0.021768 
0.021510 
0.021224 
0.020912 
0.020576 
0.020218 
0.019839 
0.019441 
0.019027 
0.018598 
0.018157 
0.017704 
0.017243 
0.016773 
0.016296 
0.015814 
0.015328 
0.014838 
0.014345 
0.013850 
0.013354 
0.012855 
0.012355 
0.011854 
0.011350 
0.010845 
0.010338 
0.009829 
0.009319 
0.008809 
0.008300 
0.007791 
0.007283 
0.006775 
0.006266 
0.005755 
0.005242 
0.004727 
0.004212 
0.003703 
0.003206 
0.002736 
0.002308 
0.001946 
0.001693 
0.001586 
0.001607 
0.026698 
0.305614 
0.551443 
0.794913 
0.998587 
1.077117 
1.093977 
1.081080 
1.056460 
1.026165 
1.017588 
1.039870 
1.040465 
0.960490 
0.777675 
0.566656 
0.450466 
0.299222 
0.028459 
0.026955 
0.027208 
0.027087 
0.027302 
0.027534 
0.027846 
0.028269 
0.029033 
0.372209 
0.590893 
0.834458 
1.015463 
1.079448 
1.063777 
0.998266 
0.851900 
0.624586 
0.375385 
0.116447 
0.016650 
0.017768 
0.018910 
0.019871 
0.020629 
0.021201 
0.021608 
0.021875 
0.022026 
0.022086 
0.022074 
0.022007 
0.021894 
0.021745 
0.021562 
0.021350 
0.021109 
0.020842 
0.020549 
0.020231 
0.019890 
0.019528 
0.019146 
0.018747 
0.018332 
0.017903 
0.017462 
0.017011 
0.016551 
0.016083 
0.015608 
0.015129 
0.014645 
0.014158 
0.013668 
0.013175 
0.012681 
0.012185 
0.011688 
0.011190 
0.010690 
0.010190 
0.009689 
0.009189 
0.008689 
0.008191 
0.007695 
0.007200 
0.006707 
0.006216 
0.005725 
0.005237 
0.004751 
0.004272 
0.003806 
0.003362 
0.002956 
0.002605 
0.002327 
0.002154 
0.002113 
0.002181 
0.338949 
0.515014 
0.731420 
0.935395 
1.065829 
1.105218 
1.088133 
1.065565 
1.038645 
1.005128 
0.994941 
1.010749 
0.989427 
0.822515 
0.591187 
0.473575 
0.272561 
0.028536 
0.027619 
0.027816 
0.027589 
0.027552 
0.027520 
0.027582 
0.027673 
0.027757 
0.028119 
0.173432 
0.528861 
0.708904 
0.928787 
1.047169 
1.068951 
1.035092 
0.926462 
0.723771 
0.476959 
0.225751 
0.016686 
0.017674 
0.018752 
0.019660 
0.020374 
0.020903 
0.021268 
0.021497 
0.021616 
0.021653 
0.021628 
0.021557 
0.021448 
0.021309 
0.021141 
0.020945 
0.020723 
0.020473 
0.020199 
0.019899 
0.019575 
0.019229 
0.018863 
0.018479 
0.018077 
0.017662 
0.017233 
0.016792 
0.016343 
0.015884 
0.015419 
0.014948 
0.014472 
0.013992 
0.013510 
0.013024 
0.012537 
0.012049 
0.011559 
0.011069 
0.010578 
0.010088 
0.009599 
0.009110 
0.008624 
0.008141 
0.007661 
0.007184 
0.006710 
0.006240 
0.005775 
0.005314 
0.004860 
0.004418 
0.003995 
0.003601 
0.003252 
0.002962 
0.002745 
0.002626 
0.002634 
0.002744 
0.446803 
0.684807 
0.870150 
0.997779 
1.070690 
1.076554 
1.058918 
1.044901 
1.019570 
0.976295 
0.942769 
0.949617 
0.897139 
0.723329 
0.490274 
0.230181 
0.029411 
0.028541 
0.028406 
0.028197 
0.028044 
0.027843 
0.027710 
0.027619 
0.027554 
0.027511 
0.027756 
0.029320 
0.455274 
0.583686 
0.834379 
1.012569 
1.069923 
1.057015 
0.990420 
0.831782 
0.597768 
0.340875 
0.017490 
0.017896 
0.018761 
0.019578 
0.020224 
0.020688 
0.020991 
0.021164 
0.021239 
0.021245 
0.021203 
0.021127 
0.021023 
0.020894 
0.020741 
0.020563 
0.020358 
0.020127 
0.019870 
0.019587 
0.019279 
0.018949 
0.018598 
0.018228 
0.017840 
0.017438 
0.017021 
0.016593 
0.016154 
0.015707 
0.015252 
0.014791 
0.014325 
0.013854 
0.013381 
0.012904 
0.012427 
0.011948 
0.011468 
0.010989 
0.010510 
0.010032 
0.009557 
0.009084 
0.008614 
0.008148 
0.007686 
0.007230 
0.006778 
0.006332 
0.005893 
0.005462 
0.005041 
0.004635 
0.004251 
0.003900 
0.003596 
0.003353 
0.003178 
0.003097 
0.003145 
0.003296 
0.526944 
0.860806 
0.982232 
1.033446 
1.053041 
1.042605 
1.029495 
1.015881 
0.986644 
0.929049 
0.882332 
0.856898 
0.832175 
0.650954 
0.211991 
0.030991 
0.029801 
0.029096 
0.028841 
0.028587 
0.028301 
0.028056 
0.027838 
0.027650 
0.027475 
0.027326 
0.027273 
0.027593 
0.282097 
0.538680 
0.780290 
0.972526 
1.057817 
1.070924 
1.042221 
0.938077 
0.734247 
0.468318 
0.159338 
0.018261 
0.018894 
0.019616 
0.020177 
0.020555 
0.020775 
0.020876 
0.020896 
0.020865 
0.020805 
0.020725 
0.020628 
0.020513 
0.020376 
0.020215 
0.020028 
0.019813 
0.019572 
0.019304 
0.019011 
0.018695 
0.018358 
0.018002 
0.017627 
0.017237 
0.016833 
0.016417 
0.015991 
0.015555 
0.015112 
0.014662 
0.014207 
0.013747 
0.013285 
0.012820 
0.012353 
0.011886 
0.011419 
0.010952 
0.010487 
0.010024 
0.009564 
0.009107 
0.008655 
0.008208 
0.007767 
0.007332 
0.006904 
0.006483 
0.006071 
0.005668 
0.005279 
0.004905 
0.004556 
0.004240 
0.003970 
0.003760 
0.003614 
0.003561 
0.003644 
0.003837 
0.613611 
0.956433 
1.040853 
1.035647 
1.023764 
1.006103 
0.988474 
0.964355 
0.929740 
0.913081 
0.953215 
1.053153 
1.063208 
0.883038 
0.480954 
0.144482 
0.029849 
0.029573 
0.029225 
0.028811 
0.028498 
0.028220 
0.027959 
0.027692 
0.027410 
0.027110 
0.026804 
0.026853 
0.042730 
0.477823 
0.639682 
0.862528 
1.003600 
1.058403 
1.063705 
0.994947 
0.811202 
0.557116 
0.296240 
0.018739 
0.019169 
0.019771 
0.020230 
0.020502 
0.020619 
0.020632 
0.020588 
0.020520 
0.020445 
0.020366 
0.020280 
0.020180 
0.020059 
0.019914 
0.019742 
0.019541 
0.019312 
0.019057 
0.018777 
0.018474 
0.018149 
0.017805 
0.017444 
0.017066 
0.016675 
0.016271 
0.015857 
0.015434 
0.015003 
0.014565 
0.014123 
0.013676 
0.013225 
0.012773 
0.012319 
0.011865 
0.011412 
0.010959 
0.010509 
0.010062 
0.009619 
0.009180 
0.008747 
0.008319 
0.007899 
0.007486 
0.007081 
0.006685 
0.006298 
0.005923 
0.005561 
0.005216 
0.004895 
0.004606 
0.004362 
0.004173 
0.004046 
0.004014 
0.004129 
0.004367 
0.637565 
0.964343 
1.037345 
1.015621 
0.990929 
0.967885 
0.940278 
0.905593 
0.887037 
0.926586 
0.984331 
1.038009 
1.034852 
0.930273 
0.734869 
0.469131 
0.215817 
0.030620 
0.029694 
0.029209 
0.028804 
0.028484 
0.028171 
0.027798 
0.027377 
0.026930 
0.026462 
0.026184 
0.026860 
0.400834 
0.508618 
0.740584 
0.938660 
1.039240 
1.068782 
1.042048 
0.915740 
0.690128 
0.423759 
0.075667 
0.019630 
0.020052 
0.020388 
0.020528 
0.020520 
0.020433 
0.020323 
0.020222 
0.020139 
0.020068 
0.019997 
0.019912 
0.019805 
0.019672 
0.019510 
0.019319 
0.019100 
0.018854 
0.018584 
0.018291 
0.017977 
0.017644 
0.017294 
0.016929 
0.016551 
0.016160 
0.015759 
0.015348 
0.014930 
0.014506 
0.014077 
0.013643 
0.013206 
0.012768 
0.012328 
0.011888 
0.011449 
0.011012 
0.010578 
0.010147 
0.009720 
0.009299 
0.008885 
0.008477 
0.008077 
0.007685 
0.007302 
0.006929 
0.006566 
0.006214 
0.005877 
0.005556 
0.005258 
0.004989 
0.004762 
0.004586 
0.004469 
0.004452 
0.004601 
0.004890 
0.642363 
0.923114 
1.016654 
1.009031 
0.979804 
0.945423 
0.906494 
0.878835 
0.897769 
0.948425 
0.958721 
0.977120 
1.030923 
1.086602 
1.000927 
0.757009 
0.576162 
0.359322 
0.069104 
0.031029 
0.029818 
0.029306 
0.028748 
0.028042 
0.027437 
0.026863 
0.026212 
0.025559 
0.025385 
0.239258 
0.462092 
0.662841 
0.876114 
1.007866 
1.067969 
1.082531 
1.016221 
0.830104 
0.551948 
0.216565 
0.020270 
0.020478 
0.020656 
0.020633 
0.020481 
0.020288 
0.020118 
0.019996 
0.019917 
0.019860 
0.019803 
0.019729 
0.019630 
0.019501 
0.019342 
0.019154 
0.018939 
0.018699 
0.018435 
0.018150 
0.017846 
0.017523 
0.017185 
0.016831 
0.016465 
0.016087 
0.015699 
0.015302 
0.014898 
0.014487 
0.014072 
0.013652 
0.013230 
0.012806 
0.012381 
0.011956 
0.011532 
0.011110 
0.010691 
0.010277 
0.009867 
0.009463 
0.009066 
0.008677 
0.008296 
0.007923 
0.007560 
0.007207 
0.006864 
0.006534 
0.006216 
0.005915 
0.005635 
0.005382 
0.005165 
0.004996 
0.004882 
0.004876 
0.005059 
0.005409 
0.730183 
0.919868 
1.018873 
1.025337 
0.989539 
0.938111 
0.901260 
0.906646 
0.947458 
0.955360 
0.936455 
0.943772 
1.022424 
1.107189 
1.100939 
0.961809 
0.805783 
0.699218 
0.574127 
0.503408 
0.318940 
0.033933 
0.030372 
0.028735 
0.027937 
0.027133 
0.026085 
0.025213 
0.024856 
0.027596 
0.410851 
0.538804 
0.769427 
0.946274 
1.043574 
1.089371 
1.063610 
0.907153 
0.646441 
0.369555 
0.021084 
0.021056 
0.021032 
0.020828 
0.020520 
0.020224 
0.020009 
0.019885 
0.019821 
0.019778 
0.019726 
0.019650 
0.019544 
0.019407 
0.019241 
0.019050 
0.018833 
0.018595 
0.018335 
0.018056 
0.017759 
0.017446 
0.017118 
0.016776 
0.016422 
0.016057 
0.015682 
0.015299 
0.014909 
0.014513 
0.014112 
0.013707 
0.013299 
0.012889 
0.012479 
0.012069 
0.011660 
0.011253 
0.010850 
0.010450 
0.010056 
0.009668 
0.009287 
0.008914 
0.008550 
0.008194 
0.007849 
0.007513 
0.007187 
0.006873 
0.006571 
0.006285 
0.006018 
0.005776 
0.005569 
0.005402 
0.005286 
0.005286 
0.005507 
0.005936 
0.873377 
0.955065 
1.032629 
1.044379 
1.003308 
0.935267 
0.894390 
0.927935 
0.934418 
0.888458 
0.858618 
0.842541 
0.874945 
0.947103 
1.012646 
1.022045 
1.002919 
0.955407 
0.754226 
0.580767 
0.545156 
0.518914 
0.475227 
0.301168 
0.032687 
0.028328 
0.026359 
0.025331 
0.024513 
0.024089 
0.322582 
0.438849 
0.669869 
0.883831 
1.014859 
1.080340 
1.091054 
0.994467 
0.775076 
0.506621 
0.144003 
0.021785 
0.021566 
0.021164 
0.020690 
0.020305 
0.020071 
0.019960 
0.019908 
0.019859 
0.019786 
0.019682 
0.019548 
0.019389 
0.019207 
0.019004 
0.018782 
0.018542 
0.018284 
0.018010 
0.017720 
0.017415 
0.017097 
0.016766 
0.016424 
0.016072 
0.015711 
0.015342 
0.014966 
0.014585 
0.014198 
0.013808 
0.013415 
0.013020 
0.012624 
0.012228 
0.011833 
0.011440 
0.011051 
0.010666 
0.010285 
0.009911 
0.009544 
0.009185 
0.008835 
0.008494 
0.008162 
0.007840 
0.007528 
0.007226 
0.006936 
0.006659 
0.006401 
0.006167 
0.005966 
0.005803 
0.005686 
0.005689 
0.005953 
0.006490 
1.020932 
1.003370 
1.038799 
1.048187 
1.000691 
0.911175 
0.859876 
0.878365 
0.841944 
0.793343 
0.784234 
0.779476 
0.762637 
0.809333 
0.909269 
1.004222 
1.076562 
1.075428 
0.944390 
0.810867 
0.750776 
0.606432 
0.475969 
0.461413 
0.457411 
0.405562 
0.243888 
0.031729 
0.024968 
0.023486 
0.179364 
0.402137 
0.588653 
0.811962 
0.971533 
1.064496 
1.110130 
1.067227 
0.889582 
0.621702 
0.312666 
0.022805 
0.022372 
0.021754 
0.021116 
0.020666 
0.020434 
0.020326 
0.020241 
0.020130 
0.019987 
0.019820 
0.019637 
0.019442 
0.019236 
0.019019 
0.018789 
0.018546 
0.018289 
0.018019 
0.017735 
0.017440 
0.017132 
0.016813 
0.016483 
0.016144 
0.015797 
0.015442 
0.015080 
0.014713 
0.014341 
0.013965 
0.013586 
0.013204 
0.012822 
0.012440 
0.012058 
0.011678 
0.011300 
0.010927 
0.010558 
0.010195 
0.009839 
0.009491 
0.009151 
0.008821 
0.008500 
0.008189 
0.007886 
0.007593 
0.007309 
0.007036 
0.006779 
0.006546 
0.006349 
0.006197 
0.006089 
0.006103 
0.006422 
0.007124 
1.115592 
1.044491 
1.042045 
1.037786 
0.979198 
0.876817 
0.819899 
0.820551 
0.794557 
0.782584 
0.807032 
0.822116 
0.813508 
0.827509 
0.889601 
0.973029 
1.054040 
1.089901 
1.049725 
0.997436 
0.949366 
0.829342 
0.705117 
0.650508 
0.538550 
0.437388 
0.422044 
0.412164 
0.355601 
0.207412 
0.028819 
0.350855 
0.482314 
0.704725 
0.894844 
1.022871 
1.102247 
1.113854 
0.994604 
0.757020 
0.491592 
0.024140 
0.023566 
0.022809 
0.022082 
0.021636 
0.021384 
0.021175 
0.020939 
0.020677 
0.020410 
0.020152 
0.019907 
0.019671 
0.019439 
0.019207 
0.018970 
0.018725 
0.018471 
0.018206 
0.017930 
0.017643 
0.017346 
0.017038 
0.016720 
0.016393 
0.016058 
0.015715 
0.015366 
0.015011 
0.014650 
0.014285 
0.013916 
0.013545 
0.013173 
0.012799 
0.012425 
0.012053 
0.011682 
0.011315 
0.010952 
0.010594 
0.010243 
0.009899 
0.009564 
0.009238 
0.008921 
0.008615 
0.008317 
0.008026 
0.007742 
0.007464 
0.007197 
0.006949 
0.006742 
0.006595 
0.006525 
0.006599 
0.007028 
0.008031 
1.155912 
1.072209 
1.047066 
1.030099 
0.968058 
0.868479 
0.829415 
0.820888 
0.810532 
0.824553 
0.856363 
0.874221 
0.882167 
0.891321 
0.919970 
0.970007 
1.029214 
1.069323 
1.072388 
1.070487 
1.050848 
0.983082 
0.916176 
0.869014 
0.772427 
0.667227 
0.588856 
0.463120 
0.368050 
0.352787 
0.340213 
0.383225 
0.440683 
0.620874 
0.816619 
0.965471 
1.071070 
1.137385 
1.107802 
0.943348 
0.663680 
0.218721 
0.025661 
0.024795 
0.024626 
0.024518 
0.024101 
0.023677 
0.023380 
0.023152 
0.022907 
0.022616 
0.022303 
0.022002 
0.021730 
0.021487 
0.021268 
0.021061 
0.020859 
0.020652 
0.020436 
0.020204 
0.019955 
0.019685 
0.019393 
0.019081 
0.018747 
0.018393 
0.018020 
0.017630 
0.017224 
0.016805 
0.016374 
0.015934 
0.015486 
0.015033 
0.014578 
0.014121 
0.013666 
0.013214 
0.012767 
0.012328 
0.011898 
0.011480 
0.011075 
0.010686 
0.010312 
0.009954 
0.009608 
0.009270 
0.008934 
0.008593 
0.008244 
0.007899 
0.007587 
0.007368 
0.007329 
0.007659 
0.008723 
0.010903 
1.153536 
1.082940 
1.053258 
1.042801 
1.004131 
0.895895 
0.868556 
0.843804 
0.800485 
0.814209 
0.840490 
0.853357 
0.865375 
0.879052 
0.909856 
0.969492 
1.021474 
1.051229 
1.072756 
1.087429 
1.082215 
1.052978 
1.030088 
1.003517 
0.944496 
0.878348 
0.805067 
0.687188 
0.578997 
0.500363 
0.397823 
0.364928 
0.318192 
0.497099 
0.731224 
0.888501 
1.007470 
1.110177 
1.165318 
1.094712 
0.884235 
0.512376 
0.030775 
0.235382 
0.408654 
0.461465 
0.432389 
0.396049 
0.373754 
0.359560 
0.350306 
0.343877 
0.338955 
0.334789 
0.330969 
0.327272 
0.323579 
0.319828 
0.315983 
0.312026 
0.307946 
0.303738 
0.299399 
0.294930 
0.290335 
0.285618 
0.280786 
0.275846 
0.270809 
0.265682 
0.260479 
0.255208 
0.249883 
0.244516 
0.239120 
0.233709 
0.228296 
0.222897 
0.217527 
0.212205 
0.206949 
0.201779 
0.196718 
0.191787 
0.187009 
0.182403 
0.177978 
0.173726 
0.169611 
0.165555 
0.161430 
0.157064 
0.152288 
0.147061 
0.141744 
0.137630 
0.137702 
0.146985 
0.174603 
0.248062 
1.128413 
1.082638 
1.061898 
1.073571 
1.085090 
0.992480 
0.802215 
0.807362 
0.710294 
0.684886 
0.694320 
0.695981 
0.703891 
0.732737 
0.792455 
0.891649 
0.961061 
0.999080 
1.045560 
1.078682 
1.088683 
1.090106 
1.083000 
1.065305 
1.033953 
1.003621 
0.957810 
0.879966 
0.803180 
0.724588 
0.616872 
0.549333 
0.465065 
0.290899 
0.510678 
0.737518 
0.887182 
1.013746 
1.125537 
1.200502 
1.217837 
1.051521 
0.726333 
0.546458 
0.298465 
0.185044 
0.172113 
0.194397 
0.221610 
0.242717 
0.257728 
0.267977 
0.275008 
0.280051 
0.283947 
0.287225 
0.290186 
0.292991 
0.295716 
0.298388 
0.301016 
0.303595 
0.306119 
0.308583 
0.310981 
0.313313 
0.315576 
0.317770 
0.319896 
0.321954 
0.323946 
0.325873 
0.327737 
0.329539 
0.331280 
0.332962 
0.334588 
0.336158 
0.337675 
0.339143 
0.340563 
0.341938 
0.343269 
0.344555 
0.345784 
0.346934 
0.347954 
0.348754 
0.349182 
0.349001 
0.347871 
0.345359 
0.340996 
0.334457 
0.325942 
0.316938 
0.311782 
0.320615 
0.362261 
0.552033 
1.100597 
1.082156 
1.076302 
1.096161 
1.113456 
1.078397 
0.851206 
0.657201 
0.502049 
0.440886 
0.437492 
0.444300 
0.455444 
0.496486 
0.584754 
0.702890 
0.780633 
0.834675 
0.928907 
1.001488 
1.052931 
1.092480 
1.103436 
1.099329 
1.094955 
1.076965 
1.047273 
1.005354 
0.962763 
0.906646 
0.825206 
0.761676 
0.706564 
0.526758 
0.377049 
0.525999 
0.707143 
0.855760 
0.997350 
1.147207 
1.293497 
1.248219 
0.970352 
0.683101 
0.480052 
0.393034 
0.385441 
0.414431 
0.447246 
0.470012 
0.485252 
0.495572 
0.502830 
0.508276 
0.512701 
0.516576 
0.520163 
0.523596 
0.526934 
0.530198 
0.533392 
0.536511 
0.539550 
0.542503 
0.545369 
0.548146 
0.550834 
0.553433 
0.555945 
0.558372 
0.560715 
0.562977 
0.565160 
0.567266 
0.569297 
0.571255 
0.573144 
0.574965 
0.576722 
0.578418 
0.580056 
0.581640 
0.583172 
0.584653 
0.586074 
0.587418 
0.588641 
0.589663 
0.590346 
0.590469 
0.589704 
0.587618 
0.583719 
0.577603 
0.569305 
0.559974 
0.553247 
0.558432 
0.604041 
0.743382 
1.081632 
1.086036 
1.094172 
1.113129 
1.093825 
0.975987 
0.785230 
0.471306 
0.078758 
0.064479 
0.124970 
0.175021 
0.197140 
0.224456 
0.294574 
0.411449 
0.502935 
0.583718 
0.710626 
0.808410 
0.903644 
1.000820 
1.050542 
1.094434 
1.127972 
1.123947 
1.110172 
1.099450 
1.070677 
1.030134 
0.977835 
0.925420 
0.866506 
0.741364 
0.555996 
0.480295 
0.567095 
0.699331 
0.832883 
0.971806 
1.105407 
1.135836 
1.015280 
0.875412 
0.737768 
0.648670 
0.623742 
0.635797 
0.652937 
0.665378 
0.674304 
0.680912 
0.686056 
0.690312 
0.694050 
0.697490 
0.700755 
0.703906 
0.706971 
0.709959 
0.712871 
0.715705 
0.718458 
0.721130 
0.723720 
0.726227 
0.728653 
0.730998 
0.733265 
0.735456 
0.737571 
0.739613 
0.741584 
0.743486 
0.745320 
0.747089 
0.748794 
0.750438 
0.752023 
0.753552 
0.755026 
0.756449 
0.757823 
0.759148 
0.760422 
0.761638 
0.762776 
0.763797 
0.764633 
0.765173 
0.765247 
0.764625 
0.763028 
0.760202 
0.756085 
0.751153 
0.747031 
0.747926 
0.766255 
0.788931 
1.073823 
1.091384 
1.111434 
1.131482 
1.092509 
0.928826 
0.681968 
0.431546 
0.028146 
0.024382 
0.021767 
0.019752 
0.018090 
0.016924 
0.016606 
0.091244 
0.183268 
0.286968 
0.421714 
0.534617 
0.655442 
0.790526 
0.866004 
0.972568 
1.068569 
1.098382 
1.132181 
1.161537 
1.148792 
1.124763 
1.098133 
1.042624 
0.970077 
0.865324 
0.723934 
0.604390 
0.578269 
0.639492 
0.728466 
0.822731 
0.921872 
0.992862 
1.001379 
0.962241 
0.900493 
0.846048 
0.819806 
0.812245 
0.809148 
0.808082 
0.808434 
0.809645 
0.811395 
0.813468 
0.815722 
0.818059 
0.820414 
0.822749 
0.825038 
0.827270 
0.829439 
0.831540 
0.833576 
0.835546 
0.837453 
0.839297 
0.841081 
0.842806 
0.844473 
0.846084 
0.847641 
0.849145 
0.850596 
0.851997 
0.853349 
0.854653 
0.855910 
0.857121 
0.858288 
0.859412 
0.860493 
0.861535 
0.862539 
0.863508 
0.864449 
0.865368 
0.866278 
0.867194 
0.868135 
0.869120 
0.870156 
0.871213 
0.872185 
0.872810 
0.872575 
0.870625 
0.865731 
0.855878 
0.837539 
0.798863 
1.074871 
1.096851 
1.120993 
1.138478 
1.087439 
0.901238 
0.627880 
0.413978 
0.028224 
0.025146 
0.022912 
0.021108 
0.019556 
0.018204 
0.017193 
0.016758 
0.016735 
0.016645 
0.115765 
0.222864 
0.348081 
0.490714 
0.591336 
0.732597 
0.873240 
0.925267 
1.032634 
1.127114 
1.152140 
1.179347 
1.191421 
1.143155 
1.063748 
0.962947 
0.835659 
0.720924 
0.660723 
0.664376 
0.704101 
0.753117 
0.817947 
0.895735 
0.958308 
0.988567 
0.991806 
0.980532 
0.966739 
0.951728 
0.937583 
0.927185 
0.920590 
0.916951 
0.915377 
0.915146 
0.915731 
0.916775 
0.918048 
0.919414 
0.920796 
0.922155 
0.923474 
0.924746 
0.925972 
0.927153 
0.928293 
0.929393 
0.930457 
0.931485 
0.932480 
0.933441 
0.934371 
0.935269 
0.936137 
0.936976 
0.937785 
0.938566 
0.939318 
0.940043 
0.940740 
0.941409 
0.942052 
0.942669 
0.943263 
0.943843 
0.944420 
0.945020 
0.945683 
0.946472 
0.947480 
0.948825 
0.950637 
0.953005 
0.955856 
0.958728 
0.960393 
0.958361 
0.948552 
0.925356 
0.883996 
0.829653 
1.081369 
1.102214 
1.121763 
1.127532 
1.059198 
0.853420 
0.575479 
0.438077 
0.028738 
0.026169 
0.024202 
0.022529 
0.021057 
0.019780 
0.018808 
0.018199 
0.017773 
0.017456 
0.017383 
0.017559 
0.018039 
0.151494 
0.282351 
0.417689 
0.562534 
0.648078 
0.799598 
0.941864 
0.995272 
1.108337 
1.198976 
1.196745 
1.152938 
1.065980 
0.924999 
0.794737 
0.719969 
0.701409 
0.714829 
0.743173 
0.794673 
0.875323 
0.962982 
1.030274 
1.070714 
1.086239 
1.082615 
1.068542 
1.052292 
1.038515 
1.028607 
1.022222 
1.018492 
1.016564 
1.015771 
1.015638 
1.015860 
1.016250 
1.016704 
1.017168 
1.017620 
1.018049 
1.018456 
1.018842 
1.019211 
1.019565 
1.019907 
1.020237 
1.020557 
1.020867 
1.021168 
1.021460 
1.021744 
1.022018 
1.022283 
1.022539 
1.022786 
1.023024 
1.023250 
1.023467 
1.023672 
1.023867 
1.024056 
1.024247 
1.024459 
1.024723 
1.025096 
1.025665 
1.026559 
1.027950 
1.030028 
1.032939 
1.036626 
1.040512 
1.042947 
1.040404 
1.026863 
0.995577 
0.944597 
0.883519 
1.090181 
1.105844 
1.120356 
1.117438 
1.039519 
0.830161 
0.549188 
0.445093 
0.029375 
0.027110 
0.025400 
0.023892 
0.022553 
0.021407 
0.020499 
0.019835 
0.019366 
0.019046 
0.018838 
0.018715 
0.018761 
0.019083 
0.019556 
0.020523 
0.194315 
0.355399 
0.498802 
0.634601 
0.722794 
0.894871 
1.062070 
1.134178 
1.223055 
1.171562 
0.979424 
0.806558 
0.725201 
0.714735 
0.734654 
0.770931 
0.834308 
0.934009 
1.039599 
1.120717 
1.162365 
1.178414 
1.177845 
1.166659 
1.152669 
1.140242 
1.130781 
1.124211 
1.119922 
1.117225 
1.115548 
1.114477 
1.113742 
1.113179 
1.112698 
1.112250 
1.111816 
1.111388 
1.110966 
1.110551 
1.110145 
1.109751 
1.109369 
1.109001 
1.108647 
1.108306 
1.107979 
1.107665 
1.107363 
1.107073 
1.106795 
1.106528 
1.106270 
1.106021 
1.105780 
1.105545 
1.105317 
1.105095 
1.104881 
1.104684 
1.104517 
1.104409 
1.104411 
1.104601 
1.105100 
1.106069 
1.107699 
1.110157 
1.113459 
1.117188 
1.119967 
1.118563 
1.106702 
1.075130 
1.020192 
0.949942 
1.099334 
1.108141 
1.117366 
1.110685 
1.031715 
0.823674 
0.542721 
0.444412 
0.029905 
0.027934 
0.026480 
0.025167 
0.023984 
0.022962 
0.022128 
0.021487 
0.021016 
0.020681 
0.020447 
0.020310 
0.020294 
0.020378 
0.020559 
0.020937 
0.021588 
0.022298 
0.074697 
0.266311 
0.471435 
0.661126 
0.851796 
1.141695 
1.351075 
1.222518 
0.934342 
0.736888 
0.677161 
0.711870 
0.775736 
0.840354 
0.945902 
1.070204 
1.190778 
1.248617 
1.265562 
1.261461 
1.256945 
1.249671 
1.241466 
1.234101 
1.228082 
1.223443 
1.219938 
1.217247 
1.215092 
1.213269 
1.211646 
1.210141 
1.208710 
1.207331 
1.205994 
1.204696 
1.203436 
1.202215 
1.201032 
1.199889 
1.198785 
1.197719 
1.196692 
1.195702 
1.194748 
1.193829 
1.192944 
1.192092 
1.191272 
1.190482 
1.189722 
1.188990 
1.188284 
1.187603 
1.186947 
1.186313 
1.185703 
1.185119 
1.184567 
1.184061 
1.183625 
1.183300 
1.183148 
1.183259 
1.183747 
1.184733 
1.186294 
1.188339 
1.190345 
1.190756 
1.185781 
1.165994 
1.112184 
1.031645 
1.108166 
1.110332 
1.112395 
1.099073 
1.016409 
0.808444 
0.530426 
0.461406 
0.030472 
0.028700 
0.027469 
0.026347 
0.025322 
0.024424 
0.023672 
0.023073 
0.022615 
0.022277 
0.022039 
0.021894 
0.021836 
0.021861 
0.021982 
0.022238 
0.022608 
0.023095 
0.023834 
0.024814 
0.026323 
0.115403 
0.445970 
0.926849 
1.093575 
0.919101 
0.763676 
0.676539 
0.670388 
0.747583 
0.870389 
0.996397 
1.157844 
1.349418 
1.368881 
1.383402 
1.357128 
1.326493 
1.318417 
1.322003 
1.324164 
1.324567 
1.323675 
1.321953 
1.319742 
1.317275 
1.314702 
1.312114 
1.309562 
1.307074 
1.304661 
1.302328 
1.300074 
1.297897 
1.295796 
1.293768 
1.291809 
1.289919 
1.288095 
1.286335 
1.284638 
1.283001 
1.281423 
1.279903 
1.278437 
1.277026 
1.275667 
1.274358 
1.273098 
1.271886 
1.270719 
1.269596 
1.268517 
1.267479 
1.266482 
1.265523 
1.264598 
1.263703 
1.262827 
1.261953 
1.261057 
1.260100 
1.259032 
1.257795 
1.256346 
1.254707 
1.253051 
1.251842 
1.251572 
1.252099 
1.238615 
1.141127 
1.116468 
1.112235 
1.107740 
1.087871 
1.000513 
0.792313 
0.518016 
0.476372 
0.031115 
0.029449 
0.028390 
0.027442 
0.026568 
0.025790 
0.025124 
0.024576 
0.024141 
0.023807 
0.023562 
0.023395 
0.023301 
0.023278 
0.023335 
0.023478 
0.023715 
0.024064 
0.024561 
0.025429 
0.025932 
0.031848 
0.389040 
0.392315 
0.447852 
0.614695 
0.719177 
0.762072 
0.804334 
0.903903 
1.066908 
1.306312 
1.941967 
1.526362 
1.432303 
1.450247 
1.405753 
1.374223 
1.374042 
1.395048 
1.410021 
1.418588 
1.422317 
1.422706 
1.421016 
1.418159 
1.414734 
1.411099 
1.407451 
1.403886 
1.400445 
1.397138 
1.393963 
1.390911 
1.387975 
1.385145 
1.382417 
1.379786 
1.377247 
1.374797 
1.372434 
1.370155 
1.367957 
1.365839 
1.363797 
1.361830 
1.359936 
1.358111 
1.356355 
1.354666 
1.353041 
1.351481 
1.349983 
1.348548 
1.347175 
1.345860 
1.344597 
1.343367 
1.342137 
1.340842 
1.339370 
1.337540 
1.335076 
1.331598 
1.326636 
1.319721 
1.310642 
1.299917 
1.290251 
1.287345 
1.317537 
1.391697 
1.124154 
1.113640 
1.103602 
1.079766 
0.991441 
0.785788 
0.513694 
0.483644 
0.031703 
0.030156 
0.029254 
0.028463 
0.027730 
0.027068 
0.026489 
0.025998 
0.025593 
0.025267 
0.025011 
0.024815 
0.024674 
0.024585 
0.024548 
0.024574 
0.024656 
0.024854 
0.025182 
0.025545 
0.028571 
0.324350 
0.251965 
0.189889 
0.392432 
0.604032 
0.766168 
0.873325 
0.979562 
1.135073 
1.354482 
1.695799 
1.131427 
1.114912 
1.099057 
1.071079 
0.981768 
0.777915 
0.508624 
0.494436 
0.032243 
0.030821 
0.030068 
0.029424 
0.028824 
0.028274 
0.027782 
0.027351 
0.026979 
0.026663 
0.026395 
0.026167 
0.025971 
0.025800 
0.025656 
0.025529 
0.025485 
0.025432 
0.025809 
0.027060 
0.296248 
0.271867 
0.134681 
0.292066 
0.483223 
0.673027 
0.833800 
0.976005 
1.134575 
1.320605 
1.475628 
0.932323 
1.138544 
1.116161 
1.094254 
1.060785 
0.968351 
0.765200 
0.499143 
0.508261 
0.032798 
0.031469 
0.030849 
0.030341 
0.029867 
0.029426 
0.029021 
0.028650 
0.028315 
0.028011 
0.027732 
0.027472 
0.027218 
0.026965 
0.026693 
0.026453 
0.026141 
0.026275 
0.026213 
0.253503 
0.326091 
0.123791 
0.261028 
0.430008 
0.601517 
0.757468 
0.904157 
1.062241 
1.243034 
1.426632 
1.413813 
0.878502 
1.145577 
1.117217 
1.089280 
1.050336 
0.954719 
0.752165 
0.489184 
0.520675 
0.033339 
0.032103 
0.031607 
0.031229 
0.030879 
0.030546 
0.030227 
0.029921 
0.029624 
0.029334 
0.029047 
0.028756 
0.028453 
0.028111 
0.027763 
0.027287 
0.027147 
0.026498 
0.143598 
0.361910 
0.122989 
0.243483 
0.410114 
0.569665 
0.702234 
0.816601 
0.947068 
1.113358 
1.291619 
1.425730 
1.361416 
0.857644 
1.152521 
1.117985 
1.083949 
1.040019 
0.942258 
0.740882 
0.480483 
0.531489 
0.033824 
0.032709 
0.032347 
0.032103 
0.031878 
0.031655 
0.031427 
0.031188 
0.030934 
0.030661 
0.030368 
0.030053 
0.029695 
0.029321 
0.028795 
0.028532 
0.027578 
0.031416 
0.333215 
0.155842 
0.227159 
0.398607 
0.560591 
0.689456 
0.773029 
0.842474 
0.955032 
1.133343 
1.309451 
1.365197 
1.210681 
0.749454 
1.159411 
1.118524 
1.078274 
1.029140 
0.929061 
0.728984 
0.470950 
0.541462 
0.034268 
0.033292 
0.033077 
0.032975 
0.032881 
0.032775 
0.032646 
0.032483 
0.032279 
0.032030 
0.031731 
0.031383 
0.031008 
0.030499 
0.030223 
0.029290 
0.033115 
0.325014 
0.198353 
0.208451 
0.388441 
0.556116 
0.695166 
0.788595 
0.816702 
0.821716 
0.926382 
1.141251 
1.332032 
1.346956 
1.109198 
0.687292 
1.166248 
1.118918 
1.072078 
1.016949 
0.913403 
0.713742 
0.458587 
0.553078 
0.034704 
0.033869 
0.033808 
0.033857 
0.033906 
0.033929 
0.033912 
0.033839 
0.033702 
0.033486 
0.033195 
0.032811 
0.032324 
0.032023 
0.031146 
0.036986 
0.342693 
0.215510 
0.196152 
0.379938 
0.555221 
0.702072 
0.817347 
0.891421 
0.844810 
0.757184 
0.876567 
1.153564 
1.357902 
1.331577 
1.020717 
0.572960 
1.172962 
1.119029 
1.065415 
1.004265 
0.897352 
0.698153 
0.445791 
0.564347 
0.035130 
0.034443 
0.034547 
0.034763 
0.034969 
0.035136 
0.035247 
0.035289 
0.035243 
0.035106 
0.034816 
0.034464 
0.033967 
0.033252 
0.057318 
0.356393 
0.224633 
0.194493 
0.378409 
0.563738 
0.722503 
0.845386 
0.964270 
1.034315 
0.875847 
0.684956 
0.885954 
1.196382 
1.354077 
1.263585 
0.879692 
0.264767 
1.179535 
1.118691 
1.058445 
0.992268 
0.883804 
0.686387 
0.435726 
0.571971 
0.035505 
0.035000 
0.035299 
0.035703 
0.036082 
0.036409 
0.036670 
0.036851 
0.036951 
0.036916 
0.036849 
0.036390 
0.036694 
0.233330 
0.406045 
0.219840 
0.210849 
0.389789 
0.575786 
0.747824 
0.881133 
0.990759 
1.120192 
1.192254 
0.891840 
0.688775 
0.995000 
1.267670 
1.333369 
1.146456 
0.630454 
0.038393 
1.186108 
1.118084 
1.051135 
0.980296 
0.870868 
0.675063 
0.425865 
0.577484 
0.035835 
0.035559 
0.036086 
0.036693 
0.037256 
0.037756 
0.038185 
0.038543 
0.038801 
0.039074 
0.039081 
0.040543 
0.369996 
0.475998 
0.178599 
0.235257 
0.420453 
0.601334 
0.770038 
0.912720 
1.019852 
1.094613 
1.201541 
1.261537 
0.797454 
0.800934 
1.135651 
1.314673 
1.275118 
1.018181 
0.498464 
0.033498 
1.192763 
1.117598 
1.043623 
0.966342 
0.853177 
0.657305 
0.410395 
0.584184 
0.036215 
0.036188 
0.036942 
0.037747 
0.038492 
0.039171 
0.039787 
0.040329 
0.040887 
0.041286 
0.043336 
0.421819 
0.488372 
0.146078 
0.239222 
0.435872 
0.632209 
0.802411 
0.946609 
1.075053 
1.144520 
1.141095 
1.195598 
1.178731 
0.602732 
0.884367 
1.193701 
1.323022 
1.230334 
0.919694 
0.427651 
0.031756 
1.199084 
1.117413 
1.036215 
0.950194 
0.829351 
0.631018 
0.388272 
0.593982 
0.036750 
0.036941 
0.037882 
0.038862 
0.039780 
0.040640 
0.041444 
0.042260 
0.043020 
0.045364 
0.447634 
0.492100 
0.153270 
0.256107 
0.439000 
0.641296 
0.827351 
0.981404 
1.123226 
1.239275 
1.259391 
1.183168 
1.273570 
0.909566 
0.432258 
0.841779 
1.163076 
1.306334 
1.202001 
0.853842 
0.383743 
0.031835 
1.204055 
1.117167 
1.029708 
0.935340 
0.806696 
0.605992 
0.367688 
0.603912 
0.037433 
0.037789 
0.038877 
0.040011 
0.041093 
0.042131 
0.043181 
0.044280 
0.046817 
0.464186 
0.508010 
0.183927 
0.298124 
0.469389 
0.656015 
0.839237 
1.001742 
1.145787 
1.261635 
1.322631 
1.290362 
1.206240 
1.373405 
0.457214 
0.373981 
0.780628 
1.119959 
1.289396 
1.168834 
0.800147 
0.366978 
0.032609 
1.206584 
1.116281 
1.025089 
0.926470 
0.794647 
0.593777 
0.357873 
0.610558 
0.038158 
0.038632 
0.039863 
0.041149 
0.042401 
0.043659 
0.045048 
0.047784 
0.463224 
0.535454 
0.229145 
0.349209 
0.516016 
0.690192 
0.859039 
1.015303 
1.159013 
1.263211 
1.290157 
1.218558 
1.069585 
1.090601 
1.055091 
0.166653 
0.372471 
0.768841 
1.114834 
1.292116 
1.173665 
0.778787 
0.338591 
0.033398 
1.206239 
1.114575 
1.022458 
0.924581 
0.795261 
0.596644 
0.360660 
0.616618 
0.038900 
0.039409 
0.040792 
0.042248 
0.043709 
0.045344 
0.048275 
0.458953 
0.567003 
0.289536 
0.414180 
0.572150 
0.732120 
0.884854 
1.028923 
1.162742 
1.257478 
1.277942 
1.175576 
0.952718 
0.787634 
0.522817 
0.805770 
0.113176 
0.391044 
0.787553 
1.130853 
1.302654 
1.165719 
0.758958 
0.306959 
0.033819 
1.203567 
1.112259 
1.021092 
0.927255 
0.804251 
0.609681 
0.372394 
0.625647 
0.039732 
0.040152 
0.041670 
0.043326 
0.045148 
0.048210 
0.446154 
0.597745 
0.361954 
0.492997 
0.642688 
0.783909 
0.916839 
1.045097 
1.167588 
1.246530 
1.245233 
1.130710 
0.911717 
0.691354 
0.428840 
0.040183 
0.724031 
0.115391 
0.417693 
0.811316 
1.142775 
1.297601 
1.148558 
0.725598 
0.281657 
0.033994 
1.199876 
1.109635 
1.020149 
0.931502 
0.816253 
0.626773 
0.388624 
0.636947 
0.040709 
0.040915 
0.042537 
0.044435 
0.047554 
0.425345 
0.622535 
0.446549 
0.583955 
0.724083 
0.844677 
0.953902 
1.062360 
1.168662 
1.234626 
1.224132 
1.086773 
0.857710 
0.643249 
0.355125 
0.037598 
0.041080 
0.685335 
0.132808 
0.445214 
0.833963 
1.154086 
1.288241 
1.104683 
0.678940 
0.260540 
0.033957 
1.196712 
1.107103 
1.018599 
0.933238 
0.823334 
0.638543 
0.403348 
0.651838 
0.041758 
0.041651 
0.043217 
0.046238 
0.405579 
0.638499 
0.539794 
0.689361 
0.818274 
0.913459 
0.994175 
1.076914 
1.165517 
1.215044 
1.188131 
1.043705 
0.815923 
0.594986 
0.322165 
0.036763 
0.037848 
0.041796 
0.667042 
0.154395 
0.472205 
0.856481 
1.168279 
1.289891 
1.095451 
0.648356 
0.216635 
0.033578 
1.195265 
1.105003 
1.014892 
0.927771 
0.817644 
0.637243 
0.414305 
0.680341 
0.042568 
0.041742 
0.044391 
0.399476 
0.650830 
0.635897 
0.801890 
0.921221 
0.988854 
1.036865 
1.087672 
1.150359 
1.187136 
1.153043 
0.987044 
0.761433 
0.542877 
0.265952 
0.035867 
0.036651 
0.037894 
0.041976 
0.658061 
0.179451 
0.500477 
0.878841 
1.183351 
1.295866 
1.089453 
0.611539 
0.141184 
0.032582 
1.196145 
1.102957 
1.008379 
0.916423 
0.804227 
0.632196 
0.439713 
0.716488 
0.042651 
0.102353 
0.434836 
0.682407 
0.735468 
0.914510 
1.022608 
1.062959 
1.076528 
1.091832 
1.118995 
1.128893 
1.091550 
0.935254 
0.709564 
0.481602 
0.219347 
0.034659 
0.035390 
0.036444 
0.037547 
0.042302 
0.653174 
0.208926 
0.532764 
0.900606 
1.188566 
1.282612 
1.063747 
0.569382 
0.072002 
0.031690 
1.199938 
1.100322 
0.999687 
0.905396 
0.801111 
0.655452 
0.521180 
0.789752 
0.500701 
0.604695 
0.809179 
0.872381 
1.020138 
1.108080 
1.124153 
1.106746 
1.087965 
1.079398 
1.052628 
0.989036 
0.836076 
0.645916 
0.410156 
0.140311 
0.033441 
0.034020 
0.035025 
0.036040 
0.037172 
0.043152 
0.649266 
0.242369 
0.569082 
0.921905 
1.184444 
1.249641 
1.008826 
0.529296 
0.027901 
0.030965 
1.207955 
1.097646 
0.991055 
0.900868 
0.816855 
0.718475 
0.668070 
1.016855 
1.104351 
1.062684 
1.103940 
1.136884 
1.163378 
1.153143 
1.116128 
1.072879 
1.034824 
0.976703 
0.886113 
0.723446 
0.559170 
0.365969 
0.034391 
0.031824 
0.032503 
0.033513 
0.034574 
0.035590 
0.036792 
0.044597 
0.644869 
0.277942 
0.607237 
0.943431 
1.179025 
1.215739 
0.956602 
0.498040 
0.026287 
0.029979 
1.221144 
1.096937 
0.984212 
0.895821 
0.828101 
0.775619 
0.810063 
1.241080 
1.185064 
1.169402 
1.216328 
1.182829 
1.132134 
1.085569 
1.037158 
0.985155 
0.905217 
0.792915 
0.624678 
0.473894 
0.331765 
0.030479 
0.029714 
0.030618 
0.031749 
0.032929 
0.034054 
0.035115 
0.036382 
0.046840 
0.639590 
0.313997 
0.645783 
0.966816 
1.178172 
1.190086 
0.919000 
0.472009 
0.024927 
0.028821 
1.236758 
1.097970 
0.978882 
0.883972 
0.809834 
0.775754 
0.927949 
1.164950 
1.075060 
1.094792 
1.104384 
1.048999 
0.997067 
0.964209 
0.925373 
0.844888 
0.718024 
0.540405 
0.396180 
0.288077 
0.027231 
0.027297 
0.028456 
0.029745 
0.031072 
0.032344 
0.033529 
0.034635 
0.035960 
0.049596 
0.633436 
0.350085 
0.683699 
0.989456 
1.178110 
1.170053 
0.887779 
0.449437 
0.023940 
0.027717 
1.246495 
1.095329 
0.976595 
0.877935 
0.795507 
0.772877 
0.923898 
1.003407 
0.943990 
0.934151 
0.896931 
0.851459 
0.842568 
0.844173 
0.797959 
0.678142 
0.487376 
0.332679 
0.241033 
0.023745 
0.024536 
0.026070 
0.027589 
0.029074 
0.030489 
0.031816 
0.033038 
0.034175 
0.035545 
0.052150 
0.626245 
0.386547 
0.720697 
1.012034 
1.178313 
1.146999 
0.859116 
0.432077 
0.023074 
0.026628 
1.237945 
1.084168 
0.976266 
0.880885 
0.791995 
0.775553 
0.876217 
0.884986 
0.835255 
0.779927 
0.703457 
0.688644 
0.736546 
0.748918 
0.675551 
0.492784 
0.303071 
0.197186 
0.020125 
0.021576 
0.023497 
0.025308 
0.026995 
0.028566 
0.030025 
0.031372 
0.032609 
0.033754 
0.035139 
0.053427 
0.619736 
0.422364 
0.757078 
1.034954 
1.182587 
1.136701 
0.839749 
0.413888 
0.022402 
0.025618 
1.198714 
1.064844 
0.978854 
0.885782 
0.785882 
0.767092 
0.844754 
0.832536 
0.775168 
0.687622 
0.606665 
0.641567 
0.700902 
0.684711 
0.548671 
0.335569 
0.177671 
0.016891 
0.018747 
0.020930 
0.022993 
0.024892 
0.026635 
0.028232 
0.029693 
0.031028 
0.032248 
0.033387 
0.034766 
0.088714 
0.615489 
0.459071 
0.791842 
1.055628 
1.182907 
1.117303 
0.817924 
0.397674 
0.021948 
0.024832 
1.140355 
1.049221 
0.991721 
0.899567 
0.789482 
0.770016 
0.850860 
0.830166 
0.762647 
0.683714 
0.650712 
0.696357 
0.706367 
0.614963 
0.426335 
0.227564 
0.054841 
0.016439 
0.018617 
0.020806 
0.022862 
0.024762 
0.026499 
0.028078 
0.029503 
0.030785 
0.031947 
0.033055 
0.034452 
0.109011 
0.604753 
0.502195 
0.828937 
1.070013 
1.171063 
1.087577 
0.783136 
0.381134 
0.021579 
0.024253 
1.072695 
1.049936 
1.019879 
0.931171 
0.814344 
0.788650 
0.889908 
0.860082 
0.756897 
0.703912 
0.727950 
0.745250 
0.685505 
0.536159 
0.337116 
0.152093 
0.015237 
0.016892 
0.018970 
0.021063 
0.023053 
0.024897 
0.026584 
0.028106 
0.029460 
0.030650 
0.031700 
0.032703 
0.034079 
0.082526 
0.597720 
0.542124 
0.860707 
1.081836 
1.156626 
1.051535 
0.749544 
0.368794 
0.021302 
0.023747 
0.987494 
1.053846 
1.048183 
0.964977 
0.852846 
0.820856 
0.943266 
0.901192 
0.726199 
0.679433 
0.736503 
0.730919 
0.622490 
0.444054 
0.280323 
0.068696 
0.016297 
0.017875 
0.019759 
0.021691 
0.023549 
0.025285 
0.026877 
0.028308 
0.029565 
0.030638 
0.031536 
0.032343 
0.033511 
0.197703 
0.608062 
0.565463 
0.870400 
1.080731 
1.146293 
1.036326 
0.735570 
0.361539 
0.021305 
0.023315 
0.873650 
1.042373 
1.055847 
0.984933 
0.897062 
0.862702 
0.984357 
0.933743 
0.707516 
0.661085 
0.721417 
0.694627 
0.550694 
0.375573 
0.199661 
0.017124 
0.017987 
0.019339 
0.020970 
0.022663 
0.024323 
0.025895 
0.027348 
0.028659 
0.029805 
0.030761 
0.031512 
0.032114 
0.033021 
0.267994 
0.613900 
0.598766 
0.888219 
1.077449 
1.135402 
1.029722 
0.743618 
0.367366 
0.021815 
0.023012 
0.793577 
1.036479 
1.052739 
0.996779 
0.937763 
0.916050 
0.989725 
0.947804 
0.722761 
0.668991 
0.701901 
0.658784 
0.496299 
0.335688 
0.107993 
0.019355 
0.020070 
0.021188 
0.022498 
0.023897 
0.025304 
0.026665 
0.027945 
0.029113 
0.030141 
0.030995 
0.031641 
0.032125 
0.032943 
0.214094 
0.631950 
0.736542 
0.946182 
1.072213 
1.107608 
1.021351 
0.773717 
0.386106 
0.022868 
0.022771 
0.763902 
1.027878 
1.047219 
1.006337 
0.969837 
0.949577 
0.958147 
0.928697 
0.769729 
0.698422 
0.670695 
0.591670 
0.455548 
0.232160 
0.021591 
0.021917 
0.022416 
0.023210 
0.024182 
0.025259 
0.026384 
0.027507 
0.028589 
0.029598 
0.030499 
0.031257 
0.031829 
0.032241 
0.033046 
0.187162 
0.657519 
0.898297 
1.023359 
1.047641 
1.050465 
1.009492 
0.838114 
0.428216 
0.024416 
0.022599 
0.657002 
0.941765 
1.012708 
1.009409 
0.998797 
0.987733 
0.968114 
0.925089 
0.838826 
0.773346 
0.698179 
0.555139 
0.415921 
0.133344 
0.024576 
0.024471 
0.024742 
0.025201 
0.025835 
0.026596 
0.027437 
0.028317 
0.029195 
0.030033 
0.030791 
0.031428 
0.031901 
0.032201 
0.032716 
0.323079 
0.706153 
1.003645 
1.070498 
0.995140 
0.994278 
1.024253 
0.909839 
0.524555 
0.026453 
0.022840 
0.524170 
0.831572 
0.964205 
1.009202 
1.022270 
1.035532 
1.027815 
0.978117 
0.908952 
0.857421 
0.783426 
0.639914 
0.303305 
0.085205 
0.027407 
0.026884 
0.026801 
0.026952 
0.027289 
0.027763 
0.028346 
0.028999 
0.029684 
0.030351 
0.030949 
0.031418 
0.031709 
0.031868 
0.032110 
0.455126 
0.715810 
1.018171 
1.087041 
0.937427 
0.925884 
1.032261 
0.952766 
0.640415 
0.209317 
0.024078 
0.446001 
0.720294 
0.898416 
0.978327 
1.020098 
1.058862 
1.078548 
1.052474 
1.023500 
1.029679 
1.003326 
0.724961 
0.284425 
0.031685 
0.029502 
0.028740 
0.028369 
0.028313 
0.028399 
0.028647 
0.029011 
0.029477 
0.029997 
0.030516 
0.030962 
0.031242 
0.031285 
0.031244 
0.166394 
0.534302 
0.757448 
1.032589 
1.079343 
0.859659 
0.827111 
0.991572 
0.924234 
0.656368 
0.321167 
0.025175 
0.290624 
0.558590 
0.763606 
0.861723 
0.945910 
1.020504 
1.061944 
1.076207 
1.105781 
1.166588 
1.107043 
0.865849 
0.606371 
0.295359 
0.031327 
0.029773 
0.029447 
0.029129 
0.029104 
0.029160 
0.029372 
0.029698 
0.030108 
0.030527 
0.030866 
0.031017 
0.030888 
0.030747 
0.319641 
0.555449 
0.820545 
1.065891 
1.089911 
0.820119 
0.745041 
0.976416 
0.963742 
0.737660 
0.415672 
0.110942 
0.022407 
0.314827 
0.528368 
0.657519 
0.801462 
0.925356 
1.006090 
1.043175 
1.095246 
1.153966 
1.140389 
0.980424 
0.754844 
0.571630 
0.322907 
0.031486 
0.029694 
0.029603 
0.029298 
0.029299 
0.029381 
0.029648 
0.030014 
0.030404 
0.030713 
0.030851 
0.030794 
0.030939 
0.443831 
0.592504 
0.890518 
1.107950 
1.115888 
0.845190 
0.728253 
1.002300 
1.024440 
0.829921 
0.520640 
0.234071 
0.016441 
0.137169 
0.332458 
0.468601 
0.627797 
0.794241 
0.915829 
0.990875 
1.051848 
1.123083 
1.162584 
1.124731 
0.978084 
0.734336 
0.557002 
0.345506 
0.031270 
0.029300 
0.029316 
0.028974 
0.029074 
0.029321 
0.029741 
0.030182 
0.030539 
0.030744 
0.030951 
0.089568 
0.533030 
0.663020 
0.948984 
1.117769 
1.102815 
0.878398 
0.701714 
0.953293 
1.006795 
0.849923 
0.567634 
0.305688 
0.013311 
0.013759 
0.156933 
0.300071 
0.442790 
0.615659 
0.782064 
0.903818 
0.992279 
1.069259 
1.140589 
1.168111 
1.107652 
0.938902 
0.710858 
0.534168 
0.351016 
0.031307 
0.028663 
0.028587 
0.028400 
0.028800 
0.029318 
0.029898 
0.030379 
0.030687 
0.031091 
0.212198 
0.575632 
0.749699 
1.006352 
1.110001 
1.032118 
0.867510 
0.670785 
0.854075 
0.962544 
0.879803 
0.648083 
0.369676 
0.010985 
0.011400 
0.012128 
0.129936 
0.257846 
0.403389 
0.587286 
0.758067 
0.879877 
0.982756 
1.073430 
1.140159 
1.148034 
1.074926 
0.926121 
0.697627 
0.520539 
0.361407 
0.032970 
0.027780 
0.027871 
0.028092 
0.028814 
0.029571 
0.030260 
0.030794 
0.031372 
0.346718 
0.586325 
0.847252 
1.082681 
1.117229 
0.964932 
0.831208 
0.706127 
0.811193 
1.001396 
0.975311 
0.758823 
0.456058 
0.009103 
0.009674 
0.010244 
0.010995 
0.092256 
0.203824 
0.358270 
0.533325 
0.699238 
0.843741 
0.980137 
1.081770 
1.133352 
1.130542 
1.054150 
0.904497 
0.704635 
0.537987 
0.376576 
0.132654 
0.027371 
0.027584 
0.028262 
0.029151 
0.030141 
0.031068 
0.032128 
0.479437 
0.625897 
0.930413 
1.137076 
1.112224 
0.897261 
0.744735 
0.766659 
0.844610 
1.051807 
1.027906 
0.793891 
0.462716 
0.007572 
0.008293 
0.008970 
0.009641 
0.010292 
0.043841 
0.156756 
0.308290 
0.470975 
0.662383 
0.851195 
1.004473 
1.095495 
1.131402 
1.114722 
1.043803 
0.937187 
0.763581 
0.558416 
0.429683 
0.232573 
0.027668 
0.027504 
0.028718 
0.029851 
0.031263 
0.185792 
0.600334 
0.680490 
0.968697 
1.140545 
1.078034 
0.821021 
0.668660 
0.721209 
0.796410 
1.003859 
0.991320 
0.777514 
0.476912 
0.006328 
0.007150 
0.007950 
0.008749 
0.009469 
0.010138 
0.011002 
0.146418 
0.286435 
0.462859 
0.686790 
0.887615 
1.031773 
1.110090 
1.129680 
1.116672 
1.074794 
0.975132 
0.768526 
0.531794 
0.430363 
0.276512 
0.027850 
0.027757 
0.029678 
0.031312 
0.295126 
0.651748 
0.759140 
1.015298 
1.125892 
1.014123 
0.761297 
0.625479 
0.654743 
0.741442 
0.932466 
0.975900 
0.833164 
0.557718 
0.005287 
0.006175 
0.007077 
0.008000 
0.008864 
0.009648 
0.010432 
0.011499 
0.150038 
0.296723 
0.486016 
0.712827 
0.920151 
1.059646 
1.121383 
1.132223 
1.127381 
1.075779 
0.940331 
0.722176 
0.495806 
0.388711 
0.291824 
0.028539 
0.029219 
0.031974 
0.368677 
0.732279 
0.920652 
1.086532 
1.101677 
0.942574 
0.692891 
0.608594 
0.629322 
0.759467 
0.941809 
1.006682 
0.904906 
0.644712 
0.004386 
0.005317 
0.006287 
0.007292 
0.008257 
0.009149 
0.010012 
0.010926 
0.012316 
0.146737 
0.310587 
0.502570 
0.741319 
0.956028 
1.068244 
1.115010 
1.130641 
1.117142 
1.039619 
0.888947 
0.687667 
0.477789 
0.357134 
0.334448 
0.160223 
0.071423 
0.544903 
0.850394 
1.062894 
1.145357 
1.050006 
0.833800 
0.685192 
0.724468 
0.736351 
0.803186 
0.918977 
1.002386 
0.939382 
0.684264 
0.003582 
0.004545 
0.005552 
0.006596 
0.007613 
0.008566 
0.009490 
0.010448 
0.011522 
0.013146 
0.133391 
0.304505 
0.516594 
0.754317 
0.936608 
1.042163 
1.111166 
1.131348 
1.096370 
1.002229 
0.853265 
0.667814 
0.470884 
0.347705 
0.421711 
0.352607 
0.772339 
0.925125 
1.098592 
1.131760 
0.982752 
0.793812 
0.725103 
0.790076 
0.719218 
0.743973 
0.866753 
0.972048 
0.947957 
0.739255 
0.002853 
0.003842 
0.004860 
0.005910 
0.006940 
0.007921 
0.008882 
0.009859 
0.010913 
0.012092 
0.013656 
0.086022 
0.258232 
0.495116 
0.702683 
0.898843 
1.048799 
1.130919 
1.133335 
1.078564 
0.978754 
0.834675 
0.664116 
0.489435 
0.441439 
0.651274 
0.982214 
0.965072 
1.054159 
1.070218 
0.913739 
0.733476 
0.822947 
0.790436 
0.730880 
0.868411 
0.847629 
0.926887 
0.942656 
0.789877 
0.002190 
0.003197 
0.004206 
0.005238 
0.006256 
0.007239 
0.008214 
0.009210 
0.010246 
0.011358 
0.012595 
0.014037 
0.022151 
0.231930 
0.465704 
0.688287 
0.926703 
1.081494 
1.146193 
1.135350 
1.072059 
0.972573 
0.840712 
0.701739 
0.598801 
0.705871 
1.046973 
1.061844 
1.026732 
1.027967 
0.890518 
0.786324 
0.985912 
0.843092 
0.797885 
0.982596 
0.893170 
0.889136 
0.925495 
0.804885 
0.001595 
0.002607 
0.003588 
0.004580 
0.005568 
0.006537 
0.007512 
0.008515 
0.009562 
0.010669 
0.011849 
0.013163 
0.014578 
0.016569 
0.224849 
0.467381 
0.712195 
0.943406 
1.091947 
1.157273 
1.145141 
1.076962 
0.981048 
0.869335 
0.767529 
0.725081 
0.977769 
1.084246 
1.059186 
1.040877 
0.909792 
0.801816 
1.026097 
0.883132 
0.830999 
0.968405 
0.836241 
0.904901 
0.934422 
0.791302 
0.001073 
0.002070 
0.003002 
0.003939 
0.004882 
0.005823 
0.006787 
0.007791 
0.008847 
0.009966 
0.011162 
0.012426 
0.013779 
0.015108 
0.016921 
0.213088 
0.470793 
0.711247 
0.940343 
1.108515 
1.175996 
1.155529 
1.079442 
0.987285 
0.883112 
0.793369 
0.819183 
0.920987 
0.998435 
1.033021 
0.949477 
0.781717 
0.877945 
0.850573 
0.799646 
0.812921 
0.794445 
0.979481 
0.973617 
0.783214 
0.000638 
0.001585 
0.002447 
0.003313 
0.004199 
0.005104 
0.006046 
0.007042 
0.008099 
0.009224 
0.010420 
0.011682 
0.012974 
0.014303 
0.015638 
0.017518 
0.206089 
0.461637 
0.707464 
0.952342 
1.130351 
1.188017 
1.157684 
1.078619 
0.985070 
0.888090 
0.801132 
0.743548 
0.793126 
0.936603 
0.995494 
0.951022 
0.841251 
0.520865 
0.439647 
0.465679 
0.813755 
1.001204 
1.005675 
0.829657 
0.000316 
0.001153 
0.001923 
0.002706 
0.003526 
0.004383 
0.005295 
0.006272 
0.007317 
0.008433 
0.009619 
0.010863 
0.012150 
0.013452 
0.014801 
0.016228 
0.018123 
0.184854 
0.436834 
0.704168 
0.957348 
1.136499 
1.186596 
1.159360 
1.086693 
0.998953 
0.887962 
0.742949 
0.665535 
0.798401 
0.999778 
1.051889 
0.749701 
0.243901 
0.132393 
0.168436 
0.715469 
0.890084 
0.982758 
0.904702 
0.000212 
0.000773 
0.001433 
0.002122 
0.002868 
0.003670 
0.004542 
0.005487 
0.006507 
0.007599 
0.008760 
0.009981 
0.011249 
0.012555 
0.013889 
0.015276 
0.016759 
0.018555 
0.147294 
0.391940 
0.689028 
0.943420 
1.122933 
1.182541 
1.170461 
1.108948 
1.020882 
0.887342 
0.749730 
0.693967 
0.698273 
0.582654 
0.490443 
0.553415 
0.540043 
0.334521 
0.732385 
0.718485 
0.895051 
0.979381 
0.000298 
0.000445 
0.000983 
0.001572 
0.002236 
0.002976 
0.003796 
0.004696 
0.005674 
0.006727 
0.007848 
0.009033 
0.010274 
0.011563 
0.012894 
0.014264 
0.015669 
0.017199 
0.018994 
0.099178 
0.346546 
0.666427 
0.918425 
1.107673 
1.179622 
1.182421 
1.141240 
1.053695 
0.940935 
0.836468 
0.741989 
0.646211 
0.600159 
0.535184 
0.561589 
0.792099 
0.927598 
0.608471 
0.800862 
1.049437 
0.000358 
0.000180 
0.000587 
0.001069 
0.001644 
0.002309 
0.003061 
0.003899 
0.004816 
0.005809 
0.006874 
0.008008 
0.009207 
0.010467 
0.011784 
0.013151 
0.014570 
0.016040 
0.017660 
0.019565 
0.054012 
0.326123 
0.646416 
0.890110 
1.063100 
1.160593 
1.195783 
1.164404 
1.096078 
1.022647 
0.948887 
0.899410 
0.854340 
0.776768 
0.722913 
0.821551 
0.977555 
0.579109 
0.693550 
1.098288 
0.000348 
0.000100 
0.000276 
0.000633 
0.001103 
0.001675 
0.002339 
0.003088 
0.003919 
0.004829 
0.005817 
0.006883 
0.008027 
0.009247 
0.010543 
0.011915 
0.013359 
0.014883 
0.016504 
0.018292 
0.020390 
0.034551 
0.315147 
0.616537 
0.826133 
1.012164 
1.138376 
1.182636 
1.181691 
1.142318 
1.086073 
1.055312 
1.022458 
0.959488 
0.892640 
0.872014 
0.808074 
0.551555 
0.565780 
1.033120 
0.000279 
0.000207 
0.000146 
0.000286 
0.000628 
0.001085 
0.001635 
0.002271 
0.002993 
0.003803 
0.004702 
0.005695 
0.006785 
0.007973 
0.009263 
0.010656 
0.012154 
0.013762 
0.015486 
0.017349 
0.019381 
0.021704 
0.024920 
0.304968 
0.568452 
0.772928 
0.976617 
1.074655 
1.156554 
1.160489 
1.142808 
1.148092 
1.135008 
1.060239 
0.976696 
0.904918 
0.821067 
0.628570 
0.504554 
0.855524 
0.000179 
0.000241 
0.000207 
0.000099 
0.000212 
0.000524 
0.000930 
0.001429 
0.002028 
0.002735 
0.003558 
0.004501 
0.005570 
0.006769 
0.008100 
0.009567 
0.011173 
0.012924 
0.014827 
0.016887 
0.019113 
0.021496 
0.024111 
0.027508 
0.245116 
0.464176 
0.683826 
0.834307 
0.980145 
1.024311 
1.070088 
1.150727 
1.173053 
1.115089 
0.991777 
0.956081 
0.968137 
0.904115 
0.684111 
0.648756 
0.000064 
0.000180 
0.000281 
0.000350 
0.000357 
0.000288 
0.000233 
0.000459 
0.000921 
0.001553 
0.002344 
0.003296 
0.004409 
0.005684 
0.007124 
0.008728 
0.010502 
0.012454 
0.014596 
0.016945 
0.019510 
0.022303 
0.025278 
0.028307 
0.032032 
0.038171 
0.356084 
0.548087 
0.624039 
0.685457 
0.770901 
0.898717 
0.939012 
0.961644 
1.143987 
1.064570 
1.098614 
1.152183 
1.132274 
0.879574 
