# vtk DataFile Version 1.0 
Bar_TO_3D 
ASCII 
DATASET UNSTRUCTURED_GRID 
POINTS 20301 float 
0.000000 0.000000 
0.000000 0.000000 1.000000 
0.000000 0.000000 2.000000 
0.000000 0.000000 3.000000 
0.000000 0.000000 4.000000 
0.000000 0.000000 5.000000 
0.000000 0.000000 6.000000 
0.000000 0.000000 7.000000 
0.000000 0.000000 8.000000 
0.000000 0.000000 9.000000 
0.000000 0.000000 10.000000 
0.000000 0.000000 11.000000 
0.000000 0.000000 12.000000 
0.000000 0.000000 13.000000 
0.000000 0.000000 14.000000 
0.000000 0.000000 15.000000 
0.000000 0.000000 16.000000 
0.000000 0.000000 17.000000 
0.000000 0.000000 18.000000 
0.000000 0.000000 19.000000 
0.000000 0.000000 20.000000 
0.000000 0.000000 21.000000 
0.000000 0.000000 22.000000 
0.000000 0.000000 23.000000 
0.000000 0.000000 24.000000 
0.000000 0.000000 25.000000 
0.000000 0.000000 26.000000 
0.000000 0.000000 27.000000 
0.000000 0.000000 28.000000 
0.000000 0.000000 29.000000 
0.000000 0.000000 30.000000 
0.000000 0.000000 31.000000 
0.000000 0.000000 32.000000 
0.000000 0.000000 33.000000 
0.000000 0.000000 34.000000 
0.000000 0.000000 35.000000 
0.000000 0.000000 36.000000 
0.000000 0.000000 37.000000 
0.000000 0.000000 38.000000 
0.000000 0.000000 39.000000 
0.000000 0.000000 40.000000 
0.000000 0.000000 41.000000 
0.000000 0.000000 42.000000 
0.000000 0.000000 43.000000 
0.000000 0.000000 44.000000 
0.000000 0.000000 45.000000 
0.000000 0.000000 46.000000 
0.000000 0.000000 47.000000 
0.000000 0.000000 48.000000 
0.000000 0.000000 49.000000 
0.000000 0.000000 50.000000 
0.000000 0.000000 51.000000 
0.000000 0.000000 52.000000 
0.000000 0.000000 53.000000 
0.000000 0.000000 54.000000 
0.000000 0.000000 55.000000 
0.000000 0.000000 56.000000 
0.000000 0.000000 57.000000 
0.000000 0.000000 58.000000 
0.000000 0.000000 59.000000 
0.000000 0.000000 60.000000 
0.000000 0.000000 61.000000 
0.000000 0.000000 62.000000 
0.000000 0.000000 63.000000 
0.000000 0.000000 64.000000 
0.000000 0.000000 65.000000 
0.000000 0.000000 66.000000 
0.000000 0.000000 67.000000 
0.000000 0.000000 68.000000 
0.000000 0.000000 69.000000 
0.000000 0.000000 70.000000 
0.000000 0.000000 71.000000 
0.000000 0.000000 72.000000 
0.000000 0.000000 73.000000 
0.000000 0.000000 74.000000 
0.000000 0.000000 75.000000 
0.000000 0.000000 76.000000 
0.000000 0.000000 77.000000 
0.000000 0.000000 78.000000 
0.000000 0.000000 79.000000 
0.000000 0.000000 80.000000 
0.000000 0.000000 81.000000 
0.000000 0.000000 82.000000 
0.000000 0.000000 83.000000 
0.000000 0.000000 84.000000 
0.000000 0.000000 85.000000 
0.000000 0.000000 86.000000 
0.000000 0.000000 87.000000 
0.000000 0.000000 88.000000 
0.000000 0.000000 89.000000 
0.000000 0.000000 90.000000 
0.000000 0.000000 91.000000 
0.000000 0.000000 92.000000 
0.000000 0.000000 93.000000 
0.000000 0.000000 94.000000 
0.000000 0.000000 95.000000 
0.000000 0.000000 96.000000 
0.000000 0.000000 97.000000 
0.000000 0.000000 98.000000 
0.000000 0.000000 99.000000 
0.000000 0.000000 100.000000 
0.000000 0.000000 101.000000 
0.000000 0.000000 102.000000 
0.000000 0.000000 103.000000 
0.000000 0.000000 104.000000 
0.000000 0.000000 105.000000 
0.000000 0.000000 106.000000 
0.000000 0.000000 107.000000 
0.000000 0.000000 108.000000 
0.000000 0.000000 109.000000 
0.000000 0.000000 110.000000 
0.000000 0.000000 111.000000 
0.000000 0.000000 112.000000 
0.000000 0.000000 113.000000 
0.000000 0.000000 114.000000 
0.000000 0.000000 115.000000 
0.000000 0.000000 116.000000 
0.000000 0.000000 117.000000 
0.000000 0.000000 118.000000 
0.000000 0.000000 119.000000 
0.000000 0.000000 120.000000 
0.000000 0.000000 121.000000 
0.000000 0.000000 122.000000 
0.000000 0.000000 123.000000 
0.000000 0.000000 124.000000 
0.000000 0.000000 125.000000 
0.000000 0.000000 126.000000 
0.000000 0.000000 127.000000 
0.000000 0.000000 128.000000 
0.000000 0.000000 129.000000 
0.000000 0.000000 130.000000 
0.000000 0.000000 131.000000 
0.000000 0.000000 132.000000 
0.000000 0.000000 133.000000 
0.000000 0.000000 134.000000 
0.000000 0.000000 135.000000 
0.000000 0.000000 136.000000 
0.000000 0.000000 137.000000 
0.000000 0.000000 138.000000 
0.000000 0.000000 139.000000 
0.000000 0.000000 140.000000 
0.000000 0.000000 141.000000 
0.000000 0.000000 142.000000 
0.000000 0.000000 143.000000 
0.000000 0.000000 144.000000 
0.000000 0.000000 145.000000 
0.000000 0.000000 146.000000 
0.000000 0.000000 147.000000 
0.000000 0.000000 148.000000 
0.000000 0.000000 149.000000 
0.000000 0.000000 150.000000 
0.000000 0.000000 151.000000 
0.000000 0.000000 152.000000 
0.000000 0.000000 153.000000 
0.000000 0.000000 154.000000 
0.000000 0.000000 155.000000 
0.000000 0.000000 156.000000 
0.000000 0.000000 157.000000 
0.000000 0.000000 158.000000 
0.000000 0.000000 159.000000 
0.000000 0.000000 160.000000 
0.000000 0.000000 161.000000 
0.000000 0.000000 162.000000 
0.000000 0.000000 163.000000 
0.000000 0.000000 164.000000 
0.000000 0.000000 165.000000 
0.000000 0.000000 166.000000 
0.000000 0.000000 167.000000 
0.000000 0.000000 168.000000 
0.000000 0.000000 169.000000 
0.000000 0.000000 170.000000 
0.000000 0.000000 171.000000 
0.000000 0.000000 172.000000 
0.000000 0.000000 173.000000 
0.000000 0.000000 174.000000 
0.000000 0.000000 175.000000 
0.000000 0.000000 176.000000 
0.000000 0.000000 177.000000 
0.000000 0.000000 178.000000 
0.000000 0.000000 179.000000 
0.000000 0.000000 180.000000 
0.000000 0.000000 181.000000 
0.000000 0.000000 182.000000 
0.000000 0.000000 183.000000 
0.000000 0.000000 184.000000 
0.000000 0.000000 185.000000 
0.000000 0.000000 186.000000 
0.000000 0.000000 187.000000 
0.000000 0.000000 188.000000 
0.000000 0.000000 189.000000 
0.000000 0.000000 190.000000 
0.000000 0.000000 191.000000 
0.000000 0.000000 192.000000 
0.000000 0.000000 193.000000 
0.000000 0.000000 194.000000 
0.000000 0.000000 195.000000 
0.000000 0.000000 196.000000 
0.000000 0.000000 197.000000 
0.000000 0.000000 198.000000 
0.000000 0.000000 199.000000 
0.000000 0.000000 200.000000 
0.000000 1.000000 0.000000 
0.000000 1.000000 1.000000 
0.000000 1.000000 2.000000 
0.000000 1.000000 3.000000 
0.000000 1.000000 4.000000 
0.000000 1.000000 5.000000 
0.000000 1.000000 6.000000 
0.000000 1.000000 7.000000 
0.000000 1.000000 8.000000 
0.000000 1.000000 9.000000 
0.000000 1.000000 10.000000 
0.000000 1.000000 11.000000 
0.000000 1.000000 12.000000 
0.000000 1.000000 13.000000 
0.000000 1.000000 14.000000 
0.000000 1.000000 15.000000 
0.000000 1.000000 16.000000 
0.000000 1.000000 17.000000 
0.000000 1.000000 18.000000 
0.000000 1.000000 19.000000 
0.000000 1.000000 20.000000 
0.000000 1.000000 21.000000 
0.000000 1.000000 22.000000 
0.000000 1.000000 23.000000 
0.000000 1.000000 24.000000 
0.000000 1.000000 25.000000 
0.000000 1.000000 26.000000 
0.000000 1.000000 27.000000 
0.000000 1.000000 28.000000 
0.000000 1.000000 29.000000 
0.000000 1.000000 30.000000 
0.000000 1.000000 31.000000 
0.000000 1.000000 32.000000 
0.000000 1.000000 33.000000 
0.000000 1.000000 34.000000 
0.000000 1.000000 35.000000 
0.000000 1.000000 36.000000 
0.000000 1.000000 37.000000 
0.000000 1.000000 38.000000 
0.000000 1.000000 39.000000 
0.000000 1.000000 40.000000 
0.000000 1.000000 41.000000 
0.000000 1.000000 42.000000 
0.000000 1.000000 43.000000 
0.000000 1.000000 44.000000 
0.000000 1.000000 45.000000 
0.000000 1.000000 46.000000 
0.000000 1.000000 47.000000 
0.000000 1.000000 48.000000 
0.000000 1.000000 49.000000 
0.000000 1.000000 50.000000 
0.000000 1.000000 51.000000 
0.000000 1.000000 52.000000 
0.000000 1.000000 53.000000 
0.000000 1.000000 54.000000 
0.000000 1.000000 55.000000 
0.000000 1.000000 56.000000 
0.000000 1.000000 57.000000 
0.000000 1.000000 58.000000 
0.000000 1.000000 59.000000 
0.000000 1.000000 60.000000 
0.000000 1.000000 61.000000 
0.000000 1.000000 62.000000 
0.000000 1.000000 63.000000 
0.000000 1.000000 64.000000 
0.000000 1.000000 65.000000 
0.000000 1.000000 66.000000 
0.000000 1.000000 67.000000 
0.000000 1.000000 68.000000 
0.000000 1.000000 69.000000 
0.000000 1.000000 70.000000 
0.000000 1.000000 71.000000 
0.000000 1.000000 72.000000 
0.000000 1.000000 73.000000 
0.000000 1.000000 74.000000 
0.000000 1.000000 75.000000 
0.000000 1.000000 76.000000 
0.000000 1.000000 77.000000 
0.000000 1.000000 78.000000 
0.000000 1.000000 79.000000 
0.000000 1.000000 80.000000 
0.000000 1.000000 81.000000 
0.000000 1.000000 82.000000 
0.000000 1.000000 83.000000 
0.000000 1.000000 84.000000 
0.000000 1.000000 85.000000 
0.000000 1.000000 86.000000 
0.000000 1.000000 87.000000 
0.000000 1.000000 88.000000 
0.000000 1.000000 89.000000 
0.000000 1.000000 90.000000 
0.000000 1.000000 91.000000 
0.000000 1.000000 92.000000 
0.000000 1.000000 93.000000 
0.000000 1.000000 94.000000 
0.000000 1.000000 95.000000 
0.000000 1.000000 96.000000 
0.000000 1.000000 97.000000 
0.000000 1.000000 98.000000 
0.000000 1.000000 99.000000 
0.000000 1.000000 100.000000 
0.000000 1.000000 101.000000 
0.000000 1.000000 102.000000 
0.000000 1.000000 103.000000 
0.000000 1.000000 104.000000 
0.000000 1.000000 105.000000 
0.000000 1.000000 106.000000 
0.000000 1.000000 107.000000 
0.000000 1.000000 108.000000 
0.000000 1.000000 109.000000 
0.000000 1.000000 110.000000 
0.000000 1.000000 111.000000 
0.000000 1.000000 112.000000 
0.000000 1.000000 113.000000 
0.000000 1.000000 114.000000 
0.000000 1.000000 115.000000 
0.000000 1.000000 116.000000 
0.000000 1.000000 117.000000 
0.000000 1.000000 118.000000 
0.000000 1.000000 119.000000 
0.000000 1.000000 120.000000 
0.000000 1.000000 121.000000 
0.000000 1.000000 122.000000 
0.000000 1.000000 123.000000 
0.000000 1.000000 124.000000 
0.000000 1.000000 125.000000 
0.000000 1.000000 126.000000 
0.000000 1.000000 127.000000 
0.000000 1.000000 128.000000 
0.000000 1.000000 129.000000 
0.000000 1.000000 130.000000 
0.000000 1.000000 131.000000 
0.000000 1.000000 132.000000 
0.000000 1.000000 133.000000 
0.000000 1.000000 134.000000 
0.000000 1.000000 135.000000 
0.000000 1.000000 136.000000 
0.000000 1.000000 137.000000 
0.000000 1.000000 138.000000 
0.000000 1.000000 139.000000 
0.000000 1.000000 140.000000 
0.000000 1.000000 141.000000 
0.000000 1.000000 142.000000 
0.000000 1.000000 143.000000 
0.000000 1.000000 144.000000 
0.000000 1.000000 145.000000 
0.000000 1.000000 146.000000 
0.000000 1.000000 147.000000 
0.000000 1.000000 148.000000 
0.000000 1.000000 149.000000 
0.000000 1.000000 150.000000 
0.000000 1.000000 151.000000 
0.000000 1.000000 152.000000 
0.000000 1.000000 153.000000 
0.000000 1.000000 154.000000 
0.000000 1.000000 155.000000 
0.000000 1.000000 156.000000 
0.000000 1.000000 157.000000 
0.000000 1.000000 158.000000 
0.000000 1.000000 159.000000 
0.000000 1.000000 160.000000 
0.000000 1.000000 161.000000 
0.000000 1.000000 162.000000 
0.000000 1.000000 163.000000 
0.000000 1.000000 164.000000 
0.000000 1.000000 165.000000 
0.000000 1.000000 166.000000 
0.000000 1.000000 167.000000 
0.000000 1.000000 168.000000 
0.000000 1.000000 169.000000 
0.000000 1.000000 170.000000 
0.000000 1.000000 171.000000 
0.000000 1.000000 172.000000 
0.000000 1.000000 173.000000 
0.000000 1.000000 174.000000 
0.000000 1.000000 175.000000 
0.000000 1.000000 176.000000 
0.000000 1.000000 177.000000 
0.000000 1.000000 178.000000 
0.000000 1.000000 179.000000 
0.000000 1.000000 180.000000 
0.000000 1.000000 181.000000 
0.000000 1.000000 182.000000 
0.000000 1.000000 183.000000 
0.000000 1.000000 184.000000 
0.000000 1.000000 185.000000 
0.000000 1.000000 186.000000 
0.000000 1.000000 187.000000 
0.000000 1.000000 188.000000 
0.000000 1.000000 189.000000 
0.000000 1.000000 190.000000 
0.000000 1.000000 191.000000 
0.000000 1.000000 192.000000 
0.000000 1.000000 193.000000 
0.000000 1.000000 194.000000 
0.000000 1.000000 195.000000 
0.000000 1.000000 196.000000 
0.000000 1.000000 197.000000 
0.000000 1.000000 198.000000 
0.000000 1.000000 199.000000 
0.000000 1.000000 200.000000 
0.000000 2.000000 0.000000 
0.000000 2.000000 1.000000 
0.000000 2.000000 2.000000 
0.000000 2.000000 3.000000 
0.000000 2.000000 4.000000 
0.000000 2.000000 5.000000 
0.000000 2.000000 6.000000 
0.000000 2.000000 7.000000 
0.000000 2.000000 8.000000 
0.000000 2.000000 9.000000 
0.000000 2.000000 10.000000 
0.000000 2.000000 11.000000 
0.000000 2.000000 12.000000 
0.000000 2.000000 13.000000 
0.000000 2.000000 14.000000 
0.000000 2.000000 15.000000 
0.000000 2.000000 16.000000 
0.000000 2.000000 17.000000 
0.000000 2.000000 18.000000 
0.000000 2.000000 19.000000 
0.000000 2.000000 20.000000 
0.000000 2.000000 21.000000 
0.000000 2.000000 22.000000 
0.000000 2.000000 23.000000 
0.000000 2.000000 24.000000 
0.000000 2.000000 25.000000 
0.000000 2.000000 26.000000 
0.000000 2.000000 27.000000 
0.000000 2.000000 28.000000 
0.000000 2.000000 29.000000 
0.000000 2.000000 30.000000 
0.000000 2.000000 31.000000 
0.000000 2.000000 32.000000 
0.000000 2.000000 33.000000 
0.000000 2.000000 34.000000 
0.000000 2.000000 35.000000 
0.000000 2.000000 36.000000 
0.000000 2.000000 37.000000 
0.000000 2.000000 38.000000 
0.000000 2.000000 39.000000 
0.000000 2.000000 40.000000 
0.000000 2.000000 41.000000 
0.000000 2.000000 42.000000 
0.000000 2.000000 43.000000 
0.000000 2.000000 44.000000 
0.000000 2.000000 45.000000 
0.000000 2.000000 46.000000 
0.000000 2.000000 47.000000 
0.000000 2.000000 48.000000 
0.000000 2.000000 49.000000 
0.000000 2.000000 50.000000 
0.000000 2.000000 51.000000 
0.000000 2.000000 52.000000 
0.000000 2.000000 53.000000 
0.000000 2.000000 54.000000 
0.000000 2.000000 55.000000 
0.000000 2.000000 56.000000 
0.000000 2.000000 57.000000 
0.000000 2.000000 58.000000 
0.000000 2.000000 59.000000 
0.000000 2.000000 60.000000 
0.000000 2.000000 61.000000 
0.000000 2.000000 62.000000 
0.000000 2.000000 63.000000 
0.000000 2.000000 64.000000 
0.000000 2.000000 65.000000 
0.000000 2.000000 66.000000 
0.000000 2.000000 67.000000 
0.000000 2.000000 68.000000 
0.000000 2.000000 69.000000 
0.000000 2.000000 70.000000 
0.000000 2.000000 71.000000 
0.000000 2.000000 72.000000 
0.000000 2.000000 73.000000 
0.000000 2.000000 74.000000 
0.000000 2.000000 75.000000 
0.000000 2.000000 76.000000 
0.000000 2.000000 77.000000 
0.000000 2.000000 78.000000 
0.000000 2.000000 79.000000 
0.000000 2.000000 80.000000 
0.000000 2.000000 81.000000 
0.000000 2.000000 82.000000 
0.000000 2.000000 83.000000 
0.000000 2.000000 84.000000 
0.000000 2.000000 85.000000 
0.000000 2.000000 86.000000 
0.000000 2.000000 87.000000 
0.000000 2.000000 88.000000 
0.000000 2.000000 89.000000 
0.000000 2.000000 90.000000 
0.000000 2.000000 91.000000 
0.000000 2.000000 92.000000 
0.000000 2.000000 93.000000 
0.000000 2.000000 94.000000 
0.000000 2.000000 95.000000 
0.000000 2.000000 96.000000 
0.000000 2.000000 97.000000 
0.000000 2.000000 98.000000 
0.000000 2.000000 99.000000 
0.000000 2.000000 100.000000 
0.000000 2.000000 101.000000 
0.000000 2.000000 102.000000 
0.000000 2.000000 103.000000 
0.000000 2.000000 104.000000 
0.000000 2.000000 105.000000 
0.000000 2.000000 106.000000 
0.000000 2.000000 107.000000 
0.000000 2.000000 108.000000 
0.000000 2.000000 109.000000 
0.000000 2.000000 110.000000 
0.000000 2.000000 111.000000 
0.000000 2.000000 112.000000 
0.000000 2.000000 113.000000 
0.000000 2.000000 114.000000 
0.000000 2.000000 115.000000 
0.000000 2.000000 116.000000 
0.000000 2.000000 117.000000 
0.000000 2.000000 118.000000 
0.000000 2.000000 119.000000 
0.000000 2.000000 120.000000 
0.000000 2.000000 121.000000 
0.000000 2.000000 122.000000 
0.000000 2.000000 123.000000 
0.000000 2.000000 124.000000 
0.000000 2.000000 125.000000 
0.000000 2.000000 126.000000 
0.000000 2.000000 127.000000 
0.000000 2.000000 128.000000 
0.000000 2.000000 129.000000 
0.000000 2.000000 130.000000 
0.000000 2.000000 131.000000 
0.000000 2.000000 132.000000 
0.000000 2.000000 133.000000 
0.000000 2.000000 134.000000 
0.000000 2.000000 135.000000 
0.000000 2.000000 136.000000 
0.000000 2.000000 137.000000 
0.000000 2.000000 138.000000 
0.000000 2.000000 139.000000 
0.000000 2.000000 140.000000 
0.000000 2.000000 141.000000 
0.000000 2.000000 142.000000 
0.000000 2.000000 143.000000 
0.000000 2.000000 144.000000 
0.000000 2.000000 145.000000 
0.000000 2.000000 146.000000 
0.000000 2.000000 147.000000 
0.000000 2.000000 148.000000 
0.000000 2.000000 149.000000 
0.000000 2.000000 150.000000 
0.000000 2.000000 151.000000 
0.000000 2.000000 152.000000 
0.000000 2.000000 153.000000 
0.000000 2.000000 154.000000 
0.000000 2.000000 155.000000 
0.000000 2.000000 156.000000 
0.000000 2.000000 157.000000 
0.000000 2.000000 158.000000 
0.000000 2.000000 159.000000 
0.000000 2.000000 160.000000 
0.000000 2.000000 161.000000 
0.000000 2.000000 162.000000 
0.000000 2.000000 163.000000 
0.000000 2.000000 164.000000 
0.000000 2.000000 165.000000 
0.000000 2.000000 166.000000 
0.000000 2.000000 167.000000 
0.000000 2.000000 168.000000 
0.000000 2.000000 169.000000 
0.000000 2.000000 170.000000 
0.000000 2.000000 171.000000 
0.000000 2.000000 172.000000 
0.000000 2.000000 173.000000 
0.000000 2.000000 174.000000 
0.000000 2.000000 175.000000 
0.000000 2.000000 176.000000 
0.000000 2.000000 177.000000 
0.000000 2.000000 178.000000 
0.000000 2.000000 179.000000 
0.000000 2.000000 180.000000 
0.000000 2.000000 181.000000 
0.000000 2.000000 182.000000 
0.000000 2.000000 183.000000 
0.000000 2.000000 184.000000 
0.000000 2.000000 185.000000 
0.000000 2.000000 186.000000 
0.000000 2.000000 187.000000 
0.000000 2.000000 188.000000 
0.000000 2.000000 189.000000 
0.000000 2.000000 190.000000 
0.000000 2.000000 191.000000 
0.000000 2.000000 192.000000 
0.000000 2.000000 193.000000 
0.000000 2.000000 194.000000 
0.000000 2.000000 195.000000 
0.000000 2.000000 196.000000 
0.000000 2.000000 197.000000 
0.000000 2.000000 198.000000 
0.000000 2.000000 199.000000 
0.000000 2.000000 200.000000 
0.000000 3.000000 0.000000 
0.000000 3.000000 1.000000 
0.000000 3.000000 2.000000 
0.000000 3.000000 3.000000 
0.000000 3.000000 4.000000 
0.000000 3.000000 5.000000 
0.000000 3.000000 6.000000 
0.000000 3.000000 7.000000 
0.000000 3.000000 8.000000 
0.000000 3.000000 9.000000 
0.000000 3.000000 10.000000 
0.000000 3.000000 11.000000 
0.000000 3.000000 12.000000 
0.000000 3.000000 13.000000 
0.000000 3.000000 14.000000 
0.000000 3.000000 15.000000 
0.000000 3.000000 16.000000 
0.000000 3.000000 17.000000 
0.000000 3.000000 18.000000 
0.000000 3.000000 19.000000 
0.000000 3.000000 20.000000 
0.000000 3.000000 21.000000 
0.000000 3.000000 22.000000 
0.000000 3.000000 23.000000 
0.000000 3.000000 24.000000 
0.000000 3.000000 25.000000 
0.000000 3.000000 26.000000 
0.000000 3.000000 27.000000 
0.000000 3.000000 28.000000 
0.000000 3.000000 29.000000 
0.000000 3.000000 30.000000 
0.000000 3.000000 31.000000 
0.000000 3.000000 32.000000 
0.000000 3.000000 33.000000 
0.000000 3.000000 34.000000 
0.000000 3.000000 35.000000 
0.000000 3.000000 36.000000 
0.000000 3.000000 37.000000 
0.000000 3.000000 38.000000 
0.000000 3.000000 39.000000 
0.000000 3.000000 40.000000 
0.000000 3.000000 41.000000 
0.000000 3.000000 42.000000 
0.000000 3.000000 43.000000 
0.000000 3.000000 44.000000 
0.000000 3.000000 45.000000 
0.000000 3.000000 46.000000 
0.000000 3.000000 47.000000 
0.000000 3.000000 48.000000 
0.000000 3.000000 49.000000 
0.000000 3.000000 50.000000 
0.000000 3.000000 51.000000 
0.000000 3.000000 52.000000 
0.000000 3.000000 53.000000 
0.000000 3.000000 54.000000 
0.000000 3.000000 55.000000 
0.000000 3.000000 56.000000 
0.000000 3.000000 57.000000 
0.000000 3.000000 58.000000 
0.000000 3.000000 59.000000 
0.000000 3.000000 60.000000 
0.000000 3.000000 61.000000 
0.000000 3.000000 62.000000 
0.000000 3.000000 63.000000 
0.000000 3.000000 64.000000 
0.000000 3.000000 65.000000 
0.000000 3.000000 66.000000 
0.000000 3.000000 67.000000 
0.000000 3.000000 68.000000 
0.000000 3.000000 69.000000 
0.000000 3.000000 70.000000 
0.000000 3.000000 71.000000 
0.000000 3.000000 72.000000 
0.000000 3.000000 73.000000 
0.000000 3.000000 74.000000 
0.000000 3.000000 75.000000 
0.000000 3.000000 76.000000 
0.000000 3.000000 77.000000 
0.000000 3.000000 78.000000 
0.000000 3.000000 79.000000 
0.000000 3.000000 80.000000 
0.000000 3.000000 81.000000 
0.000000 3.000000 82.000000 
0.000000 3.000000 83.000000 
0.000000 3.000000 84.000000 
0.000000 3.000000 85.000000 
0.000000 3.000000 86.000000 
0.000000 3.000000 87.000000 
0.000000 3.000000 88.000000 
0.000000 3.000000 89.000000 
0.000000 3.000000 90.000000 
0.000000 3.000000 91.000000 
0.000000 3.000000 92.000000 
0.000000 3.000000 93.000000 
0.000000 3.000000 94.000000 
0.000000 3.000000 95.000000 
0.000000 3.000000 96.000000 
0.000000 3.000000 97.000000 
0.000000 3.000000 98.000000 
0.000000 3.000000 99.000000 
0.000000 3.000000 100.000000 
0.000000 3.000000 101.000000 
0.000000 3.000000 102.000000 
0.000000 3.000000 103.000000 
0.000000 3.000000 104.000000 
0.000000 3.000000 105.000000 
0.000000 3.000000 106.000000 
0.000000 3.000000 107.000000 
0.000000 3.000000 108.000000 
0.000000 3.000000 109.000000 
0.000000 3.000000 110.000000 
0.000000 3.000000 111.000000 
0.000000 3.000000 112.000000 
0.000000 3.000000 113.000000 
0.000000 3.000000 114.000000 
0.000000 3.000000 115.000000 
0.000000 3.000000 116.000000 
0.000000 3.000000 117.000000 
0.000000 3.000000 118.000000 
0.000000 3.000000 119.000000 
0.000000 3.000000 120.000000 
0.000000 3.000000 121.000000 
0.000000 3.000000 122.000000 
0.000000 3.000000 123.000000 
0.000000 3.000000 124.000000 
0.000000 3.000000 125.000000 
0.000000 3.000000 126.000000 
0.000000 3.000000 127.000000 
0.000000 3.000000 128.000000 
0.000000 3.000000 129.000000 
0.000000 3.000000 130.000000 
0.000000 3.000000 131.000000 
0.000000 3.000000 132.000000 
0.000000 3.000000 133.000000 
0.000000 3.000000 134.000000 
0.000000 3.000000 135.000000 
0.000000 3.000000 136.000000 
0.000000 3.000000 137.000000 
0.000000 3.000000 138.000000 
0.000000 3.000000 139.000000 
0.000000 3.000000 140.000000 
0.000000 3.000000 141.000000 
0.000000 3.000000 142.000000 
0.000000 3.000000 143.000000 
0.000000 3.000000 144.000000 
0.000000 3.000000 145.000000 
0.000000 3.000000 146.000000 
0.000000 3.000000 147.000000 
0.000000 3.000000 148.000000 
0.000000 3.000000 149.000000 
0.000000 3.000000 150.000000 
0.000000 3.000000 151.000000 
0.000000 3.000000 152.000000 
0.000000 3.000000 153.000000 
0.000000 3.000000 154.000000 
0.000000 3.000000 155.000000 
0.000000 3.000000 156.000000 
0.000000 3.000000 157.000000 
0.000000 3.000000 158.000000 
0.000000 3.000000 159.000000 
0.000000 3.000000 160.000000 
0.000000 3.000000 161.000000 
0.000000 3.000000 162.000000 
0.000000 3.000000 163.000000 
0.000000 3.000000 164.000000 
0.000000 3.000000 165.000000 
0.000000 3.000000 166.000000 
0.000000 3.000000 167.000000 
0.000000 3.000000 168.000000 
0.000000 3.000000 169.000000 
0.000000 3.000000 170.000000 
0.000000 3.000000 171.000000 
0.000000 3.000000 172.000000 
0.000000 3.000000 173.000000 
0.000000 3.000000 174.000000 
0.000000 3.000000 175.000000 
0.000000 3.000000 176.000000 
0.000000 3.000000 177.000000 
0.000000 3.000000 178.000000 
0.000000 3.000000 179.000000 
0.000000 3.000000 180.000000 
0.000000 3.000000 181.000000 
0.000000 3.000000 182.000000 
0.000000 3.000000 183.000000 
0.000000 3.000000 184.000000 
0.000000 3.000000 185.000000 
0.000000 3.000000 186.000000 
0.000000 3.000000 187.000000 
0.000000 3.000000 188.000000 
0.000000 3.000000 189.000000 
0.000000 3.000000 190.000000 
0.000000 3.000000 191.000000 
0.000000 3.000000 192.000000 
0.000000 3.000000 193.000000 
0.000000 3.000000 194.000000 
0.000000 3.000000 195.000000 
0.000000 3.000000 196.000000 
0.000000 3.000000 197.000000 
0.000000 3.000000 198.000000 
0.000000 3.000000 199.000000 
0.000000 3.000000 200.000000 
0.000000 4.000000 0.000000 
0.000000 4.000000 1.000000 
0.000000 4.000000 2.000000 
0.000000 4.000000 3.000000 
0.000000 4.000000 4.000000 
0.000000 4.000000 5.000000 
0.000000 4.000000 6.000000 
0.000000 4.000000 7.000000 
0.000000 4.000000 8.000000 
0.000000 4.000000 9.000000 
0.000000 4.000000 10.000000 
0.000000 4.000000 11.000000 
0.000000 4.000000 12.000000 
0.000000 4.000000 13.000000 
0.000000 4.000000 14.000000 
0.000000 4.000000 15.000000 
0.000000 4.000000 16.000000 
0.000000 4.000000 17.000000 
0.000000 4.000000 18.000000 
0.000000 4.000000 19.000000 
0.000000 4.000000 20.000000 
0.000000 4.000000 21.000000 
0.000000 4.000000 22.000000 
0.000000 4.000000 23.000000 
0.000000 4.000000 24.000000 
0.000000 4.000000 25.000000 
0.000000 4.000000 26.000000 
0.000000 4.000000 27.000000 
0.000000 4.000000 28.000000 
0.000000 4.000000 29.000000 
0.000000 4.000000 30.000000 
0.000000 4.000000 31.000000 
0.000000 4.000000 32.000000 
0.000000 4.000000 33.000000 
0.000000 4.000000 34.000000 
0.000000 4.000000 35.000000 
0.000000 4.000000 36.000000 
0.000000 4.000000 37.000000 
0.000000 4.000000 38.000000 
0.000000 4.000000 39.000000 
0.000000 4.000000 40.000000 
0.000000 4.000000 41.000000 
0.000000 4.000000 42.000000 
0.000000 4.000000 43.000000 
0.000000 4.000000 44.000000 
0.000000 4.000000 45.000000 
0.000000 4.000000 46.000000 
0.000000 4.000000 47.000000 
0.000000 4.000000 48.000000 
0.000000 4.000000 49.000000 
0.000000 4.000000 50.000000 
0.000000 4.000000 51.000000 
0.000000 4.000000 52.000000 
0.000000 4.000000 53.000000 
0.000000 4.000000 54.000000 
0.000000 4.000000 55.000000 
0.000000 4.000000 56.000000 
0.000000 4.000000 57.000000 
0.000000 4.000000 58.000000 
0.000000 4.000000 59.000000 
0.000000 4.000000 60.000000 
0.000000 4.000000 61.000000 
0.000000 4.000000 62.000000 
0.000000 4.000000 63.000000 
0.000000 4.000000 64.000000 
0.000000 4.000000 65.000000 
0.000000 4.000000 66.000000 
0.000000 4.000000 67.000000 
0.000000 4.000000 68.000000 
0.000000 4.000000 69.000000 
0.000000 4.000000 70.000000 
0.000000 4.000000 71.000000 
0.000000 4.000000 72.000000 
0.000000 4.000000 73.000000 
0.000000 4.000000 74.000000 
0.000000 4.000000 75.000000 
0.000000 4.000000 76.000000 
0.000000 4.000000 77.000000 
0.000000 4.000000 78.000000 
0.000000 4.000000 79.000000 
0.000000 4.000000 80.000000 
0.000000 4.000000 81.000000 
0.000000 4.000000 82.000000 
0.000000 4.000000 83.000000 
0.000000 4.000000 84.000000 
0.000000 4.000000 85.000000 
0.000000 4.000000 86.000000 
0.000000 4.000000 87.000000 
0.000000 4.000000 88.000000 
0.000000 4.000000 89.000000 
0.000000 4.000000 90.000000 
0.000000 4.000000 91.000000 
0.000000 4.000000 92.000000 
0.000000 4.000000 93.000000 
0.000000 4.000000 94.000000 
0.000000 4.000000 95.000000 
0.000000 4.000000 96.000000 
0.000000 4.000000 97.000000 
0.000000 4.000000 98.000000 
0.000000 4.000000 99.000000 
0.000000 4.000000 100.000000 
0.000000 4.000000 101.000000 
0.000000 4.000000 102.000000 
0.000000 4.000000 103.000000 
0.000000 4.000000 104.000000 
0.000000 4.000000 105.000000 
0.000000 4.000000 106.000000 
0.000000 4.000000 107.000000 
0.000000 4.000000 108.000000 
0.000000 4.000000 109.000000 
0.000000 4.000000 110.000000 
0.000000 4.000000 111.000000 
0.000000 4.000000 112.000000 
0.000000 4.000000 113.000000 
0.000000 4.000000 114.000000 
0.000000 4.000000 115.000000 
0.000000 4.000000 116.000000 
0.000000 4.000000 117.000000 
0.000000 4.000000 118.000000 
0.000000 4.000000 119.000000 
0.000000 4.000000 120.000000 
0.000000 4.000000 121.000000 
0.000000 4.000000 122.000000 
0.000000 4.000000 123.000000 
0.000000 4.000000 124.000000 
0.000000 4.000000 125.000000 
0.000000 4.000000 126.000000 
0.000000 4.000000 127.000000 
0.000000 4.000000 128.000000 
0.000000 4.000000 129.000000 
0.000000 4.000000 130.000000 
0.000000 4.000000 131.000000 
0.000000 4.000000 132.000000 
0.000000 4.000000 133.000000 
0.000000 4.000000 134.000000 
0.000000 4.000000 135.000000 
0.000000 4.000000 136.000000 
0.000000 4.000000 137.000000 
0.000000 4.000000 138.000000 
0.000000 4.000000 139.000000 
0.000000 4.000000 140.000000 
0.000000 4.000000 141.000000 
0.000000 4.000000 142.000000 
0.000000 4.000000 143.000000 
0.000000 4.000000 144.000000 
0.000000 4.000000 145.000000 
0.000000 4.000000 146.000000 
0.000000 4.000000 147.000000 
0.000000 4.000000 148.000000 
0.000000 4.000000 149.000000 
0.000000 4.000000 150.000000 
0.000000 4.000000 151.000000 
0.000000 4.000000 152.000000 
0.000000 4.000000 153.000000 
0.000000 4.000000 154.000000 
0.000000 4.000000 155.000000 
0.000000 4.000000 156.000000 
0.000000 4.000000 157.000000 
0.000000 4.000000 158.000000 
0.000000 4.000000 159.000000 
0.000000 4.000000 160.000000 
0.000000 4.000000 161.000000 
0.000000 4.000000 162.000000 
0.000000 4.000000 163.000000 
0.000000 4.000000 164.000000 
0.000000 4.000000 165.000000 
0.000000 4.000000 166.000000 
0.000000 4.000000 167.000000 
0.000000 4.000000 168.000000 
0.000000 4.000000 169.000000 
0.000000 4.000000 170.000000 
0.000000 4.000000 171.000000 
0.000000 4.000000 172.000000 
0.000000 4.000000 173.000000 
0.000000 4.000000 174.000000 
0.000000 4.000000 175.000000 
0.000000 4.000000 176.000000 
0.000000 4.000000 177.000000 
0.000000 4.000000 178.000000 
0.000000 4.000000 179.000000 
0.000000 4.000000 180.000000 
0.000000 4.000000 181.000000 
0.000000 4.000000 182.000000 
0.000000 4.000000 183.000000 
0.000000 4.000000 184.000000 
0.000000 4.000000 185.000000 
0.000000 4.000000 186.000000 
0.000000 4.000000 187.000000 
0.000000 4.000000 188.000000 
0.000000 4.000000 189.000000 
0.000000 4.000000 190.000000 
0.000000 4.000000 191.000000 
0.000000 4.000000 192.000000 
0.000000 4.000000 193.000000 
0.000000 4.000000 194.000000 
0.000000 4.000000 195.000000 
0.000000 4.000000 196.000000 
0.000000 4.000000 197.000000 
0.000000 4.000000 198.000000 
0.000000 4.000000 199.000000 
0.000000 4.000000 200.000000 
0.000000 5.000000 0.000000 
0.000000 5.000000 1.000000 
0.000000 5.000000 2.000000 
0.000000 5.000000 3.000000 
0.000000 5.000000 4.000000 
0.000000 5.000000 5.000000 
0.000000 5.000000 6.000000 
0.000000 5.000000 7.000000 
0.000000 5.000000 8.000000 
0.000000 5.000000 9.000000 
0.000000 5.000000 10.000000 
0.000000 5.000000 11.000000 
0.000000 5.000000 12.000000 
0.000000 5.000000 13.000000 
0.000000 5.000000 14.000000 
0.000000 5.000000 15.000000 
0.000000 5.000000 16.000000 
0.000000 5.000000 17.000000 
0.000000 5.000000 18.000000 
0.000000 5.000000 19.000000 
0.000000 5.000000 20.000000 
0.000000 5.000000 21.000000 
0.000000 5.000000 22.000000 
0.000000 5.000000 23.000000 
0.000000 5.000000 24.000000 
0.000000 5.000000 25.000000 
0.000000 5.000000 26.000000 
0.000000 5.000000 27.000000 
0.000000 5.000000 28.000000 
0.000000 5.000000 29.000000 
0.000000 5.000000 30.000000 
0.000000 5.000000 31.000000 
0.000000 5.000000 32.000000 
0.000000 5.000000 33.000000 
0.000000 5.000000 34.000000 
0.000000 5.000000 35.000000 
0.000000 5.000000 36.000000 
0.000000 5.000000 37.000000 
0.000000 5.000000 38.000000 
0.000000 5.000000 39.000000 
0.000000 5.000000 40.000000 
0.000000 5.000000 41.000000 
0.000000 5.000000 42.000000 
0.000000 5.000000 43.000000 
0.000000 5.000000 44.000000 
0.000000 5.000000 45.000000 
0.000000 5.000000 46.000000 
0.000000 5.000000 47.000000 
0.000000 5.000000 48.000000 
0.000000 5.000000 49.000000 
0.000000 5.000000 50.000000 
0.000000 5.000000 51.000000 
0.000000 5.000000 52.000000 
0.000000 5.000000 53.000000 
0.000000 5.000000 54.000000 
0.000000 5.000000 55.000000 
0.000000 5.000000 56.000000 
0.000000 5.000000 57.000000 
0.000000 5.000000 58.000000 
0.000000 5.000000 59.000000 
0.000000 5.000000 60.000000 
0.000000 5.000000 61.000000 
0.000000 5.000000 62.000000 
0.000000 5.000000 63.000000 
0.000000 5.000000 64.000000 
0.000000 5.000000 65.000000 
0.000000 5.000000 66.000000 
0.000000 5.000000 67.000000 
0.000000 5.000000 68.000000 
0.000000 5.000000 69.000000 
0.000000 5.000000 70.000000 
0.000000 5.000000 71.000000 
0.000000 5.000000 72.000000 
0.000000 5.000000 73.000000 
0.000000 5.000000 74.000000 
0.000000 5.000000 75.000000 
0.000000 5.000000 76.000000 
0.000000 5.000000 77.000000 
0.000000 5.000000 78.000000 
0.000000 5.000000 79.000000 
0.000000 5.000000 80.000000 
0.000000 5.000000 81.000000 
0.000000 5.000000 82.000000 
0.000000 5.000000 83.000000 
0.000000 5.000000 84.000000 
0.000000 5.000000 85.000000 
0.000000 5.000000 86.000000 
0.000000 5.000000 87.000000 
0.000000 5.000000 88.000000 
0.000000 5.000000 89.000000 
0.000000 5.000000 90.000000 
0.000000 5.000000 91.000000 
0.000000 5.000000 92.000000 
0.000000 5.000000 93.000000 
0.000000 5.000000 94.000000 
0.000000 5.000000 95.000000 
0.000000 5.000000 96.000000 
0.000000 5.000000 97.000000 
0.000000 5.000000 98.000000 
0.000000 5.000000 99.000000 
0.000000 5.000000 100.000000 
0.000000 5.000000 101.000000 
0.000000 5.000000 102.000000 
0.000000 5.000000 103.000000 
0.000000 5.000000 104.000000 
0.000000 5.000000 105.000000 
0.000000 5.000000 106.000000 
0.000000 5.000000 107.000000 
0.000000 5.000000 108.000000 
0.000000 5.000000 109.000000 
0.000000 5.000000 110.000000 
0.000000 5.000000 111.000000 
0.000000 5.000000 112.000000 
0.000000 5.000000 113.000000 
0.000000 5.000000 114.000000 
0.000000 5.000000 115.000000 
0.000000 5.000000 116.000000 
0.000000 5.000000 117.000000 
0.000000 5.000000 118.000000 
0.000000 5.000000 119.000000 
0.000000 5.000000 120.000000 
0.000000 5.000000 121.000000 
0.000000 5.000000 122.000000 
0.000000 5.000000 123.000000 
0.000000 5.000000 124.000000 
0.000000 5.000000 125.000000 
0.000000 5.000000 126.000000 
0.000000 5.000000 127.000000 
0.000000 5.000000 128.000000 
0.000000 5.000000 129.000000 
0.000000 5.000000 130.000000 
0.000000 5.000000 131.000000 
0.000000 5.000000 132.000000 
0.000000 5.000000 133.000000 
0.000000 5.000000 134.000000 
0.000000 5.000000 135.000000 
0.000000 5.000000 136.000000 
0.000000 5.000000 137.000000 
0.000000 5.000000 138.000000 
0.000000 5.000000 139.000000 
0.000000 5.000000 140.000000 
0.000000 5.000000 141.000000 
0.000000 5.000000 142.000000 
0.000000 5.000000 143.000000 
0.000000 5.000000 144.000000 
0.000000 5.000000 145.000000 
0.000000 5.000000 146.000000 
0.000000 5.000000 147.000000 
0.000000 5.000000 148.000000 
0.000000 5.000000 149.000000 
0.000000 5.000000 150.000000 
0.000000 5.000000 151.000000 
0.000000 5.000000 152.000000 
0.000000 5.000000 153.000000 
0.000000 5.000000 154.000000 
0.000000 5.000000 155.000000 
0.000000 5.000000 156.000000 
0.000000 5.000000 157.000000 
0.000000 5.000000 158.000000 
0.000000 5.000000 159.000000 
0.000000 5.000000 160.000000 
0.000000 5.000000 161.000000 
0.000000 5.000000 162.000000 
0.000000 5.000000 163.000000 
0.000000 5.000000 164.000000 
0.000000 5.000000 165.000000 
0.000000 5.000000 166.000000 
0.000000 5.000000 167.000000 
0.000000 5.000000 168.000000 
0.000000 5.000000 169.000000 
0.000000 5.000000 170.000000 
0.000000 5.000000 171.000000 
0.000000 5.000000 172.000000 
0.000000 5.000000 173.000000 
0.000000 5.000000 174.000000 
0.000000 5.000000 175.000000 
0.000000 5.000000 176.000000 
0.000000 5.000000 177.000000 
0.000000 5.000000 178.000000 
0.000000 5.000000 179.000000 
0.000000 5.000000 180.000000 
0.000000 5.000000 181.000000 
0.000000 5.000000 182.000000 
0.000000 5.000000 183.000000 
0.000000 5.000000 184.000000 
0.000000 5.000000 185.000000 
0.000000 5.000000 186.000000 
0.000000 5.000000 187.000000 
0.000000 5.000000 188.000000 
0.000000 5.000000 189.000000 
0.000000 5.000000 190.000000 
0.000000 5.000000 191.000000 
0.000000 5.000000 192.000000 
0.000000 5.000000 193.000000 
0.000000 5.000000 194.000000 
0.000000 5.000000 195.000000 
0.000000 5.000000 196.000000 
0.000000 5.000000 197.000000 
0.000000 5.000000 198.000000 
0.000000 5.000000 199.000000 
0.000000 5.000000 200.000000 
0.000000 6.000000 0.000000 
0.000000 6.000000 1.000000 
0.000000 6.000000 2.000000 
0.000000 6.000000 3.000000 
0.000000 6.000000 4.000000 
0.000000 6.000000 5.000000 
0.000000 6.000000 6.000000 
0.000000 6.000000 7.000000 
0.000000 6.000000 8.000000 
0.000000 6.000000 9.000000 
0.000000 6.000000 10.000000 
0.000000 6.000000 11.000000 
0.000000 6.000000 12.000000 
0.000000 6.000000 13.000000 
0.000000 6.000000 14.000000 
0.000000 6.000000 15.000000 
0.000000 6.000000 16.000000 
0.000000 6.000000 17.000000 
0.000000 6.000000 18.000000 
0.000000 6.000000 19.000000 
0.000000 6.000000 20.000000 
0.000000 6.000000 21.000000 
0.000000 6.000000 22.000000 
0.000000 6.000000 23.000000 
0.000000 6.000000 24.000000 
0.000000 6.000000 25.000000 
0.000000 6.000000 26.000000 
0.000000 6.000000 27.000000 
0.000000 6.000000 28.000000 
0.000000 6.000000 29.000000 
0.000000 6.000000 30.000000 
0.000000 6.000000 31.000000 
0.000000 6.000000 32.000000 
0.000000 6.000000 33.000000 
0.000000 6.000000 34.000000 
0.000000 6.000000 35.000000 
0.000000 6.000000 36.000000 
0.000000 6.000000 37.000000 
0.000000 6.000000 38.000000 
0.000000 6.000000 39.000000 
0.000000 6.000000 40.000000 
0.000000 6.000000 41.000000 
0.000000 6.000000 42.000000 
0.000000 6.000000 43.000000 
0.000000 6.000000 44.000000 
0.000000 6.000000 45.000000 
0.000000 6.000000 46.000000 
0.000000 6.000000 47.000000 
0.000000 6.000000 48.000000 
0.000000 6.000000 49.000000 
0.000000 6.000000 50.000000 
0.000000 6.000000 51.000000 
0.000000 6.000000 52.000000 
0.000000 6.000000 53.000000 
0.000000 6.000000 54.000000 
0.000000 6.000000 55.000000 
0.000000 6.000000 56.000000 
0.000000 6.000000 57.000000 
0.000000 6.000000 58.000000 
0.000000 6.000000 59.000000 
0.000000 6.000000 60.000000 
0.000000 6.000000 61.000000 
0.000000 6.000000 62.000000 
0.000000 6.000000 63.000000 
0.000000 6.000000 64.000000 
0.000000 6.000000 65.000000 
0.000000 6.000000 66.000000 
0.000000 6.000000 67.000000 
0.000000 6.000000 68.000000 
0.000000 6.000000 69.000000 
0.000000 6.000000 70.000000 
0.000000 6.000000 71.000000 
0.000000 6.000000 72.000000 
0.000000 6.000000 73.000000 
0.000000 6.000000 74.000000 
0.000000 6.000000 75.000000 
0.000000 6.000000 76.000000 
0.000000 6.000000 77.000000 
0.000000 6.000000 78.000000 
0.000000 6.000000 79.000000 
0.000000 6.000000 80.000000 
0.000000 6.000000 81.000000 
0.000000 6.000000 82.000000 
0.000000 6.000000 83.000000 
0.000000 6.000000 84.000000 
0.000000 6.000000 85.000000 
0.000000 6.000000 86.000000 
0.000000 6.000000 87.000000 
0.000000 6.000000 88.000000 
0.000000 6.000000 89.000000 
0.000000 6.000000 90.000000 
0.000000 6.000000 91.000000 
0.000000 6.000000 92.000000 
0.000000 6.000000 93.000000 
0.000000 6.000000 94.000000 
0.000000 6.000000 95.000000 
0.000000 6.000000 96.000000 
0.000000 6.000000 97.000000 
0.000000 6.000000 98.000000 
0.000000 6.000000 99.000000 
0.000000 6.000000 100.000000 
0.000000 6.000000 101.000000 
0.000000 6.000000 102.000000 
0.000000 6.000000 103.000000 
0.000000 6.000000 104.000000 
0.000000 6.000000 105.000000 
0.000000 6.000000 106.000000 
0.000000 6.000000 107.000000 
0.000000 6.000000 108.000000 
0.000000 6.000000 109.000000 
0.000000 6.000000 110.000000 
0.000000 6.000000 111.000000 
0.000000 6.000000 112.000000 
0.000000 6.000000 113.000000 
0.000000 6.000000 114.000000 
0.000000 6.000000 115.000000 
0.000000 6.000000 116.000000 
0.000000 6.000000 117.000000 
0.000000 6.000000 118.000000 
0.000000 6.000000 119.000000 
0.000000 6.000000 120.000000 
0.000000 6.000000 121.000000 
0.000000 6.000000 122.000000 
0.000000 6.000000 123.000000 
0.000000 6.000000 124.000000 
0.000000 6.000000 125.000000 
0.000000 6.000000 126.000000 
0.000000 6.000000 127.000000 
0.000000 6.000000 128.000000 
0.000000 6.000000 129.000000 
0.000000 6.000000 130.000000 
0.000000 6.000000 131.000000 
0.000000 6.000000 132.000000 
0.000000 6.000000 133.000000 
0.000000 6.000000 134.000000 
0.000000 6.000000 135.000000 
0.000000 6.000000 136.000000 
0.000000 6.000000 137.000000 
0.000000 6.000000 138.000000 
0.000000 6.000000 139.000000 
0.000000 6.000000 140.000000 
0.000000 6.000000 141.000000 
0.000000 6.000000 142.000000 
0.000000 6.000000 143.000000 
0.000000 6.000000 144.000000 
0.000000 6.000000 145.000000 
0.000000 6.000000 146.000000 
0.000000 6.000000 147.000000 
0.000000 6.000000 148.000000 
0.000000 6.000000 149.000000 
0.000000 6.000000 150.000000 
0.000000 6.000000 151.000000 
0.000000 6.000000 152.000000 
0.000000 6.000000 153.000000 
0.000000 6.000000 154.000000 
0.000000 6.000000 155.000000 
0.000000 6.000000 156.000000 
0.000000 6.000000 157.000000 
0.000000 6.000000 158.000000 
0.000000 6.000000 159.000000 
0.000000 6.000000 160.000000 
0.000000 6.000000 161.000000 
0.000000 6.000000 162.000000 
0.000000 6.000000 163.000000 
0.000000 6.000000 164.000000 
0.000000 6.000000 165.000000 
0.000000 6.000000 166.000000 
0.000000 6.000000 167.000000 
0.000000 6.000000 168.000000 
0.000000 6.000000 169.000000 
0.000000 6.000000 170.000000 
0.000000 6.000000 171.000000 
0.000000 6.000000 172.000000 
0.000000 6.000000 173.000000 
0.000000 6.000000 174.000000 
0.000000 6.000000 175.000000 
0.000000 6.000000 176.000000 
0.000000 6.000000 177.000000 
0.000000 6.000000 178.000000 
0.000000 6.000000 179.000000 
0.000000 6.000000 180.000000 
0.000000 6.000000 181.000000 
0.000000 6.000000 182.000000 
0.000000 6.000000 183.000000 
0.000000 6.000000 184.000000 
0.000000 6.000000 185.000000 
0.000000 6.000000 186.000000 
0.000000 6.000000 187.000000 
0.000000 6.000000 188.000000 
0.000000 6.000000 189.000000 
0.000000 6.000000 190.000000 
0.000000 6.000000 191.000000 
0.000000 6.000000 192.000000 
0.000000 6.000000 193.000000 
0.000000 6.000000 194.000000 
0.000000 6.000000 195.000000 
0.000000 6.000000 196.000000 
0.000000 6.000000 197.000000 
0.000000 6.000000 198.000000 
0.000000 6.000000 199.000000 
0.000000 6.000000 200.000000 
0.000000 7.000000 0.000000 
0.000000 7.000000 1.000000 
0.000000 7.000000 2.000000 
0.000000 7.000000 3.000000 
0.000000 7.000000 4.000000 
0.000000 7.000000 5.000000 
0.000000 7.000000 6.000000 
0.000000 7.000000 7.000000 
0.000000 7.000000 8.000000 
0.000000 7.000000 9.000000 
0.000000 7.000000 10.000000 
0.000000 7.000000 11.000000 
0.000000 7.000000 12.000000 
0.000000 7.000000 13.000000 
0.000000 7.000000 14.000000 
0.000000 7.000000 15.000000 
0.000000 7.000000 16.000000 
0.000000 7.000000 17.000000 
0.000000 7.000000 18.000000 
0.000000 7.000000 19.000000 
0.000000 7.000000 20.000000 
0.000000 7.000000 21.000000 
0.000000 7.000000 22.000000 
0.000000 7.000000 23.000000 
0.000000 7.000000 24.000000 
0.000000 7.000000 25.000000 
0.000000 7.000000 26.000000 
0.000000 7.000000 27.000000 
0.000000 7.000000 28.000000 
0.000000 7.000000 29.000000 
0.000000 7.000000 30.000000 
0.000000 7.000000 31.000000 
0.000000 7.000000 32.000000 
0.000000 7.000000 33.000000 
0.000000 7.000000 34.000000 
0.000000 7.000000 35.000000 
0.000000 7.000000 36.000000 
0.000000 7.000000 37.000000 
0.000000 7.000000 38.000000 
0.000000 7.000000 39.000000 
0.000000 7.000000 40.000000 
0.000000 7.000000 41.000000 
0.000000 7.000000 42.000000 
0.000000 7.000000 43.000000 
0.000000 7.000000 44.000000 
0.000000 7.000000 45.000000 
0.000000 7.000000 46.000000 
0.000000 7.000000 47.000000 
0.000000 7.000000 48.000000 
0.000000 7.000000 49.000000 
0.000000 7.000000 50.000000 
0.000000 7.000000 51.000000 
0.000000 7.000000 52.000000 
0.000000 7.000000 53.000000 
0.000000 7.000000 54.000000 
0.000000 7.000000 55.000000 
0.000000 7.000000 56.000000 
0.000000 7.000000 57.000000 
0.000000 7.000000 58.000000 
0.000000 7.000000 59.000000 
0.000000 7.000000 60.000000 
0.000000 7.000000 61.000000 
0.000000 7.000000 62.000000 
0.000000 7.000000 63.000000 
0.000000 7.000000 64.000000 
0.000000 7.000000 65.000000 
0.000000 7.000000 66.000000 
0.000000 7.000000 67.000000 
0.000000 7.000000 68.000000 
0.000000 7.000000 69.000000 
0.000000 7.000000 70.000000 
0.000000 7.000000 71.000000 
0.000000 7.000000 72.000000 
0.000000 7.000000 73.000000 
0.000000 7.000000 74.000000 
0.000000 7.000000 75.000000 
0.000000 7.000000 76.000000 
0.000000 7.000000 77.000000 
0.000000 7.000000 78.000000 
0.000000 7.000000 79.000000 
0.000000 7.000000 80.000000 
0.000000 7.000000 81.000000 
0.000000 7.000000 82.000000 
0.000000 7.000000 83.000000 
0.000000 7.000000 84.000000 
0.000000 7.000000 85.000000 
0.000000 7.000000 86.000000 
0.000000 7.000000 87.000000 
0.000000 7.000000 88.000000 
0.000000 7.000000 89.000000 
0.000000 7.000000 90.000000 
0.000000 7.000000 91.000000 
0.000000 7.000000 92.000000 
0.000000 7.000000 93.000000 
0.000000 7.000000 94.000000 
0.000000 7.000000 95.000000 
0.000000 7.000000 96.000000 
0.000000 7.000000 97.000000 
0.000000 7.000000 98.000000 
0.000000 7.000000 99.000000 
0.000000 7.000000 100.000000 
0.000000 7.000000 101.000000 
0.000000 7.000000 102.000000 
0.000000 7.000000 103.000000 
0.000000 7.000000 104.000000 
0.000000 7.000000 105.000000 
0.000000 7.000000 106.000000 
0.000000 7.000000 107.000000 
0.000000 7.000000 108.000000 
0.000000 7.000000 109.000000 
0.000000 7.000000 110.000000 
0.000000 7.000000 111.000000 
0.000000 7.000000 112.000000 
0.000000 7.000000 113.000000 
0.000000 7.000000 114.000000 
0.000000 7.000000 115.000000 
0.000000 7.000000 116.000000 
0.000000 7.000000 117.000000 
0.000000 7.000000 118.000000 
0.000000 7.000000 119.000000 
0.000000 7.000000 120.000000 
0.000000 7.000000 121.000000 
0.000000 7.000000 122.000000 
0.000000 7.000000 123.000000 
0.000000 7.000000 124.000000 
0.000000 7.000000 125.000000 
0.000000 7.000000 126.000000 
0.000000 7.000000 127.000000 
0.000000 7.000000 128.000000 
0.000000 7.000000 129.000000 
0.000000 7.000000 130.000000 
0.000000 7.000000 131.000000 
0.000000 7.000000 132.000000 
0.000000 7.000000 133.000000 
0.000000 7.000000 134.000000 
0.000000 7.000000 135.000000 
0.000000 7.000000 136.000000 
0.000000 7.000000 137.000000 
0.000000 7.000000 138.000000 
0.000000 7.000000 139.000000 
0.000000 7.000000 140.000000 
0.000000 7.000000 141.000000 
0.000000 7.000000 142.000000 
0.000000 7.000000 143.000000 
0.000000 7.000000 144.000000 
0.000000 7.000000 145.000000 
0.000000 7.000000 146.000000 
0.000000 7.000000 147.000000 
0.000000 7.000000 148.000000 
0.000000 7.000000 149.000000 
0.000000 7.000000 150.000000 
0.000000 7.000000 151.000000 
0.000000 7.000000 152.000000 
0.000000 7.000000 153.000000 
0.000000 7.000000 154.000000 
0.000000 7.000000 155.000000 
0.000000 7.000000 156.000000 
0.000000 7.000000 157.000000 
0.000000 7.000000 158.000000 
0.000000 7.000000 159.000000 
0.000000 7.000000 160.000000 
0.000000 7.000000 161.000000 
0.000000 7.000000 162.000000 
0.000000 7.000000 163.000000 
0.000000 7.000000 164.000000 
0.000000 7.000000 165.000000 
0.000000 7.000000 166.000000 
0.000000 7.000000 167.000000 
0.000000 7.000000 168.000000 
0.000000 7.000000 169.000000 
0.000000 7.000000 170.000000 
0.000000 7.000000 171.000000 
0.000000 7.000000 172.000000 
0.000000 7.000000 173.000000 
0.000000 7.000000 174.000000 
0.000000 7.000000 175.000000 
0.000000 7.000000 176.000000 
0.000000 7.000000 177.000000 
0.000000 7.000000 178.000000 
0.000000 7.000000 179.000000 
0.000000 7.000000 180.000000 
0.000000 7.000000 181.000000 
0.000000 7.000000 182.000000 
0.000000 7.000000 183.000000 
0.000000 7.000000 184.000000 
0.000000 7.000000 185.000000 
0.000000 7.000000 186.000000 
0.000000 7.000000 187.000000 
0.000000 7.000000 188.000000 
0.000000 7.000000 189.000000 
0.000000 7.000000 190.000000 
0.000000 7.000000 191.000000 
0.000000 7.000000 192.000000 
0.000000 7.000000 193.000000 
0.000000 7.000000 194.000000 
0.000000 7.000000 195.000000 
0.000000 7.000000 196.000000 
0.000000 7.000000 197.000000 
0.000000 7.000000 198.000000 
0.000000 7.000000 199.000000 
0.000000 7.000000 200.000000 
0.000000 8.000000 0.000000 
0.000000 8.000000 1.000000 
0.000000 8.000000 2.000000 
0.000000 8.000000 3.000000 
0.000000 8.000000 4.000000 
0.000000 8.000000 5.000000 
0.000000 8.000000 6.000000 
0.000000 8.000000 7.000000 
0.000000 8.000000 8.000000 
0.000000 8.000000 9.000000 
0.000000 8.000000 10.000000 
0.000000 8.000000 11.000000 
0.000000 8.000000 12.000000 
0.000000 8.000000 13.000000 
0.000000 8.000000 14.000000 
0.000000 8.000000 15.000000 
0.000000 8.000000 16.000000 
0.000000 8.000000 17.000000 
0.000000 8.000000 18.000000 
0.000000 8.000000 19.000000 
0.000000 8.000000 20.000000 
0.000000 8.000000 21.000000 
0.000000 8.000000 22.000000 
0.000000 8.000000 23.000000 
0.000000 8.000000 24.000000 
0.000000 8.000000 25.000000 
0.000000 8.000000 26.000000 
0.000000 8.000000 27.000000 
0.000000 8.000000 28.000000 
0.000000 8.000000 29.000000 
0.000000 8.000000 30.000000 
0.000000 8.000000 31.000000 
0.000000 8.000000 32.000000 
0.000000 8.000000 33.000000 
0.000000 8.000000 34.000000 
0.000000 8.000000 35.000000 
0.000000 8.000000 36.000000 
0.000000 8.000000 37.000000 
0.000000 8.000000 38.000000 
0.000000 8.000000 39.000000 
0.000000 8.000000 40.000000 
0.000000 8.000000 41.000000 
0.000000 8.000000 42.000000 
0.000000 8.000000 43.000000 
0.000000 8.000000 44.000000 
0.000000 8.000000 45.000000 
0.000000 8.000000 46.000000 
0.000000 8.000000 47.000000 
0.000000 8.000000 48.000000 
0.000000 8.000000 49.000000 
0.000000 8.000000 50.000000 
0.000000 8.000000 51.000000 
0.000000 8.000000 52.000000 
0.000000 8.000000 53.000000 
0.000000 8.000000 54.000000 
0.000000 8.000000 55.000000 
0.000000 8.000000 56.000000 
0.000000 8.000000 57.000000 
0.000000 8.000000 58.000000 
0.000000 8.000000 59.000000 
0.000000 8.000000 60.000000 
0.000000 8.000000 61.000000 
0.000000 8.000000 62.000000 
0.000000 8.000000 63.000000 
0.000000 8.000000 64.000000 
0.000000 8.000000 65.000000 
0.000000 8.000000 66.000000 
0.000000 8.000000 67.000000 
0.000000 8.000000 68.000000 
0.000000 8.000000 69.000000 
0.000000 8.000000 70.000000 
0.000000 8.000000 71.000000 
0.000000 8.000000 72.000000 
0.000000 8.000000 73.000000 
0.000000 8.000000 74.000000 
0.000000 8.000000 75.000000 
0.000000 8.000000 76.000000 
0.000000 8.000000 77.000000 
0.000000 8.000000 78.000000 
0.000000 8.000000 79.000000 
0.000000 8.000000 80.000000 
0.000000 8.000000 81.000000 
0.000000 8.000000 82.000000 
0.000000 8.000000 83.000000 
0.000000 8.000000 84.000000 
0.000000 8.000000 85.000000 
0.000000 8.000000 86.000000 
0.000000 8.000000 87.000000 
0.000000 8.000000 88.000000 
0.000000 8.000000 89.000000 
0.000000 8.000000 90.000000 
0.000000 8.000000 91.000000 
0.000000 8.000000 92.000000 
0.000000 8.000000 93.000000 
0.000000 8.000000 94.000000 
0.000000 8.000000 95.000000 
0.000000 8.000000 96.000000 
0.000000 8.000000 97.000000 
0.000000 8.000000 98.000000 
0.000000 8.000000 99.000000 
0.000000 8.000000 100.000000 
0.000000 8.000000 101.000000 
0.000000 8.000000 102.000000 
0.000000 8.000000 103.000000 
0.000000 8.000000 104.000000 
0.000000 8.000000 105.000000 
0.000000 8.000000 106.000000 
0.000000 8.000000 107.000000 
0.000000 8.000000 108.000000 
0.000000 8.000000 109.000000 
0.000000 8.000000 110.000000 
0.000000 8.000000 111.000000 
0.000000 8.000000 112.000000 
0.000000 8.000000 113.000000 
0.000000 8.000000 114.000000 
0.000000 8.000000 115.000000 
0.000000 8.000000 116.000000 
0.000000 8.000000 117.000000 
0.000000 8.000000 118.000000 
0.000000 8.000000 119.000000 
0.000000 8.000000 120.000000 
0.000000 8.000000 121.000000 
0.000000 8.000000 122.000000 
0.000000 8.000000 123.000000 
0.000000 8.000000 124.000000 
0.000000 8.000000 125.000000 
0.000000 8.000000 126.000000 
0.000000 8.000000 127.000000 
0.000000 8.000000 128.000000 
0.000000 8.000000 129.000000 
0.000000 8.000000 130.000000 
0.000000 8.000000 131.000000 
0.000000 8.000000 132.000000 
0.000000 8.000000 133.000000 
0.000000 8.000000 134.000000 
0.000000 8.000000 135.000000 
0.000000 8.000000 136.000000 
0.000000 8.000000 137.000000 
0.000000 8.000000 138.000000 
0.000000 8.000000 139.000000 
0.000000 8.000000 140.000000 
0.000000 8.000000 141.000000 
0.000000 8.000000 142.000000 
0.000000 8.000000 143.000000 
0.000000 8.000000 144.000000 
0.000000 8.000000 145.000000 
0.000000 8.000000 146.000000 
0.000000 8.000000 147.000000 
0.000000 8.000000 148.000000 
0.000000 8.000000 149.000000 
0.000000 8.000000 150.000000 
0.000000 8.000000 151.000000 
0.000000 8.000000 152.000000 
0.000000 8.000000 153.000000 
0.000000 8.000000 154.000000 
0.000000 8.000000 155.000000 
0.000000 8.000000 156.000000 
0.000000 8.000000 157.000000 
0.000000 8.000000 158.000000 
0.000000 8.000000 159.000000 
0.000000 8.000000 160.000000 
0.000000 8.000000 161.000000 
0.000000 8.000000 162.000000 
0.000000 8.000000 163.000000 
0.000000 8.000000 164.000000 
0.000000 8.000000 165.000000 
0.000000 8.000000 166.000000 
0.000000 8.000000 167.000000 
0.000000 8.000000 168.000000 
0.000000 8.000000 169.000000 
0.000000 8.000000 170.000000 
0.000000 8.000000 171.000000 
0.000000 8.000000 172.000000 
0.000000 8.000000 173.000000 
0.000000 8.000000 174.000000 
0.000000 8.000000 175.000000 
0.000000 8.000000 176.000000 
0.000000 8.000000 177.000000 
0.000000 8.000000 178.000000 
0.000000 8.000000 179.000000 
0.000000 8.000000 180.000000 
0.000000 8.000000 181.000000 
0.000000 8.000000 182.000000 
0.000000 8.000000 183.000000 
0.000000 8.000000 184.000000 
0.000000 8.000000 185.000000 
0.000000 8.000000 186.000000 
0.000000 8.000000 187.000000 
0.000000 8.000000 188.000000 
0.000000 8.000000 189.000000 
0.000000 8.000000 190.000000 
0.000000 8.000000 191.000000 
0.000000 8.000000 192.000000 
0.000000 8.000000 193.000000 
0.000000 8.000000 194.000000 
0.000000 8.000000 195.000000 
0.000000 8.000000 196.000000 
0.000000 8.000000 197.000000 
0.000000 8.000000 198.000000 
0.000000 8.000000 199.000000 
0.000000 8.000000 200.000000 
0.000000 9.000000 0.000000 
0.000000 9.000000 1.000000 
0.000000 9.000000 2.000000 
0.000000 9.000000 3.000000 
0.000000 9.000000 4.000000 
0.000000 9.000000 5.000000 
0.000000 9.000000 6.000000 
0.000000 9.000000 7.000000 
0.000000 9.000000 8.000000 
0.000000 9.000000 9.000000 
0.000000 9.000000 10.000000 
0.000000 9.000000 11.000000 
0.000000 9.000000 12.000000 
0.000000 9.000000 13.000000 
0.000000 9.000000 14.000000 
0.000000 9.000000 15.000000 
0.000000 9.000000 16.000000 
0.000000 9.000000 17.000000 
0.000000 9.000000 18.000000 
0.000000 9.000000 19.000000 
0.000000 9.000000 20.000000 
0.000000 9.000000 21.000000 
0.000000 9.000000 22.000000 
0.000000 9.000000 23.000000 
0.000000 9.000000 24.000000 
0.000000 9.000000 25.000000 
0.000000 9.000000 26.000000 
0.000000 9.000000 27.000000 
0.000000 9.000000 28.000000 
0.000000 9.000000 29.000000 
0.000000 9.000000 30.000000 
0.000000 9.000000 31.000000 
0.000000 9.000000 32.000000 
0.000000 9.000000 33.000000 
0.000000 9.000000 34.000000 
0.000000 9.000000 35.000000 
0.000000 9.000000 36.000000 
0.000000 9.000000 37.000000 
0.000000 9.000000 38.000000 
0.000000 9.000000 39.000000 
0.000000 9.000000 40.000000 
0.000000 9.000000 41.000000 
0.000000 9.000000 42.000000 
0.000000 9.000000 43.000000 
0.000000 9.000000 44.000000 
0.000000 9.000000 45.000000 
0.000000 9.000000 46.000000 
0.000000 9.000000 47.000000 
0.000000 9.000000 48.000000 
0.000000 9.000000 49.000000 
0.000000 9.000000 50.000000 
0.000000 9.000000 51.000000 
0.000000 9.000000 52.000000 
0.000000 9.000000 53.000000 
0.000000 9.000000 54.000000 
0.000000 9.000000 55.000000 
0.000000 9.000000 56.000000 
0.000000 9.000000 57.000000 
0.000000 9.000000 58.000000 
0.000000 9.000000 59.000000 
0.000000 9.000000 60.000000 
0.000000 9.000000 61.000000 
0.000000 9.000000 62.000000 
0.000000 9.000000 63.000000 
0.000000 9.000000 64.000000 
0.000000 9.000000 65.000000 
0.000000 9.000000 66.000000 
0.000000 9.000000 67.000000 
0.000000 9.000000 68.000000 
0.000000 9.000000 69.000000 
0.000000 9.000000 70.000000 
0.000000 9.000000 71.000000 
0.000000 9.000000 72.000000 
0.000000 9.000000 73.000000 
0.000000 9.000000 74.000000 
0.000000 9.000000 75.000000 
0.000000 9.000000 76.000000 
0.000000 9.000000 77.000000 
0.000000 9.000000 78.000000 
0.000000 9.000000 79.000000 
0.000000 9.000000 80.000000 
0.000000 9.000000 81.000000 
0.000000 9.000000 82.000000 
0.000000 9.000000 83.000000 
0.000000 9.000000 84.000000 
0.000000 9.000000 85.000000 
0.000000 9.000000 86.000000 
0.000000 9.000000 87.000000 
0.000000 9.000000 88.000000 
0.000000 9.000000 89.000000 
0.000000 9.000000 90.000000 
0.000000 9.000000 91.000000 
0.000000 9.000000 92.000000 
0.000000 9.000000 93.000000 
0.000000 9.000000 94.000000 
0.000000 9.000000 95.000000 
0.000000 9.000000 96.000000 
0.000000 9.000000 97.000000 
0.000000 9.000000 98.000000 
0.000000 9.000000 99.000000 
0.000000 9.000000 100.000000 
0.000000 9.000000 101.000000 
0.000000 9.000000 102.000000 
0.000000 9.000000 103.000000 
0.000000 9.000000 104.000000 
0.000000 9.000000 105.000000 
0.000000 9.000000 106.000000 
0.000000 9.000000 107.000000 
0.000000 9.000000 108.000000 
0.000000 9.000000 109.000000 
0.000000 9.000000 110.000000 
0.000000 9.000000 111.000000 
0.000000 9.000000 112.000000 
0.000000 9.000000 113.000000 
0.000000 9.000000 114.000000 
0.000000 9.000000 115.000000 
0.000000 9.000000 116.000000 
0.000000 9.000000 117.000000 
0.000000 9.000000 118.000000 
0.000000 9.000000 119.000000 
0.000000 9.000000 120.000000 
0.000000 9.000000 121.000000 
0.000000 9.000000 122.000000 
0.000000 9.000000 123.000000 
0.000000 9.000000 124.000000 
0.000000 9.000000 125.000000 
0.000000 9.000000 126.000000 
0.000000 9.000000 127.000000 
0.000000 9.000000 128.000000 
0.000000 9.000000 129.000000 
0.000000 9.000000 130.000000 
0.000000 9.000000 131.000000 
0.000000 9.000000 132.000000 
0.000000 9.000000 133.000000 
0.000000 9.000000 134.000000 
0.000000 9.000000 135.000000 
0.000000 9.000000 136.000000 
0.000000 9.000000 137.000000 
0.000000 9.000000 138.000000 
0.000000 9.000000 139.000000 
0.000000 9.000000 140.000000 
0.000000 9.000000 141.000000 
0.000000 9.000000 142.000000 
0.000000 9.000000 143.000000 
0.000000 9.000000 144.000000 
0.000000 9.000000 145.000000 
0.000000 9.000000 146.000000 
0.000000 9.000000 147.000000 
0.000000 9.000000 148.000000 
0.000000 9.000000 149.000000 
0.000000 9.000000 150.000000 
0.000000 9.000000 151.000000 
0.000000 9.000000 152.000000 
0.000000 9.000000 153.000000 
0.000000 9.000000 154.000000 
0.000000 9.000000 155.000000 
0.000000 9.000000 156.000000 
0.000000 9.000000 157.000000 
0.000000 9.000000 158.000000 
0.000000 9.000000 159.000000 
0.000000 9.000000 160.000000 
0.000000 9.000000 161.000000 
0.000000 9.000000 162.000000 
0.000000 9.000000 163.000000 
0.000000 9.000000 164.000000 
0.000000 9.000000 165.000000 
0.000000 9.000000 166.000000 
0.000000 9.000000 167.000000 
0.000000 9.000000 168.000000 
0.000000 9.000000 169.000000 
0.000000 9.000000 170.000000 
0.000000 9.000000 171.000000 
0.000000 9.000000 172.000000 
0.000000 9.000000 173.000000 
0.000000 9.000000 174.000000 
0.000000 9.000000 175.000000 
0.000000 9.000000 176.000000 
0.000000 9.000000 177.000000 
0.000000 9.000000 178.000000 
0.000000 9.000000 179.000000 
0.000000 9.000000 180.000000 
0.000000 9.000000 181.000000 
0.000000 9.000000 182.000000 
0.000000 9.000000 183.000000 
0.000000 9.000000 184.000000 
0.000000 9.000000 185.000000 
0.000000 9.000000 186.000000 
0.000000 9.000000 187.000000 
0.000000 9.000000 188.000000 
0.000000 9.000000 189.000000 
0.000000 9.000000 190.000000 
0.000000 9.000000 191.000000 
0.000000 9.000000 192.000000 
0.000000 9.000000 193.000000 
0.000000 9.000000 194.000000 
0.000000 9.000000 195.000000 
0.000000 9.000000 196.000000 
0.000000 9.000000 197.000000 
0.000000 9.000000 198.000000 
0.000000 9.000000 199.000000 
0.000000 9.000000 200.000000 
0.000000 10.000000 0.000000 
0.000000 10.000000 1.000000 
0.000000 10.000000 2.000000 
0.000000 10.000000 3.000000 
0.000000 10.000000 4.000000 
0.000000 10.000000 5.000000 
0.000000 10.000000 6.000000 
0.000000 10.000000 7.000000 
0.000000 10.000000 8.000000 
0.000000 10.000000 9.000000 
0.000000 10.000000 10.000000 
0.000000 10.000000 11.000000 
0.000000 10.000000 12.000000 
0.000000 10.000000 13.000000 
0.000000 10.000000 14.000000 
0.000000 10.000000 15.000000 
0.000000 10.000000 16.000000 
0.000000 10.000000 17.000000 
0.000000 10.000000 18.000000 
0.000000 10.000000 19.000000 
0.000000 10.000000 20.000000 
0.000000 10.000000 21.000000 
0.000000 10.000000 22.000000 
0.000000 10.000000 23.000000 
0.000000 10.000000 24.000000 
0.000000 10.000000 25.000000 
0.000000 10.000000 26.000000 
0.000000 10.000000 27.000000 
0.000000 10.000000 28.000000 
0.000000 10.000000 29.000000 
0.000000 10.000000 30.000000 
0.000000 10.000000 31.000000 
0.000000 10.000000 32.000000 
0.000000 10.000000 33.000000 
0.000000 10.000000 34.000000 
0.000000 10.000000 35.000000 
0.000000 10.000000 36.000000 
0.000000 10.000000 37.000000 
0.000000 10.000000 38.000000 
0.000000 10.000000 39.000000 
0.000000 10.000000 40.000000 
0.000000 10.000000 41.000000 
0.000000 10.000000 42.000000 
0.000000 10.000000 43.000000 
0.000000 10.000000 44.000000 
0.000000 10.000000 45.000000 
0.000000 10.000000 46.000000 
0.000000 10.000000 47.000000 
0.000000 10.000000 48.000000 
0.000000 10.000000 49.000000 
0.000000 10.000000 50.000000 
0.000000 10.000000 51.000000 
0.000000 10.000000 52.000000 
0.000000 10.000000 53.000000 
0.000000 10.000000 54.000000 
0.000000 10.000000 55.000000 
0.000000 10.000000 56.000000 
0.000000 10.000000 57.000000 
0.000000 10.000000 58.000000 
0.000000 10.000000 59.000000 
0.000000 10.000000 60.000000 
0.000000 10.000000 61.000000 
0.000000 10.000000 62.000000 
0.000000 10.000000 63.000000 
0.000000 10.000000 64.000000 
0.000000 10.000000 65.000000 
0.000000 10.000000 66.000000 
0.000000 10.000000 67.000000 
0.000000 10.000000 68.000000 
0.000000 10.000000 69.000000 
0.000000 10.000000 70.000000 
0.000000 10.000000 71.000000 
0.000000 10.000000 72.000000 
0.000000 10.000000 73.000000 
0.000000 10.000000 74.000000 
0.000000 10.000000 75.000000 
0.000000 10.000000 76.000000 
0.000000 10.000000 77.000000 
0.000000 10.000000 78.000000 
0.000000 10.000000 79.000000 
0.000000 10.000000 80.000000 
0.000000 10.000000 81.000000 
0.000000 10.000000 82.000000 
0.000000 10.000000 83.000000 
0.000000 10.000000 84.000000 
0.000000 10.000000 85.000000 
0.000000 10.000000 86.000000 
0.000000 10.000000 87.000000 
0.000000 10.000000 88.000000 
0.000000 10.000000 89.000000 
0.000000 10.000000 90.000000 
0.000000 10.000000 91.000000 
0.000000 10.000000 92.000000 
0.000000 10.000000 93.000000 
0.000000 10.000000 94.000000 
0.000000 10.000000 95.000000 
0.000000 10.000000 96.000000 
0.000000 10.000000 97.000000 
0.000000 10.000000 98.000000 
0.000000 10.000000 99.000000 
0.000000 10.000000 100.000000 
0.000000 10.000000 101.000000 
0.000000 10.000000 102.000000 
0.000000 10.000000 103.000000 
0.000000 10.000000 104.000000 
0.000000 10.000000 105.000000 
0.000000 10.000000 106.000000 
0.000000 10.000000 107.000000 
0.000000 10.000000 108.000000 
0.000000 10.000000 109.000000 
0.000000 10.000000 110.000000 
0.000000 10.000000 111.000000 
0.000000 10.000000 112.000000 
0.000000 10.000000 113.000000 
0.000000 10.000000 114.000000 
0.000000 10.000000 115.000000 
0.000000 10.000000 116.000000 
0.000000 10.000000 117.000000 
0.000000 10.000000 118.000000 
0.000000 10.000000 119.000000 
0.000000 10.000000 120.000000 
0.000000 10.000000 121.000000 
0.000000 10.000000 122.000000 
0.000000 10.000000 123.000000 
0.000000 10.000000 124.000000 
0.000000 10.000000 125.000000 
0.000000 10.000000 126.000000 
0.000000 10.000000 127.000000 
0.000000 10.000000 128.000000 
0.000000 10.000000 129.000000 
0.000000 10.000000 130.000000 
0.000000 10.000000 131.000000 
0.000000 10.000000 132.000000 
0.000000 10.000000 133.000000 
0.000000 10.000000 134.000000 
0.000000 10.000000 135.000000 
0.000000 10.000000 136.000000 
0.000000 10.000000 137.000000 
0.000000 10.000000 138.000000 
0.000000 10.000000 139.000000 
0.000000 10.000000 140.000000 
0.000000 10.000000 141.000000 
0.000000 10.000000 142.000000 
0.000000 10.000000 143.000000 
0.000000 10.000000 144.000000 
0.000000 10.000000 145.000000 
0.000000 10.000000 146.000000 
0.000000 10.000000 147.000000 
0.000000 10.000000 148.000000 
0.000000 10.000000 149.000000 
0.000000 10.000000 150.000000 
0.000000 10.000000 151.000000 
0.000000 10.000000 152.000000 
0.000000 10.000000 153.000000 
0.000000 10.000000 154.000000 
0.000000 10.000000 155.000000 
0.000000 10.000000 156.000000 
0.000000 10.000000 157.000000 
0.000000 10.000000 158.000000 
0.000000 10.000000 159.000000 
0.000000 10.000000 160.000000 
0.000000 10.000000 161.000000 
0.000000 10.000000 162.000000 
0.000000 10.000000 163.000000 
0.000000 10.000000 164.000000 
0.000000 10.000000 165.000000 
0.000000 10.000000 166.000000 
0.000000 10.000000 167.000000 
0.000000 10.000000 168.000000 
0.000000 10.000000 169.000000 
0.000000 10.000000 170.000000 
0.000000 10.000000 171.000000 
0.000000 10.000000 172.000000 
0.000000 10.000000 173.000000 
0.000000 10.000000 174.000000 
0.000000 10.000000 175.000000 
0.000000 10.000000 176.000000 
0.000000 10.000000 177.000000 
0.000000 10.000000 178.000000 
0.000000 10.000000 179.000000 
0.000000 10.000000 180.000000 
0.000000 10.000000 181.000000 
0.000000 10.000000 182.000000 
0.000000 10.000000 183.000000 
0.000000 10.000000 184.000000 
0.000000 10.000000 185.000000 
0.000000 10.000000 186.000000 
0.000000 10.000000 187.000000 
0.000000 10.000000 188.000000 
0.000000 10.000000 189.000000 
0.000000 10.000000 190.000000 
0.000000 10.000000 191.000000 
0.000000 10.000000 192.000000 
0.000000 10.000000 193.000000 
0.000000 10.000000 194.000000 
0.000000 10.000000 195.000000 
0.000000 10.000000 196.000000 
0.000000 10.000000 197.000000 
0.000000 10.000000 198.000000 
0.000000 10.000000 199.000000 
0.000000 10.000000 200.000000 
0.000000 11.000000 0.000000 
0.000000 11.000000 1.000000 
0.000000 11.000000 2.000000 
0.000000 11.000000 3.000000 
0.000000 11.000000 4.000000 
0.000000 11.000000 5.000000 
0.000000 11.000000 6.000000 
0.000000 11.000000 7.000000 
0.000000 11.000000 8.000000 
0.000000 11.000000 9.000000 
0.000000 11.000000 10.000000 
0.000000 11.000000 11.000000 
0.000000 11.000000 12.000000 
0.000000 11.000000 13.000000 
0.000000 11.000000 14.000000 
0.000000 11.000000 15.000000 
0.000000 11.000000 16.000000 
0.000000 11.000000 17.000000 
0.000000 11.000000 18.000000 
0.000000 11.000000 19.000000 
0.000000 11.000000 20.000000 
0.000000 11.000000 21.000000 
0.000000 11.000000 22.000000 
0.000000 11.000000 23.000000 
0.000000 11.000000 24.000000 
0.000000 11.000000 25.000000 
0.000000 11.000000 26.000000 
0.000000 11.000000 27.000000 
0.000000 11.000000 28.000000 
0.000000 11.000000 29.000000 
0.000000 11.000000 30.000000 
0.000000 11.000000 31.000000 
0.000000 11.000000 32.000000 
0.000000 11.000000 33.000000 
0.000000 11.000000 34.000000 
0.000000 11.000000 35.000000 
0.000000 11.000000 36.000000 
0.000000 11.000000 37.000000 
0.000000 11.000000 38.000000 
0.000000 11.000000 39.000000 
0.000000 11.000000 40.000000 
0.000000 11.000000 41.000000 
0.000000 11.000000 42.000000 
0.000000 11.000000 43.000000 
0.000000 11.000000 44.000000 
0.000000 11.000000 45.000000 
0.000000 11.000000 46.000000 
0.000000 11.000000 47.000000 
0.000000 11.000000 48.000000 
0.000000 11.000000 49.000000 
0.000000 11.000000 50.000000 
0.000000 11.000000 51.000000 
0.000000 11.000000 52.000000 
0.000000 11.000000 53.000000 
0.000000 11.000000 54.000000 
0.000000 11.000000 55.000000 
0.000000 11.000000 56.000000 
0.000000 11.000000 57.000000 
0.000000 11.000000 58.000000 
0.000000 11.000000 59.000000 
0.000000 11.000000 60.000000 
0.000000 11.000000 61.000000 
0.000000 11.000000 62.000000 
0.000000 11.000000 63.000000 
0.000000 11.000000 64.000000 
0.000000 11.000000 65.000000 
0.000000 11.000000 66.000000 
0.000000 11.000000 67.000000 
0.000000 11.000000 68.000000 
0.000000 11.000000 69.000000 
0.000000 11.000000 70.000000 
0.000000 11.000000 71.000000 
0.000000 11.000000 72.000000 
0.000000 11.000000 73.000000 
0.000000 11.000000 74.000000 
0.000000 11.000000 75.000000 
0.000000 11.000000 76.000000 
0.000000 11.000000 77.000000 
0.000000 11.000000 78.000000 
0.000000 11.000000 79.000000 
0.000000 11.000000 80.000000 
0.000000 11.000000 81.000000 
0.000000 11.000000 82.000000 
0.000000 11.000000 83.000000 
0.000000 11.000000 84.000000 
0.000000 11.000000 85.000000 
0.000000 11.000000 86.000000 
0.000000 11.000000 87.000000 
0.000000 11.000000 88.000000 
0.000000 11.000000 89.000000 
0.000000 11.000000 90.000000 
0.000000 11.000000 91.000000 
0.000000 11.000000 92.000000 
0.000000 11.000000 93.000000 
0.000000 11.000000 94.000000 
0.000000 11.000000 95.000000 
0.000000 11.000000 96.000000 
0.000000 11.000000 97.000000 
0.000000 11.000000 98.000000 
0.000000 11.000000 99.000000 
0.000000 11.000000 100.000000 
0.000000 11.000000 101.000000 
0.000000 11.000000 102.000000 
0.000000 11.000000 103.000000 
0.000000 11.000000 104.000000 
0.000000 11.000000 105.000000 
0.000000 11.000000 106.000000 
0.000000 11.000000 107.000000 
0.000000 11.000000 108.000000 
0.000000 11.000000 109.000000 
0.000000 11.000000 110.000000 
0.000000 11.000000 111.000000 
0.000000 11.000000 112.000000 
0.000000 11.000000 113.000000 
0.000000 11.000000 114.000000 
0.000000 11.000000 115.000000 
0.000000 11.000000 116.000000 
0.000000 11.000000 117.000000 
0.000000 11.000000 118.000000 
0.000000 11.000000 119.000000 
0.000000 11.000000 120.000000 
0.000000 11.000000 121.000000 
0.000000 11.000000 122.000000 
0.000000 11.000000 123.000000 
0.000000 11.000000 124.000000 
0.000000 11.000000 125.000000 
0.000000 11.000000 126.000000 
0.000000 11.000000 127.000000 
0.000000 11.000000 128.000000 
0.000000 11.000000 129.000000 
0.000000 11.000000 130.000000 
0.000000 11.000000 131.000000 
0.000000 11.000000 132.000000 
0.000000 11.000000 133.000000 
0.000000 11.000000 134.000000 
0.000000 11.000000 135.000000 
0.000000 11.000000 136.000000 
0.000000 11.000000 137.000000 
0.000000 11.000000 138.000000 
0.000000 11.000000 139.000000 
0.000000 11.000000 140.000000 
0.000000 11.000000 141.000000 
0.000000 11.000000 142.000000 
0.000000 11.000000 143.000000 
0.000000 11.000000 144.000000 
0.000000 11.000000 145.000000 
0.000000 11.000000 146.000000 
0.000000 11.000000 147.000000 
0.000000 11.000000 148.000000 
0.000000 11.000000 149.000000 
0.000000 11.000000 150.000000 
0.000000 11.000000 151.000000 
0.000000 11.000000 152.000000 
0.000000 11.000000 153.000000 
0.000000 11.000000 154.000000 
0.000000 11.000000 155.000000 
0.000000 11.000000 156.000000 
0.000000 11.000000 157.000000 
0.000000 11.000000 158.000000 
0.000000 11.000000 159.000000 
0.000000 11.000000 160.000000 
0.000000 11.000000 161.000000 
0.000000 11.000000 162.000000 
0.000000 11.000000 163.000000 
0.000000 11.000000 164.000000 
0.000000 11.000000 165.000000 
0.000000 11.000000 166.000000 
0.000000 11.000000 167.000000 
0.000000 11.000000 168.000000 
0.000000 11.000000 169.000000 
0.000000 11.000000 170.000000 
0.000000 11.000000 171.000000 
0.000000 11.000000 172.000000 
0.000000 11.000000 173.000000 
0.000000 11.000000 174.000000 
0.000000 11.000000 175.000000 
0.000000 11.000000 176.000000 
0.000000 11.000000 177.000000 
0.000000 11.000000 178.000000 
0.000000 11.000000 179.000000 
0.000000 11.000000 180.000000 
0.000000 11.000000 181.000000 
0.000000 11.000000 182.000000 
0.000000 11.000000 183.000000 
0.000000 11.000000 184.000000 
0.000000 11.000000 185.000000 
0.000000 11.000000 186.000000 
0.000000 11.000000 187.000000 
0.000000 11.000000 188.000000 
0.000000 11.000000 189.000000 
0.000000 11.000000 190.000000 
0.000000 11.000000 191.000000 
0.000000 11.000000 192.000000 
0.000000 11.000000 193.000000 
0.000000 11.000000 194.000000 
0.000000 11.000000 195.000000 
0.000000 11.000000 196.000000 
0.000000 11.000000 197.000000 
0.000000 11.000000 198.000000 
0.000000 11.000000 199.000000 
0.000000 11.000000 200.000000 
0.000000 12.000000 0.000000 
0.000000 12.000000 1.000000 
0.000000 12.000000 2.000000 
0.000000 12.000000 3.000000 
0.000000 12.000000 4.000000 
0.000000 12.000000 5.000000 
0.000000 12.000000 6.000000 
0.000000 12.000000 7.000000 
0.000000 12.000000 8.000000 
0.000000 12.000000 9.000000 
0.000000 12.000000 10.000000 
0.000000 12.000000 11.000000 
0.000000 12.000000 12.000000 
0.000000 12.000000 13.000000 
0.000000 12.000000 14.000000 
0.000000 12.000000 15.000000 
0.000000 12.000000 16.000000 
0.000000 12.000000 17.000000 
0.000000 12.000000 18.000000 
0.000000 12.000000 19.000000 
0.000000 12.000000 20.000000 
0.000000 12.000000 21.000000 
0.000000 12.000000 22.000000 
0.000000 12.000000 23.000000 
0.000000 12.000000 24.000000 
0.000000 12.000000 25.000000 
0.000000 12.000000 26.000000 
0.000000 12.000000 27.000000 
0.000000 12.000000 28.000000 
0.000000 12.000000 29.000000 
0.000000 12.000000 30.000000 
0.000000 12.000000 31.000000 
0.000000 12.000000 32.000000 
0.000000 12.000000 33.000000 
0.000000 12.000000 34.000000 
0.000000 12.000000 35.000000 
0.000000 12.000000 36.000000 
0.000000 12.000000 37.000000 
0.000000 12.000000 38.000000 
0.000000 12.000000 39.000000 
0.000000 12.000000 40.000000 
0.000000 12.000000 41.000000 
0.000000 12.000000 42.000000 
0.000000 12.000000 43.000000 
0.000000 12.000000 44.000000 
0.000000 12.000000 45.000000 
0.000000 12.000000 46.000000 
0.000000 12.000000 47.000000 
0.000000 12.000000 48.000000 
0.000000 12.000000 49.000000 
0.000000 12.000000 50.000000 
0.000000 12.000000 51.000000 
0.000000 12.000000 52.000000 
0.000000 12.000000 53.000000 
0.000000 12.000000 54.000000 
0.000000 12.000000 55.000000 
0.000000 12.000000 56.000000 
0.000000 12.000000 57.000000 
0.000000 12.000000 58.000000 
0.000000 12.000000 59.000000 
0.000000 12.000000 60.000000 
0.000000 12.000000 61.000000 
0.000000 12.000000 62.000000 
0.000000 12.000000 63.000000 
0.000000 12.000000 64.000000 
0.000000 12.000000 65.000000 
0.000000 12.000000 66.000000 
0.000000 12.000000 67.000000 
0.000000 12.000000 68.000000 
0.000000 12.000000 69.000000 
0.000000 12.000000 70.000000 
0.000000 12.000000 71.000000 
0.000000 12.000000 72.000000 
0.000000 12.000000 73.000000 
0.000000 12.000000 74.000000 
0.000000 12.000000 75.000000 
0.000000 12.000000 76.000000 
0.000000 12.000000 77.000000 
0.000000 12.000000 78.000000 
0.000000 12.000000 79.000000 
0.000000 12.000000 80.000000 
0.000000 12.000000 81.000000 
0.000000 12.000000 82.000000 
0.000000 12.000000 83.000000 
0.000000 12.000000 84.000000 
0.000000 12.000000 85.000000 
0.000000 12.000000 86.000000 
0.000000 12.000000 87.000000 
0.000000 12.000000 88.000000 
0.000000 12.000000 89.000000 
0.000000 12.000000 90.000000 
0.000000 12.000000 91.000000 
0.000000 12.000000 92.000000 
0.000000 12.000000 93.000000 
0.000000 12.000000 94.000000 
0.000000 12.000000 95.000000 
0.000000 12.000000 96.000000 
0.000000 12.000000 97.000000 
0.000000 12.000000 98.000000 
0.000000 12.000000 99.000000 
0.000000 12.000000 100.000000 
0.000000 12.000000 101.000000 
0.000000 12.000000 102.000000 
0.000000 12.000000 103.000000 
0.000000 12.000000 104.000000 
0.000000 12.000000 105.000000 
0.000000 12.000000 106.000000 
0.000000 12.000000 107.000000 
0.000000 12.000000 108.000000 
0.000000 12.000000 109.000000 
0.000000 12.000000 110.000000 
0.000000 12.000000 111.000000 
0.000000 12.000000 112.000000 
0.000000 12.000000 113.000000 
0.000000 12.000000 114.000000 
0.000000 12.000000 115.000000 
0.000000 12.000000 116.000000 
0.000000 12.000000 117.000000 
0.000000 12.000000 118.000000 
0.000000 12.000000 119.000000 
0.000000 12.000000 120.000000 
0.000000 12.000000 121.000000 
0.000000 12.000000 122.000000 
0.000000 12.000000 123.000000 
0.000000 12.000000 124.000000 
0.000000 12.000000 125.000000 
0.000000 12.000000 126.000000 
0.000000 12.000000 127.000000 
0.000000 12.000000 128.000000 
0.000000 12.000000 129.000000 
0.000000 12.000000 130.000000 
0.000000 12.000000 131.000000 
0.000000 12.000000 132.000000 
0.000000 12.000000 133.000000 
0.000000 12.000000 134.000000 
0.000000 12.000000 135.000000 
0.000000 12.000000 136.000000 
0.000000 12.000000 137.000000 
0.000000 12.000000 138.000000 
0.000000 12.000000 139.000000 
0.000000 12.000000 140.000000 
0.000000 12.000000 141.000000 
0.000000 12.000000 142.000000 
0.000000 12.000000 143.000000 
0.000000 12.000000 144.000000 
0.000000 12.000000 145.000000 
0.000000 12.000000 146.000000 
0.000000 12.000000 147.000000 
0.000000 12.000000 148.000000 
0.000000 12.000000 149.000000 
0.000000 12.000000 150.000000 
0.000000 12.000000 151.000000 
0.000000 12.000000 152.000000 
0.000000 12.000000 153.000000 
0.000000 12.000000 154.000000 
0.000000 12.000000 155.000000 
0.000000 12.000000 156.000000 
0.000000 12.000000 157.000000 
0.000000 12.000000 158.000000 
0.000000 12.000000 159.000000 
0.000000 12.000000 160.000000 
0.000000 12.000000 161.000000 
0.000000 12.000000 162.000000 
0.000000 12.000000 163.000000 
0.000000 12.000000 164.000000 
0.000000 12.000000 165.000000 
0.000000 12.000000 166.000000 
0.000000 12.000000 167.000000 
0.000000 12.000000 168.000000 
0.000000 12.000000 169.000000 
0.000000 12.000000 170.000000 
0.000000 12.000000 171.000000 
0.000000 12.000000 172.000000 
0.000000 12.000000 173.000000 
0.000000 12.000000 174.000000 
0.000000 12.000000 175.000000 
0.000000 12.000000 176.000000 
0.000000 12.000000 177.000000 
0.000000 12.000000 178.000000 
0.000000 12.000000 179.000000 
0.000000 12.000000 180.000000 
0.000000 12.000000 181.000000 
0.000000 12.000000 182.000000 
0.000000 12.000000 183.000000 
0.000000 12.000000 184.000000 
0.000000 12.000000 185.000000 
0.000000 12.000000 186.000000 
0.000000 12.000000 187.000000 
0.000000 12.000000 188.000000 
0.000000 12.000000 189.000000 
0.000000 12.000000 190.000000 
0.000000 12.000000 191.000000 
0.000000 12.000000 192.000000 
0.000000 12.000000 193.000000 
0.000000 12.000000 194.000000 
0.000000 12.000000 195.000000 
0.000000 12.000000 196.000000 
0.000000 12.000000 197.000000 
0.000000 12.000000 198.000000 
0.000000 12.000000 199.000000 
0.000000 12.000000 200.000000 
0.000000 13.000000 0.000000 
0.000000 13.000000 1.000000 
0.000000 13.000000 2.000000 
0.000000 13.000000 3.000000 
0.000000 13.000000 4.000000 
0.000000 13.000000 5.000000 
0.000000 13.000000 6.000000 
0.000000 13.000000 7.000000 
0.000000 13.000000 8.000000 
0.000000 13.000000 9.000000 
0.000000 13.000000 10.000000 
0.000000 13.000000 11.000000 
0.000000 13.000000 12.000000 
0.000000 13.000000 13.000000 
0.000000 13.000000 14.000000 
0.000000 13.000000 15.000000 
0.000000 13.000000 16.000000 
0.000000 13.000000 17.000000 
0.000000 13.000000 18.000000 
0.000000 13.000000 19.000000 
0.000000 13.000000 20.000000 
0.000000 13.000000 21.000000 
0.000000 13.000000 22.000000 
0.000000 13.000000 23.000000 
0.000000 13.000000 24.000000 
0.000000 13.000000 25.000000 
0.000000 13.000000 26.000000 
0.000000 13.000000 27.000000 
0.000000 13.000000 28.000000 
0.000000 13.000000 29.000000 
0.000000 13.000000 30.000000 
0.000000 13.000000 31.000000 
0.000000 13.000000 32.000000 
0.000000 13.000000 33.000000 
0.000000 13.000000 34.000000 
0.000000 13.000000 35.000000 
0.000000 13.000000 36.000000 
0.000000 13.000000 37.000000 
0.000000 13.000000 38.000000 
0.000000 13.000000 39.000000 
0.000000 13.000000 40.000000 
0.000000 13.000000 41.000000 
0.000000 13.000000 42.000000 
0.000000 13.000000 43.000000 
0.000000 13.000000 44.000000 
0.000000 13.000000 45.000000 
0.000000 13.000000 46.000000 
0.000000 13.000000 47.000000 
0.000000 13.000000 48.000000 
0.000000 13.000000 49.000000 
0.000000 13.000000 50.000000 
0.000000 13.000000 51.000000 
0.000000 13.000000 52.000000 
0.000000 13.000000 53.000000 
0.000000 13.000000 54.000000 
0.000000 13.000000 55.000000 
0.000000 13.000000 56.000000 
0.000000 13.000000 57.000000 
0.000000 13.000000 58.000000 
0.000000 13.000000 59.000000 
0.000000 13.000000 60.000000 
0.000000 13.000000 61.000000 
0.000000 13.000000 62.000000 
0.000000 13.000000 63.000000 
0.000000 13.000000 64.000000 
0.000000 13.000000 65.000000 
0.000000 13.000000 66.000000 
0.000000 13.000000 67.000000 
0.000000 13.000000 68.000000 
0.000000 13.000000 69.000000 
0.000000 13.000000 70.000000 
0.000000 13.000000 71.000000 
0.000000 13.000000 72.000000 
0.000000 13.000000 73.000000 
0.000000 13.000000 74.000000 
0.000000 13.000000 75.000000 
0.000000 13.000000 76.000000 
0.000000 13.000000 77.000000 
0.000000 13.000000 78.000000 
0.000000 13.000000 79.000000 
0.000000 13.000000 80.000000 
0.000000 13.000000 81.000000 
0.000000 13.000000 82.000000 
0.000000 13.000000 83.000000 
0.000000 13.000000 84.000000 
0.000000 13.000000 85.000000 
0.000000 13.000000 86.000000 
0.000000 13.000000 87.000000 
0.000000 13.000000 88.000000 
0.000000 13.000000 89.000000 
0.000000 13.000000 90.000000 
0.000000 13.000000 91.000000 
0.000000 13.000000 92.000000 
0.000000 13.000000 93.000000 
0.000000 13.000000 94.000000 
0.000000 13.000000 95.000000 
0.000000 13.000000 96.000000 
0.000000 13.000000 97.000000 
0.000000 13.000000 98.000000 
0.000000 13.000000 99.000000 
0.000000 13.000000 100.000000 
0.000000 13.000000 101.000000 
0.000000 13.000000 102.000000 
0.000000 13.000000 103.000000 
0.000000 13.000000 104.000000 
0.000000 13.000000 105.000000 
0.000000 13.000000 106.000000 
0.000000 13.000000 107.000000 
0.000000 13.000000 108.000000 
0.000000 13.000000 109.000000 
0.000000 13.000000 110.000000 
0.000000 13.000000 111.000000 
0.000000 13.000000 112.000000 
0.000000 13.000000 113.000000 
0.000000 13.000000 114.000000 
0.000000 13.000000 115.000000 
0.000000 13.000000 116.000000 
0.000000 13.000000 117.000000 
0.000000 13.000000 118.000000 
0.000000 13.000000 119.000000 
0.000000 13.000000 120.000000 
0.000000 13.000000 121.000000 
0.000000 13.000000 122.000000 
0.000000 13.000000 123.000000 
0.000000 13.000000 124.000000 
0.000000 13.000000 125.000000 
0.000000 13.000000 126.000000 
0.000000 13.000000 127.000000 
0.000000 13.000000 128.000000 
0.000000 13.000000 129.000000 
0.000000 13.000000 130.000000 
0.000000 13.000000 131.000000 
0.000000 13.000000 132.000000 
0.000000 13.000000 133.000000 
0.000000 13.000000 134.000000 
0.000000 13.000000 135.000000 
0.000000 13.000000 136.000000 
0.000000 13.000000 137.000000 
0.000000 13.000000 138.000000 
0.000000 13.000000 139.000000 
0.000000 13.000000 140.000000 
0.000000 13.000000 141.000000 
0.000000 13.000000 142.000000 
0.000000 13.000000 143.000000 
0.000000 13.000000 144.000000 
0.000000 13.000000 145.000000 
0.000000 13.000000 146.000000 
0.000000 13.000000 147.000000 
0.000000 13.000000 148.000000 
0.000000 13.000000 149.000000 
0.000000 13.000000 150.000000 
0.000000 13.000000 151.000000 
0.000000 13.000000 152.000000 
0.000000 13.000000 153.000000 
0.000000 13.000000 154.000000 
0.000000 13.000000 155.000000 
0.000000 13.000000 156.000000 
0.000000 13.000000 157.000000 
0.000000 13.000000 158.000000 
0.000000 13.000000 159.000000 
0.000000 13.000000 160.000000 
0.000000 13.000000 161.000000 
0.000000 13.000000 162.000000 
0.000000 13.000000 163.000000 
0.000000 13.000000 164.000000 
0.000000 13.000000 165.000000 
0.000000 13.000000 166.000000 
0.000000 13.000000 167.000000 
0.000000 13.000000 168.000000 
0.000000 13.000000 169.000000 
0.000000 13.000000 170.000000 
0.000000 13.000000 171.000000 
0.000000 13.000000 172.000000 
0.000000 13.000000 173.000000 
0.000000 13.000000 174.000000 
0.000000 13.000000 175.000000 
0.000000 13.000000 176.000000 
0.000000 13.000000 177.000000 
0.000000 13.000000 178.000000 
0.000000 13.000000 179.000000 
0.000000 13.000000 180.000000 
0.000000 13.000000 181.000000 
0.000000 13.000000 182.000000 
0.000000 13.000000 183.000000 
0.000000 13.000000 184.000000 
0.000000 13.000000 185.000000 
0.000000 13.000000 186.000000 
0.000000 13.000000 187.000000 
0.000000 13.000000 188.000000 
0.000000 13.000000 189.000000 
0.000000 13.000000 190.000000 
0.000000 13.000000 191.000000 
0.000000 13.000000 192.000000 
0.000000 13.000000 193.000000 
0.000000 13.000000 194.000000 
0.000000 13.000000 195.000000 
0.000000 13.000000 196.000000 
0.000000 13.000000 197.000000 
0.000000 13.000000 198.000000 
0.000000 13.000000 199.000000 
0.000000 13.000000 200.000000 
0.000000 14.000000 0.000000 
0.000000 14.000000 1.000000 
0.000000 14.000000 2.000000 
0.000000 14.000000 3.000000 
0.000000 14.000000 4.000000 
0.000000 14.000000 5.000000 
0.000000 14.000000 6.000000 
0.000000 14.000000 7.000000 
0.000000 14.000000 8.000000 
0.000000 14.000000 9.000000 
0.000000 14.000000 10.000000 
0.000000 14.000000 11.000000 
0.000000 14.000000 12.000000 
0.000000 14.000000 13.000000 
0.000000 14.000000 14.000000 
0.000000 14.000000 15.000000 
0.000000 14.000000 16.000000 
0.000000 14.000000 17.000000 
0.000000 14.000000 18.000000 
0.000000 14.000000 19.000000 
0.000000 14.000000 20.000000 
0.000000 14.000000 21.000000 
0.000000 14.000000 22.000000 
0.000000 14.000000 23.000000 
0.000000 14.000000 24.000000 
0.000000 14.000000 25.000000 
0.000000 14.000000 26.000000 
0.000000 14.000000 27.000000 
0.000000 14.000000 28.000000 
0.000000 14.000000 29.000000 
0.000000 14.000000 30.000000 
0.000000 14.000000 31.000000 
0.000000 14.000000 32.000000 
0.000000 14.000000 33.000000 
0.000000 14.000000 34.000000 
0.000000 14.000000 35.000000 
0.000000 14.000000 36.000000 
0.000000 14.000000 37.000000 
0.000000 14.000000 38.000000 
0.000000 14.000000 39.000000 
0.000000 14.000000 40.000000 
0.000000 14.000000 41.000000 
0.000000 14.000000 42.000000 
0.000000 14.000000 43.000000 
0.000000 14.000000 44.000000 
0.000000 14.000000 45.000000 
0.000000 14.000000 46.000000 
0.000000 14.000000 47.000000 
0.000000 14.000000 48.000000 
0.000000 14.000000 49.000000 
0.000000 14.000000 50.000000 
0.000000 14.000000 51.000000 
0.000000 14.000000 52.000000 
0.000000 14.000000 53.000000 
0.000000 14.000000 54.000000 
0.000000 14.000000 55.000000 
0.000000 14.000000 56.000000 
0.000000 14.000000 57.000000 
0.000000 14.000000 58.000000 
0.000000 14.000000 59.000000 
0.000000 14.000000 60.000000 
0.000000 14.000000 61.000000 
0.000000 14.000000 62.000000 
0.000000 14.000000 63.000000 
0.000000 14.000000 64.000000 
0.000000 14.000000 65.000000 
0.000000 14.000000 66.000000 
0.000000 14.000000 67.000000 
0.000000 14.000000 68.000000 
0.000000 14.000000 69.000000 
0.000000 14.000000 70.000000 
0.000000 14.000000 71.000000 
0.000000 14.000000 72.000000 
0.000000 14.000000 73.000000 
0.000000 14.000000 74.000000 
0.000000 14.000000 75.000000 
0.000000 14.000000 76.000000 
0.000000 14.000000 77.000000 
0.000000 14.000000 78.000000 
0.000000 14.000000 79.000000 
0.000000 14.000000 80.000000 
0.000000 14.000000 81.000000 
0.000000 14.000000 82.000000 
0.000000 14.000000 83.000000 
0.000000 14.000000 84.000000 
0.000000 14.000000 85.000000 
0.000000 14.000000 86.000000 
0.000000 14.000000 87.000000 
0.000000 14.000000 88.000000 
0.000000 14.000000 89.000000 
0.000000 14.000000 90.000000 
0.000000 14.000000 91.000000 
0.000000 14.000000 92.000000 
0.000000 14.000000 93.000000 
0.000000 14.000000 94.000000 
0.000000 14.000000 95.000000 
0.000000 14.000000 96.000000 
0.000000 14.000000 97.000000 
0.000000 14.000000 98.000000 
0.000000 14.000000 99.000000 
0.000000 14.000000 100.000000 
0.000000 14.000000 101.000000 
0.000000 14.000000 102.000000 
0.000000 14.000000 103.000000 
0.000000 14.000000 104.000000 
0.000000 14.000000 105.000000 
0.000000 14.000000 106.000000 
0.000000 14.000000 107.000000 
0.000000 14.000000 108.000000 
0.000000 14.000000 109.000000 
0.000000 14.000000 110.000000 
0.000000 14.000000 111.000000 
0.000000 14.000000 112.000000 
0.000000 14.000000 113.000000 
0.000000 14.000000 114.000000 
0.000000 14.000000 115.000000 
0.000000 14.000000 116.000000 
0.000000 14.000000 117.000000 
0.000000 14.000000 118.000000 
0.000000 14.000000 119.000000 
0.000000 14.000000 120.000000 
0.000000 14.000000 121.000000 
0.000000 14.000000 122.000000 
0.000000 14.000000 123.000000 
0.000000 14.000000 124.000000 
0.000000 14.000000 125.000000 
0.000000 14.000000 126.000000 
0.000000 14.000000 127.000000 
0.000000 14.000000 128.000000 
0.000000 14.000000 129.000000 
0.000000 14.000000 130.000000 
0.000000 14.000000 131.000000 
0.000000 14.000000 132.000000 
0.000000 14.000000 133.000000 
0.000000 14.000000 134.000000 
0.000000 14.000000 135.000000 
0.000000 14.000000 136.000000 
0.000000 14.000000 137.000000 
0.000000 14.000000 138.000000 
0.000000 14.000000 139.000000 
0.000000 14.000000 140.000000 
0.000000 14.000000 141.000000 
0.000000 14.000000 142.000000 
0.000000 14.000000 143.000000 
0.000000 14.000000 144.000000 
0.000000 14.000000 145.000000 
0.000000 14.000000 146.000000 
0.000000 14.000000 147.000000 
0.000000 14.000000 148.000000 
0.000000 14.000000 149.000000 
0.000000 14.000000 150.000000 
0.000000 14.000000 151.000000 
0.000000 14.000000 152.000000 
0.000000 14.000000 153.000000 
0.000000 14.000000 154.000000 
0.000000 14.000000 155.000000 
0.000000 14.000000 156.000000 
0.000000 14.000000 157.000000 
0.000000 14.000000 158.000000 
0.000000 14.000000 159.000000 
0.000000 14.000000 160.000000 
0.000000 14.000000 161.000000 
0.000000 14.000000 162.000000 
0.000000 14.000000 163.000000 
0.000000 14.000000 164.000000 
0.000000 14.000000 165.000000 
0.000000 14.000000 166.000000 
0.000000 14.000000 167.000000 
0.000000 14.000000 168.000000 
0.000000 14.000000 169.000000 
0.000000 14.000000 170.000000 
0.000000 14.000000 171.000000 
0.000000 14.000000 172.000000 
0.000000 14.000000 173.000000 
0.000000 14.000000 174.000000 
0.000000 14.000000 175.000000 
0.000000 14.000000 176.000000 
0.000000 14.000000 177.000000 
0.000000 14.000000 178.000000 
0.000000 14.000000 179.000000 
0.000000 14.000000 180.000000 
0.000000 14.000000 181.000000 
0.000000 14.000000 182.000000 
0.000000 14.000000 183.000000 
0.000000 14.000000 184.000000 
0.000000 14.000000 185.000000 
0.000000 14.000000 186.000000 
0.000000 14.000000 187.000000 
0.000000 14.000000 188.000000 
0.000000 14.000000 189.000000 
0.000000 14.000000 190.000000 
0.000000 14.000000 191.000000 
0.000000 14.000000 192.000000 
0.000000 14.000000 193.000000 
0.000000 14.000000 194.000000 
0.000000 14.000000 195.000000 
0.000000 14.000000 196.000000 
0.000000 14.000000 197.000000 
0.000000 14.000000 198.000000 
0.000000 14.000000 199.000000 
0.000000 14.000000 200.000000 
0.000000 15.000000 0.000000 
0.000000 15.000000 1.000000 
0.000000 15.000000 2.000000 
0.000000 15.000000 3.000000 
0.000000 15.000000 4.000000 
0.000000 15.000000 5.000000 
0.000000 15.000000 6.000000 
0.000000 15.000000 7.000000 
0.000000 15.000000 8.000000 
0.000000 15.000000 9.000000 
0.000000 15.000000 10.000000 
0.000000 15.000000 11.000000 
0.000000 15.000000 12.000000 
0.000000 15.000000 13.000000 
0.000000 15.000000 14.000000 
0.000000 15.000000 15.000000 
0.000000 15.000000 16.000000 
0.000000 15.000000 17.000000 
0.000000 15.000000 18.000000 
0.000000 15.000000 19.000000 
0.000000 15.000000 20.000000 
0.000000 15.000000 21.000000 
0.000000 15.000000 22.000000 
0.000000 15.000000 23.000000 
0.000000 15.000000 24.000000 
0.000000 15.000000 25.000000 
0.000000 15.000000 26.000000 
0.000000 15.000000 27.000000 
0.000000 15.000000 28.000000 
0.000000 15.000000 29.000000 
0.000000 15.000000 30.000000 
0.000000 15.000000 31.000000 
0.000000 15.000000 32.000000 
0.000000 15.000000 33.000000 
0.000000 15.000000 34.000000 
0.000000 15.000000 35.000000 
0.000000 15.000000 36.000000 
0.000000 15.000000 37.000000 
0.000000 15.000000 38.000000 
0.000000 15.000000 39.000000 
0.000000 15.000000 40.000000 
0.000000 15.000000 41.000000 
0.000000 15.000000 42.000000 
0.000000 15.000000 43.000000 
0.000000 15.000000 44.000000 
0.000000 15.000000 45.000000 
0.000000 15.000000 46.000000 
0.000000 15.000000 47.000000 
0.000000 15.000000 48.000000 
0.000000 15.000000 49.000000 
0.000000 15.000000 50.000000 
0.000000 15.000000 51.000000 
0.000000 15.000000 52.000000 
0.000000 15.000000 53.000000 
0.000000 15.000000 54.000000 
0.000000 15.000000 55.000000 
0.000000 15.000000 56.000000 
0.000000 15.000000 57.000000 
0.000000 15.000000 58.000000 
0.000000 15.000000 59.000000 
0.000000 15.000000 60.000000 
0.000000 15.000000 61.000000 
0.000000 15.000000 62.000000 
0.000000 15.000000 63.000000 
0.000000 15.000000 64.000000 
0.000000 15.000000 65.000000 
0.000000 15.000000 66.000000 
0.000000 15.000000 67.000000 
0.000000 15.000000 68.000000 
0.000000 15.000000 69.000000 
0.000000 15.000000 70.000000 
0.000000 15.000000 71.000000 
0.000000 15.000000 72.000000 
0.000000 15.000000 73.000000 
0.000000 15.000000 74.000000 
0.000000 15.000000 75.000000 
0.000000 15.000000 76.000000 
0.000000 15.000000 77.000000 
0.000000 15.000000 78.000000 
0.000000 15.000000 79.000000 
0.000000 15.000000 80.000000 
0.000000 15.000000 81.000000 
0.000000 15.000000 82.000000 
0.000000 15.000000 83.000000 
0.000000 15.000000 84.000000 
0.000000 15.000000 85.000000 
0.000000 15.000000 86.000000 
0.000000 15.000000 87.000000 
0.000000 15.000000 88.000000 
0.000000 15.000000 89.000000 
0.000000 15.000000 90.000000 
0.000000 15.000000 91.000000 
0.000000 15.000000 92.000000 
0.000000 15.000000 93.000000 
0.000000 15.000000 94.000000 
0.000000 15.000000 95.000000 
0.000000 15.000000 96.000000 
0.000000 15.000000 97.000000 
0.000000 15.000000 98.000000 
0.000000 15.000000 99.000000 
0.000000 15.000000 100.000000 
0.000000 15.000000 101.000000 
0.000000 15.000000 102.000000 
0.000000 15.000000 103.000000 
0.000000 15.000000 104.000000 
0.000000 15.000000 105.000000 
0.000000 15.000000 106.000000 
0.000000 15.000000 107.000000 
0.000000 15.000000 108.000000 
0.000000 15.000000 109.000000 
0.000000 15.000000 110.000000 
0.000000 15.000000 111.000000 
0.000000 15.000000 112.000000 
0.000000 15.000000 113.000000 
0.000000 15.000000 114.000000 
0.000000 15.000000 115.000000 
0.000000 15.000000 116.000000 
0.000000 15.000000 117.000000 
0.000000 15.000000 118.000000 
0.000000 15.000000 119.000000 
0.000000 15.000000 120.000000 
0.000000 15.000000 121.000000 
0.000000 15.000000 122.000000 
0.000000 15.000000 123.000000 
0.000000 15.000000 124.000000 
0.000000 15.000000 125.000000 
0.000000 15.000000 126.000000 
0.000000 15.000000 127.000000 
0.000000 15.000000 128.000000 
0.000000 15.000000 129.000000 
0.000000 15.000000 130.000000 
0.000000 15.000000 131.000000 
0.000000 15.000000 132.000000 
0.000000 15.000000 133.000000 
0.000000 15.000000 134.000000 
0.000000 15.000000 135.000000 
0.000000 15.000000 136.000000 
0.000000 15.000000 137.000000 
0.000000 15.000000 138.000000 
0.000000 15.000000 139.000000 
0.000000 15.000000 140.000000 
0.000000 15.000000 141.000000 
0.000000 15.000000 142.000000 
0.000000 15.000000 143.000000 
0.000000 15.000000 144.000000 
0.000000 15.000000 145.000000 
0.000000 15.000000 146.000000 
0.000000 15.000000 147.000000 
0.000000 15.000000 148.000000 
0.000000 15.000000 149.000000 
0.000000 15.000000 150.000000 
0.000000 15.000000 151.000000 
0.000000 15.000000 152.000000 
0.000000 15.000000 153.000000 
0.000000 15.000000 154.000000 
0.000000 15.000000 155.000000 
0.000000 15.000000 156.000000 
0.000000 15.000000 157.000000 
0.000000 15.000000 158.000000 
0.000000 15.000000 159.000000 
0.000000 15.000000 160.000000 
0.000000 15.000000 161.000000 
0.000000 15.000000 162.000000 
0.000000 15.000000 163.000000 
0.000000 15.000000 164.000000 
0.000000 15.000000 165.000000 
0.000000 15.000000 166.000000 
0.000000 15.000000 167.000000 
0.000000 15.000000 168.000000 
0.000000 15.000000 169.000000 
0.000000 15.000000 170.000000 
0.000000 15.000000 171.000000 
0.000000 15.000000 172.000000 
0.000000 15.000000 173.000000 
0.000000 15.000000 174.000000 
0.000000 15.000000 175.000000 
0.000000 15.000000 176.000000 
0.000000 15.000000 177.000000 
0.000000 15.000000 178.000000 
0.000000 15.000000 179.000000 
0.000000 15.000000 180.000000 
0.000000 15.000000 181.000000 
0.000000 15.000000 182.000000 
0.000000 15.000000 183.000000 
0.000000 15.000000 184.000000 
0.000000 15.000000 185.000000 
0.000000 15.000000 186.000000 
0.000000 15.000000 187.000000 
0.000000 15.000000 188.000000 
0.000000 15.000000 189.000000 
0.000000 15.000000 190.000000 
0.000000 15.000000 191.000000 
0.000000 15.000000 192.000000 
0.000000 15.000000 193.000000 
0.000000 15.000000 194.000000 
0.000000 15.000000 195.000000 
0.000000 15.000000 196.000000 
0.000000 15.000000 197.000000 
0.000000 15.000000 198.000000 
0.000000 15.000000 199.000000 
0.000000 15.000000 200.000000 
0.000000 16.000000 0.000000 
0.000000 16.000000 1.000000 
0.000000 16.000000 2.000000 
0.000000 16.000000 3.000000 
0.000000 16.000000 4.000000 
0.000000 16.000000 5.000000 
0.000000 16.000000 6.000000 
0.000000 16.000000 7.000000 
0.000000 16.000000 8.000000 
0.000000 16.000000 9.000000 
0.000000 16.000000 10.000000 
0.000000 16.000000 11.000000 
0.000000 16.000000 12.000000 
0.000000 16.000000 13.000000 
0.000000 16.000000 14.000000 
0.000000 16.000000 15.000000 
0.000000 16.000000 16.000000 
0.000000 16.000000 17.000000 
0.000000 16.000000 18.000000 
0.000000 16.000000 19.000000 
0.000000 16.000000 20.000000 
0.000000 16.000000 21.000000 
0.000000 16.000000 22.000000 
0.000000 16.000000 23.000000 
0.000000 16.000000 24.000000 
0.000000 16.000000 25.000000 
0.000000 16.000000 26.000000 
0.000000 16.000000 27.000000 
0.000000 16.000000 28.000000 
0.000000 16.000000 29.000000 
0.000000 16.000000 30.000000 
0.000000 16.000000 31.000000 
0.000000 16.000000 32.000000 
0.000000 16.000000 33.000000 
0.000000 16.000000 34.000000 
0.000000 16.000000 35.000000 
0.000000 16.000000 36.000000 
0.000000 16.000000 37.000000 
0.000000 16.000000 38.000000 
0.000000 16.000000 39.000000 
0.000000 16.000000 40.000000 
0.000000 16.000000 41.000000 
0.000000 16.000000 42.000000 
0.000000 16.000000 43.000000 
0.000000 16.000000 44.000000 
0.000000 16.000000 45.000000 
0.000000 16.000000 46.000000 
0.000000 16.000000 47.000000 
0.000000 16.000000 48.000000 
0.000000 16.000000 49.000000 
0.000000 16.000000 50.000000 
0.000000 16.000000 51.000000 
0.000000 16.000000 52.000000 
0.000000 16.000000 53.000000 
0.000000 16.000000 54.000000 
0.000000 16.000000 55.000000 
0.000000 16.000000 56.000000 
0.000000 16.000000 57.000000 
0.000000 16.000000 58.000000 
0.000000 16.000000 59.000000 
0.000000 16.000000 60.000000 
0.000000 16.000000 61.000000 
0.000000 16.000000 62.000000 
0.000000 16.000000 63.000000 
0.000000 16.000000 64.000000 
0.000000 16.000000 65.000000 
0.000000 16.000000 66.000000 
0.000000 16.000000 67.000000 
0.000000 16.000000 68.000000 
0.000000 16.000000 69.000000 
0.000000 16.000000 70.000000 
0.000000 16.000000 71.000000 
0.000000 16.000000 72.000000 
0.000000 16.000000 73.000000 
0.000000 16.000000 74.000000 
0.000000 16.000000 75.000000 
0.000000 16.000000 76.000000 
0.000000 16.000000 77.000000 
0.000000 16.000000 78.000000 
0.000000 16.000000 79.000000 
0.000000 16.000000 80.000000 
0.000000 16.000000 81.000000 
0.000000 16.000000 82.000000 
0.000000 16.000000 83.000000 
0.000000 16.000000 84.000000 
0.000000 16.000000 85.000000 
0.000000 16.000000 86.000000 
0.000000 16.000000 87.000000 
0.000000 16.000000 88.000000 
0.000000 16.000000 89.000000 
0.000000 16.000000 90.000000 
0.000000 16.000000 91.000000 
0.000000 16.000000 92.000000 
0.000000 16.000000 93.000000 
0.000000 16.000000 94.000000 
0.000000 16.000000 95.000000 
0.000000 16.000000 96.000000 
0.000000 16.000000 97.000000 
0.000000 16.000000 98.000000 
0.000000 16.000000 99.000000 
0.000000 16.000000 100.000000 
0.000000 16.000000 101.000000 
0.000000 16.000000 102.000000 
0.000000 16.000000 103.000000 
0.000000 16.000000 104.000000 
0.000000 16.000000 105.000000 
0.000000 16.000000 106.000000 
0.000000 16.000000 107.000000 
0.000000 16.000000 108.000000 
0.000000 16.000000 109.000000 
0.000000 16.000000 110.000000 
0.000000 16.000000 111.000000 
0.000000 16.000000 112.000000 
0.000000 16.000000 113.000000 
0.000000 16.000000 114.000000 
0.000000 16.000000 115.000000 
0.000000 16.000000 116.000000 
0.000000 16.000000 117.000000 
0.000000 16.000000 118.000000 
0.000000 16.000000 119.000000 
0.000000 16.000000 120.000000 
0.000000 16.000000 121.000000 
0.000000 16.000000 122.000000 
0.000000 16.000000 123.000000 
0.000000 16.000000 124.000000 
0.000000 16.000000 125.000000 
0.000000 16.000000 126.000000 
0.000000 16.000000 127.000000 
0.000000 16.000000 128.000000 
0.000000 16.000000 129.000000 
0.000000 16.000000 130.000000 
0.000000 16.000000 131.000000 
0.000000 16.000000 132.000000 
0.000000 16.000000 133.000000 
0.000000 16.000000 134.000000 
0.000000 16.000000 135.000000 
0.000000 16.000000 136.000000 
0.000000 16.000000 137.000000 
0.000000 16.000000 138.000000 
0.000000 16.000000 139.000000 
0.000000 16.000000 140.000000 
0.000000 16.000000 141.000000 
0.000000 16.000000 142.000000 
0.000000 16.000000 143.000000 
0.000000 16.000000 144.000000 
0.000000 16.000000 145.000000 
0.000000 16.000000 146.000000 
0.000000 16.000000 147.000000 
0.000000 16.000000 148.000000 
0.000000 16.000000 149.000000 
0.000000 16.000000 150.000000 
0.000000 16.000000 151.000000 
0.000000 16.000000 152.000000 
0.000000 16.000000 153.000000 
0.000000 16.000000 154.000000 
0.000000 16.000000 155.000000 
0.000000 16.000000 156.000000 
0.000000 16.000000 157.000000 
0.000000 16.000000 158.000000 
0.000000 16.000000 159.000000 
0.000000 16.000000 160.000000 
0.000000 16.000000 161.000000 
0.000000 16.000000 162.000000 
0.000000 16.000000 163.000000 
0.000000 16.000000 164.000000 
0.000000 16.000000 165.000000 
0.000000 16.000000 166.000000 
0.000000 16.000000 167.000000 
0.000000 16.000000 168.000000 
0.000000 16.000000 169.000000 
0.000000 16.000000 170.000000 
0.000000 16.000000 171.000000 
0.000000 16.000000 172.000000 
0.000000 16.000000 173.000000 
0.000000 16.000000 174.000000 
0.000000 16.000000 175.000000 
0.000000 16.000000 176.000000 
0.000000 16.000000 177.000000 
0.000000 16.000000 178.000000 
0.000000 16.000000 179.000000 
0.000000 16.000000 180.000000 
0.000000 16.000000 181.000000 
0.000000 16.000000 182.000000 
0.000000 16.000000 183.000000 
0.000000 16.000000 184.000000 
0.000000 16.000000 185.000000 
0.000000 16.000000 186.000000 
0.000000 16.000000 187.000000 
0.000000 16.000000 188.000000 
0.000000 16.000000 189.000000 
0.000000 16.000000 190.000000 
0.000000 16.000000 191.000000 
0.000000 16.000000 192.000000 
0.000000 16.000000 193.000000 
0.000000 16.000000 194.000000 
0.000000 16.000000 195.000000 
0.000000 16.000000 196.000000 
0.000000 16.000000 197.000000 
0.000000 16.000000 198.000000 
0.000000 16.000000 199.000000 
0.000000 16.000000 200.000000 
0.000000 17.000000 0.000000 
0.000000 17.000000 1.000000 
0.000000 17.000000 2.000000 
0.000000 17.000000 3.000000 
0.000000 17.000000 4.000000 
0.000000 17.000000 5.000000 
0.000000 17.000000 6.000000 
0.000000 17.000000 7.000000 
0.000000 17.000000 8.000000 
0.000000 17.000000 9.000000 
0.000000 17.000000 10.000000 
0.000000 17.000000 11.000000 
0.000000 17.000000 12.000000 
0.000000 17.000000 13.000000 
0.000000 17.000000 14.000000 
0.000000 17.000000 15.000000 
0.000000 17.000000 16.000000 
0.000000 17.000000 17.000000 
0.000000 17.000000 18.000000 
0.000000 17.000000 19.000000 
0.000000 17.000000 20.000000 
0.000000 17.000000 21.000000 
0.000000 17.000000 22.000000 
0.000000 17.000000 23.000000 
0.000000 17.000000 24.000000 
0.000000 17.000000 25.000000 
0.000000 17.000000 26.000000 
0.000000 17.000000 27.000000 
0.000000 17.000000 28.000000 
0.000000 17.000000 29.000000 
0.000000 17.000000 30.000000 
0.000000 17.000000 31.000000 
0.000000 17.000000 32.000000 
0.000000 17.000000 33.000000 
0.000000 17.000000 34.000000 
0.000000 17.000000 35.000000 
0.000000 17.000000 36.000000 
0.000000 17.000000 37.000000 
0.000000 17.000000 38.000000 
0.000000 17.000000 39.000000 
0.000000 17.000000 40.000000 
0.000000 17.000000 41.000000 
0.000000 17.000000 42.000000 
0.000000 17.000000 43.000000 
0.000000 17.000000 44.000000 
0.000000 17.000000 45.000000 
0.000000 17.000000 46.000000 
0.000000 17.000000 47.000000 
0.000000 17.000000 48.000000 
0.000000 17.000000 49.000000 
0.000000 17.000000 50.000000 
0.000000 17.000000 51.000000 
0.000000 17.000000 52.000000 
0.000000 17.000000 53.000000 
0.000000 17.000000 54.000000 
0.000000 17.000000 55.000000 
0.000000 17.000000 56.000000 
0.000000 17.000000 57.000000 
0.000000 17.000000 58.000000 
0.000000 17.000000 59.000000 
0.000000 17.000000 60.000000 
0.000000 17.000000 61.000000 
0.000000 17.000000 62.000000 
0.000000 17.000000 63.000000 
0.000000 17.000000 64.000000 
0.000000 17.000000 65.000000 
0.000000 17.000000 66.000000 
0.000000 17.000000 67.000000 
0.000000 17.000000 68.000000 
0.000000 17.000000 69.000000 
0.000000 17.000000 70.000000 
0.000000 17.000000 71.000000 
0.000000 17.000000 72.000000 
0.000000 17.000000 73.000000 
0.000000 17.000000 74.000000 
0.000000 17.000000 75.000000 
0.000000 17.000000 76.000000 
0.000000 17.000000 77.000000 
0.000000 17.000000 78.000000 
0.000000 17.000000 79.000000 
0.000000 17.000000 80.000000 
0.000000 17.000000 81.000000 
0.000000 17.000000 82.000000 
0.000000 17.000000 83.000000 
0.000000 17.000000 84.000000 
0.000000 17.000000 85.000000 
0.000000 17.000000 86.000000 
0.000000 17.000000 87.000000 
0.000000 17.000000 88.000000 
0.000000 17.000000 89.000000 
0.000000 17.000000 90.000000 
0.000000 17.000000 91.000000 
0.000000 17.000000 92.000000 
0.000000 17.000000 93.000000 
0.000000 17.000000 94.000000 
0.000000 17.000000 95.000000 
0.000000 17.000000 96.000000 
0.000000 17.000000 97.000000 
0.000000 17.000000 98.000000 
0.000000 17.000000 99.000000 
0.000000 17.000000 100.000000 
0.000000 17.000000 101.000000 
0.000000 17.000000 102.000000 
0.000000 17.000000 103.000000 
0.000000 17.000000 104.000000 
0.000000 17.000000 105.000000 
0.000000 17.000000 106.000000 
0.000000 17.000000 107.000000 
0.000000 17.000000 108.000000 
0.000000 17.000000 109.000000 
0.000000 17.000000 110.000000 
0.000000 17.000000 111.000000 
0.000000 17.000000 112.000000 
0.000000 17.000000 113.000000 
0.000000 17.000000 114.000000 
0.000000 17.000000 115.000000 
0.000000 17.000000 116.000000 
0.000000 17.000000 117.000000 
0.000000 17.000000 118.000000 
0.000000 17.000000 119.000000 
0.000000 17.000000 120.000000 
0.000000 17.000000 121.000000 
0.000000 17.000000 122.000000 
0.000000 17.000000 123.000000 
0.000000 17.000000 124.000000 
0.000000 17.000000 125.000000 
0.000000 17.000000 126.000000 
0.000000 17.000000 127.000000 
0.000000 17.000000 128.000000 
0.000000 17.000000 129.000000 
0.000000 17.000000 130.000000 
0.000000 17.000000 131.000000 
0.000000 17.000000 132.000000 
0.000000 17.000000 133.000000 
0.000000 17.000000 134.000000 
0.000000 17.000000 135.000000 
0.000000 17.000000 136.000000 
0.000000 17.000000 137.000000 
0.000000 17.000000 138.000000 
0.000000 17.000000 139.000000 
0.000000 17.000000 140.000000 
0.000000 17.000000 141.000000 
0.000000 17.000000 142.000000 
0.000000 17.000000 143.000000 
0.000000 17.000000 144.000000 
0.000000 17.000000 145.000000 
0.000000 17.000000 146.000000 
0.000000 17.000000 147.000000 
0.000000 17.000000 148.000000 
0.000000 17.000000 149.000000 
0.000000 17.000000 150.000000 
0.000000 17.000000 151.000000 
0.000000 17.000000 152.000000 
0.000000 17.000000 153.000000 
0.000000 17.000000 154.000000 
0.000000 17.000000 155.000000 
0.000000 17.000000 156.000000 
0.000000 17.000000 157.000000 
0.000000 17.000000 158.000000 
0.000000 17.000000 159.000000 
0.000000 17.000000 160.000000 
0.000000 17.000000 161.000000 
0.000000 17.000000 162.000000 
0.000000 17.000000 163.000000 
0.000000 17.000000 164.000000 
0.000000 17.000000 165.000000 
0.000000 17.000000 166.000000 
0.000000 17.000000 167.000000 
0.000000 17.000000 168.000000 
0.000000 17.000000 169.000000 
0.000000 17.000000 170.000000 
0.000000 17.000000 171.000000 
0.000000 17.000000 172.000000 
0.000000 17.000000 173.000000 
0.000000 17.000000 174.000000 
0.000000 17.000000 175.000000 
0.000000 17.000000 176.000000 
0.000000 17.000000 177.000000 
0.000000 17.000000 178.000000 
0.000000 17.000000 179.000000 
0.000000 17.000000 180.000000 
0.000000 17.000000 181.000000 
0.000000 17.000000 182.000000 
0.000000 17.000000 183.000000 
0.000000 17.000000 184.000000 
0.000000 17.000000 185.000000 
0.000000 17.000000 186.000000 
0.000000 17.000000 187.000000 
0.000000 17.000000 188.000000 
0.000000 17.000000 189.000000 
0.000000 17.000000 190.000000 
0.000000 17.000000 191.000000 
0.000000 17.000000 192.000000 
0.000000 17.000000 193.000000 
0.000000 17.000000 194.000000 
0.000000 17.000000 195.000000 
0.000000 17.000000 196.000000 
0.000000 17.000000 197.000000 
0.000000 17.000000 198.000000 
0.000000 17.000000 199.000000 
0.000000 17.000000 200.000000 
0.000000 18.000000 0.000000 
0.000000 18.000000 1.000000 
0.000000 18.000000 2.000000 
0.000000 18.000000 3.000000 
0.000000 18.000000 4.000000 
0.000000 18.000000 5.000000 
0.000000 18.000000 6.000000 
0.000000 18.000000 7.000000 
0.000000 18.000000 8.000000 
0.000000 18.000000 9.000000 
0.000000 18.000000 10.000000 
0.000000 18.000000 11.000000 
0.000000 18.000000 12.000000 
0.000000 18.000000 13.000000 
0.000000 18.000000 14.000000 
0.000000 18.000000 15.000000 
0.000000 18.000000 16.000000 
0.000000 18.000000 17.000000 
0.000000 18.000000 18.000000 
0.000000 18.000000 19.000000 
0.000000 18.000000 20.000000 
0.000000 18.000000 21.000000 
0.000000 18.000000 22.000000 
0.000000 18.000000 23.000000 
0.000000 18.000000 24.000000 
0.000000 18.000000 25.000000 
0.000000 18.000000 26.000000 
0.000000 18.000000 27.000000 
0.000000 18.000000 28.000000 
0.000000 18.000000 29.000000 
0.000000 18.000000 30.000000 
0.000000 18.000000 31.000000 
0.000000 18.000000 32.000000 
0.000000 18.000000 33.000000 
0.000000 18.000000 34.000000 
0.000000 18.000000 35.000000 
0.000000 18.000000 36.000000 
0.000000 18.000000 37.000000 
0.000000 18.000000 38.000000 
0.000000 18.000000 39.000000 
0.000000 18.000000 40.000000 
0.000000 18.000000 41.000000 
0.000000 18.000000 42.000000 
0.000000 18.000000 43.000000 
0.000000 18.000000 44.000000 
0.000000 18.000000 45.000000 
0.000000 18.000000 46.000000 
0.000000 18.000000 47.000000 
0.000000 18.000000 48.000000 
0.000000 18.000000 49.000000 
0.000000 18.000000 50.000000 
0.000000 18.000000 51.000000 
0.000000 18.000000 52.000000 
0.000000 18.000000 53.000000 
0.000000 18.000000 54.000000 
0.000000 18.000000 55.000000 
0.000000 18.000000 56.000000 
0.000000 18.000000 57.000000 
0.000000 18.000000 58.000000 
0.000000 18.000000 59.000000 
0.000000 18.000000 60.000000 
0.000000 18.000000 61.000000 
0.000000 18.000000 62.000000 
0.000000 18.000000 63.000000 
0.000000 18.000000 64.000000 
0.000000 18.000000 65.000000 
0.000000 18.000000 66.000000 
0.000000 18.000000 67.000000 
0.000000 18.000000 68.000000 
0.000000 18.000000 69.000000 
0.000000 18.000000 70.000000 
0.000000 18.000000 71.000000 
0.000000 18.000000 72.000000 
0.000000 18.000000 73.000000 
0.000000 18.000000 74.000000 
0.000000 18.000000 75.000000 
0.000000 18.000000 76.000000 
0.000000 18.000000 77.000000 
0.000000 18.000000 78.000000 
0.000000 18.000000 79.000000 
0.000000 18.000000 80.000000 
0.000000 18.000000 81.000000 
0.000000 18.000000 82.000000 
0.000000 18.000000 83.000000 
0.000000 18.000000 84.000000 
0.000000 18.000000 85.000000 
0.000000 18.000000 86.000000 
0.000000 18.000000 87.000000 
0.000000 18.000000 88.000000 
0.000000 18.000000 89.000000 
0.000000 18.000000 90.000000 
0.000000 18.000000 91.000000 
0.000000 18.000000 92.000000 
0.000000 18.000000 93.000000 
0.000000 18.000000 94.000000 
0.000000 18.000000 95.000000 
0.000000 18.000000 96.000000 
0.000000 18.000000 97.000000 
0.000000 18.000000 98.000000 
0.000000 18.000000 99.000000 
0.000000 18.000000 100.000000 
0.000000 18.000000 101.000000 
0.000000 18.000000 102.000000 
0.000000 18.000000 103.000000 
0.000000 18.000000 104.000000 
0.000000 18.000000 105.000000 
0.000000 18.000000 106.000000 
0.000000 18.000000 107.000000 
0.000000 18.000000 108.000000 
0.000000 18.000000 109.000000 
0.000000 18.000000 110.000000 
0.000000 18.000000 111.000000 
0.000000 18.000000 112.000000 
0.000000 18.000000 113.000000 
0.000000 18.000000 114.000000 
0.000000 18.000000 115.000000 
0.000000 18.000000 116.000000 
0.000000 18.000000 117.000000 
0.000000 18.000000 118.000000 
0.000000 18.000000 119.000000 
0.000000 18.000000 120.000000 
0.000000 18.000000 121.000000 
0.000000 18.000000 122.000000 
0.000000 18.000000 123.000000 
0.000000 18.000000 124.000000 
0.000000 18.000000 125.000000 
0.000000 18.000000 126.000000 
0.000000 18.000000 127.000000 
0.000000 18.000000 128.000000 
0.000000 18.000000 129.000000 
0.000000 18.000000 130.000000 
0.000000 18.000000 131.000000 
0.000000 18.000000 132.000000 
0.000000 18.000000 133.000000 
0.000000 18.000000 134.000000 
0.000000 18.000000 135.000000 
0.000000 18.000000 136.000000 
0.000000 18.000000 137.000000 
0.000000 18.000000 138.000000 
0.000000 18.000000 139.000000 
0.000000 18.000000 140.000000 
0.000000 18.000000 141.000000 
0.000000 18.000000 142.000000 
0.000000 18.000000 143.000000 
0.000000 18.000000 144.000000 
0.000000 18.000000 145.000000 
0.000000 18.000000 146.000000 
0.000000 18.000000 147.000000 
0.000000 18.000000 148.000000 
0.000000 18.000000 149.000000 
0.000000 18.000000 150.000000 
0.000000 18.000000 151.000000 
0.000000 18.000000 152.000000 
0.000000 18.000000 153.000000 
0.000000 18.000000 154.000000 
0.000000 18.000000 155.000000 
0.000000 18.000000 156.000000 
0.000000 18.000000 157.000000 
0.000000 18.000000 158.000000 
0.000000 18.000000 159.000000 
0.000000 18.000000 160.000000 
0.000000 18.000000 161.000000 
0.000000 18.000000 162.000000 
0.000000 18.000000 163.000000 
0.000000 18.000000 164.000000 
0.000000 18.000000 165.000000 
0.000000 18.000000 166.000000 
0.000000 18.000000 167.000000 
0.000000 18.000000 168.000000 
0.000000 18.000000 169.000000 
0.000000 18.000000 170.000000 
0.000000 18.000000 171.000000 
0.000000 18.000000 172.000000 
0.000000 18.000000 173.000000 
0.000000 18.000000 174.000000 
0.000000 18.000000 175.000000 
0.000000 18.000000 176.000000 
0.000000 18.000000 177.000000 
0.000000 18.000000 178.000000 
0.000000 18.000000 179.000000 
0.000000 18.000000 180.000000 
0.000000 18.000000 181.000000 
0.000000 18.000000 182.000000 
0.000000 18.000000 183.000000 
0.000000 18.000000 184.000000 
0.000000 18.000000 185.000000 
0.000000 18.000000 186.000000 
0.000000 18.000000 187.000000 
0.000000 18.000000 188.000000 
0.000000 18.000000 189.000000 
0.000000 18.000000 190.000000 
0.000000 18.000000 191.000000 
0.000000 18.000000 192.000000 
0.000000 18.000000 193.000000 
0.000000 18.000000 194.000000 
0.000000 18.000000 195.000000 
0.000000 18.000000 196.000000 
0.000000 18.000000 197.000000 
0.000000 18.000000 198.000000 
0.000000 18.000000 199.000000 
0.000000 18.000000 200.000000 
0.000000 19.000000 0.000000 
0.000000 19.000000 1.000000 
0.000000 19.000000 2.000000 
0.000000 19.000000 3.000000 
0.000000 19.000000 4.000000 
0.000000 19.000000 5.000000 
0.000000 19.000000 6.000000 
0.000000 19.000000 7.000000 
0.000000 19.000000 8.000000 
0.000000 19.000000 9.000000 
0.000000 19.000000 10.000000 
0.000000 19.000000 11.000000 
0.000000 19.000000 12.000000 
0.000000 19.000000 13.000000 
0.000000 19.000000 14.000000 
0.000000 19.000000 15.000000 
0.000000 19.000000 16.000000 
0.000000 19.000000 17.000000 
0.000000 19.000000 18.000000 
0.000000 19.000000 19.000000 
0.000000 19.000000 20.000000 
0.000000 19.000000 21.000000 
0.000000 19.000000 22.000000 
0.000000 19.000000 23.000000 
0.000000 19.000000 24.000000 
0.000000 19.000000 25.000000 
0.000000 19.000000 26.000000 
0.000000 19.000000 27.000000 
0.000000 19.000000 28.000000 
0.000000 19.000000 29.000000 
0.000000 19.000000 30.000000 
0.000000 19.000000 31.000000 
0.000000 19.000000 32.000000 
0.000000 19.000000 33.000000 
0.000000 19.000000 34.000000 
0.000000 19.000000 35.000000 
0.000000 19.000000 36.000000 
0.000000 19.000000 37.000000 
0.000000 19.000000 38.000000 
0.000000 19.000000 39.000000 
0.000000 19.000000 40.000000 
0.000000 19.000000 41.000000 
0.000000 19.000000 42.000000 
0.000000 19.000000 43.000000 
0.000000 19.000000 44.000000 
0.000000 19.000000 45.000000 
0.000000 19.000000 46.000000 
0.000000 19.000000 47.000000 
0.000000 19.000000 48.000000 
0.000000 19.000000 49.000000 
0.000000 19.000000 50.000000 
0.000000 19.000000 51.000000 
0.000000 19.000000 52.000000 
0.000000 19.000000 53.000000 
0.000000 19.000000 54.000000 
0.000000 19.000000 55.000000 
0.000000 19.000000 56.000000 
0.000000 19.000000 57.000000 
0.000000 19.000000 58.000000 
0.000000 19.000000 59.000000 
0.000000 19.000000 60.000000 
0.000000 19.000000 61.000000 
0.000000 19.000000 62.000000 
0.000000 19.000000 63.000000 
0.000000 19.000000 64.000000 
0.000000 19.000000 65.000000 
0.000000 19.000000 66.000000 
0.000000 19.000000 67.000000 
0.000000 19.000000 68.000000 
0.000000 19.000000 69.000000 
0.000000 19.000000 70.000000 
0.000000 19.000000 71.000000 
0.000000 19.000000 72.000000 
0.000000 19.000000 73.000000 
0.000000 19.000000 74.000000 
0.000000 19.000000 75.000000 
0.000000 19.000000 76.000000 
0.000000 19.000000 77.000000 
0.000000 19.000000 78.000000 
0.000000 19.000000 79.000000 
0.000000 19.000000 80.000000 
0.000000 19.000000 81.000000 
0.000000 19.000000 82.000000 
0.000000 19.000000 83.000000 
0.000000 19.000000 84.000000 
0.000000 19.000000 85.000000 
0.000000 19.000000 86.000000 
0.000000 19.000000 87.000000 
0.000000 19.000000 88.000000 
0.000000 19.000000 89.000000 
0.000000 19.000000 90.000000 
0.000000 19.000000 91.000000 
0.000000 19.000000 92.000000 
0.000000 19.000000 93.000000 
0.000000 19.000000 94.000000 
0.000000 19.000000 95.000000 
0.000000 19.000000 96.000000 
0.000000 19.000000 97.000000 
0.000000 19.000000 98.000000 
0.000000 19.000000 99.000000 
0.000000 19.000000 100.000000 
0.000000 19.000000 101.000000 
0.000000 19.000000 102.000000 
0.000000 19.000000 103.000000 
0.000000 19.000000 104.000000 
0.000000 19.000000 105.000000 
0.000000 19.000000 106.000000 
0.000000 19.000000 107.000000 
0.000000 19.000000 108.000000 
0.000000 19.000000 109.000000 
0.000000 19.000000 110.000000 
0.000000 19.000000 111.000000 
0.000000 19.000000 112.000000 
0.000000 19.000000 113.000000 
0.000000 19.000000 114.000000 
0.000000 19.000000 115.000000 
0.000000 19.000000 116.000000 
0.000000 19.000000 117.000000 
0.000000 19.000000 118.000000 
0.000000 19.000000 119.000000 
0.000000 19.000000 120.000000 
0.000000 19.000000 121.000000 
0.000000 19.000000 122.000000 
0.000000 19.000000 123.000000 
0.000000 19.000000 124.000000 
0.000000 19.000000 125.000000 
0.000000 19.000000 126.000000 
0.000000 19.000000 127.000000 
0.000000 19.000000 128.000000 
0.000000 19.000000 129.000000 
0.000000 19.000000 130.000000 
0.000000 19.000000 131.000000 
0.000000 19.000000 132.000000 
0.000000 19.000000 133.000000 
0.000000 19.000000 134.000000 
0.000000 19.000000 135.000000 
0.000000 19.000000 136.000000 
0.000000 19.000000 137.000000 
0.000000 19.000000 138.000000 
0.000000 19.000000 139.000000 
0.000000 19.000000 140.000000 
0.000000 19.000000 141.000000 
0.000000 19.000000 142.000000 
0.000000 19.000000 143.000000 
0.000000 19.000000 144.000000 
0.000000 19.000000 145.000000 
0.000000 19.000000 146.000000 
0.000000 19.000000 147.000000 
0.000000 19.000000 148.000000 
0.000000 19.000000 149.000000 
0.000000 19.000000 150.000000 
0.000000 19.000000 151.000000 
0.000000 19.000000 152.000000 
0.000000 19.000000 153.000000 
0.000000 19.000000 154.000000 
0.000000 19.000000 155.000000 
0.000000 19.000000 156.000000 
0.000000 19.000000 157.000000 
0.000000 19.000000 158.000000 
0.000000 19.000000 159.000000 
0.000000 19.000000 160.000000 
0.000000 19.000000 161.000000 
0.000000 19.000000 162.000000 
0.000000 19.000000 163.000000 
0.000000 19.000000 164.000000 
0.000000 19.000000 165.000000 
0.000000 19.000000 166.000000 
0.000000 19.000000 167.000000 
0.000000 19.000000 168.000000 
0.000000 19.000000 169.000000 
0.000000 19.000000 170.000000 
0.000000 19.000000 171.000000 
0.000000 19.000000 172.000000 
0.000000 19.000000 173.000000 
0.000000 19.000000 174.000000 
0.000000 19.000000 175.000000 
0.000000 19.000000 176.000000 
0.000000 19.000000 177.000000 
0.000000 19.000000 178.000000 
0.000000 19.000000 179.000000 
0.000000 19.000000 180.000000 
0.000000 19.000000 181.000000 
0.000000 19.000000 182.000000 
0.000000 19.000000 183.000000 
0.000000 19.000000 184.000000 
0.000000 19.000000 185.000000 
0.000000 19.000000 186.000000 
0.000000 19.000000 187.000000 
0.000000 19.000000 188.000000 
0.000000 19.000000 189.000000 
0.000000 19.000000 190.000000 
0.000000 19.000000 191.000000 
0.000000 19.000000 192.000000 
0.000000 19.000000 193.000000 
0.000000 19.000000 194.000000 
0.000000 19.000000 195.000000 
0.000000 19.000000 196.000000 
0.000000 19.000000 197.000000 
0.000000 19.000000 198.000000 
0.000000 19.000000 199.000000 
0.000000 19.000000 200.000000 
0.000000 20.000000 0.000000 
0.000000 20.000000 1.000000 
0.000000 20.000000 2.000000 
0.000000 20.000000 3.000000 
0.000000 20.000000 4.000000 
0.000000 20.000000 5.000000 
0.000000 20.000000 6.000000 
0.000000 20.000000 7.000000 
0.000000 20.000000 8.000000 
0.000000 20.000000 9.000000 
0.000000 20.000000 10.000000 
0.000000 20.000000 11.000000 
0.000000 20.000000 12.000000 
0.000000 20.000000 13.000000 
0.000000 20.000000 14.000000 
0.000000 20.000000 15.000000 
0.000000 20.000000 16.000000 
0.000000 20.000000 17.000000 
0.000000 20.000000 18.000000 
0.000000 20.000000 19.000000 
0.000000 20.000000 20.000000 
0.000000 20.000000 21.000000 
0.000000 20.000000 22.000000 
0.000000 20.000000 23.000000 
0.000000 20.000000 24.000000 
0.000000 20.000000 25.000000 
0.000000 20.000000 26.000000 
0.000000 20.000000 27.000000 
0.000000 20.000000 28.000000 
0.000000 20.000000 29.000000 
0.000000 20.000000 30.000000 
0.000000 20.000000 31.000000 
0.000000 20.000000 32.000000 
0.000000 20.000000 33.000000 
0.000000 20.000000 34.000000 
0.000000 20.000000 35.000000 
0.000000 20.000000 36.000000 
0.000000 20.000000 37.000000 
0.000000 20.000000 38.000000 
0.000000 20.000000 39.000000 
0.000000 20.000000 40.000000 
0.000000 20.000000 41.000000 
0.000000 20.000000 42.000000 
0.000000 20.000000 43.000000 
0.000000 20.000000 44.000000 
0.000000 20.000000 45.000000 
0.000000 20.000000 46.000000 
0.000000 20.000000 47.000000 
0.000000 20.000000 48.000000 
0.000000 20.000000 49.000000 
0.000000 20.000000 50.000000 
0.000000 20.000000 51.000000 
0.000000 20.000000 52.000000 
0.000000 20.000000 53.000000 
0.000000 20.000000 54.000000 
0.000000 20.000000 55.000000 
0.000000 20.000000 56.000000 
0.000000 20.000000 57.000000 
0.000000 20.000000 58.000000 
0.000000 20.000000 59.000000 
0.000000 20.000000 60.000000 
0.000000 20.000000 61.000000 
0.000000 20.000000 62.000000 
0.000000 20.000000 63.000000 
0.000000 20.000000 64.000000 
0.000000 20.000000 65.000000 
0.000000 20.000000 66.000000 
0.000000 20.000000 67.000000 
0.000000 20.000000 68.000000 
0.000000 20.000000 69.000000 
0.000000 20.000000 70.000000 
0.000000 20.000000 71.000000 
0.000000 20.000000 72.000000 
0.000000 20.000000 73.000000 
0.000000 20.000000 74.000000 
0.000000 20.000000 75.000000 
0.000000 20.000000 76.000000 
0.000000 20.000000 77.000000 
0.000000 20.000000 78.000000 
0.000000 20.000000 79.000000 
0.000000 20.000000 80.000000 
0.000000 20.000000 81.000000 
0.000000 20.000000 82.000000 
0.000000 20.000000 83.000000 
0.000000 20.000000 84.000000 
0.000000 20.000000 85.000000 
0.000000 20.000000 86.000000 
0.000000 20.000000 87.000000 
0.000000 20.000000 88.000000 
0.000000 20.000000 89.000000 
0.000000 20.000000 90.000000 
0.000000 20.000000 91.000000 
0.000000 20.000000 92.000000 
0.000000 20.000000 93.000000 
0.000000 20.000000 94.000000 
0.000000 20.000000 95.000000 
0.000000 20.000000 96.000000 
0.000000 20.000000 97.000000 
0.000000 20.000000 98.000000 
0.000000 20.000000 99.000000 
0.000000 20.000000 100.000000 
0.000000 20.000000 101.000000 
0.000000 20.000000 102.000000 
0.000000 20.000000 103.000000 
0.000000 20.000000 104.000000 
0.000000 20.000000 105.000000 
0.000000 20.000000 106.000000 
0.000000 20.000000 107.000000 
0.000000 20.000000 108.000000 
0.000000 20.000000 109.000000 
0.000000 20.000000 110.000000 
0.000000 20.000000 111.000000 
0.000000 20.000000 112.000000 
0.000000 20.000000 113.000000 
0.000000 20.000000 114.000000 
0.000000 20.000000 115.000000 
0.000000 20.000000 116.000000 
0.000000 20.000000 117.000000 
0.000000 20.000000 118.000000 
0.000000 20.000000 119.000000 
0.000000 20.000000 120.000000 
0.000000 20.000000 121.000000 
0.000000 20.000000 122.000000 
0.000000 20.000000 123.000000 
0.000000 20.000000 124.000000 
0.000000 20.000000 125.000000 
0.000000 20.000000 126.000000 
0.000000 20.000000 127.000000 
0.000000 20.000000 128.000000 
0.000000 20.000000 129.000000 
0.000000 20.000000 130.000000 
0.000000 20.000000 131.000000 
0.000000 20.000000 132.000000 
0.000000 20.000000 133.000000 
0.000000 20.000000 134.000000 
0.000000 20.000000 135.000000 
0.000000 20.000000 136.000000 
0.000000 20.000000 137.000000 
0.000000 20.000000 138.000000 
0.000000 20.000000 139.000000 
0.000000 20.000000 140.000000 
0.000000 20.000000 141.000000 
0.000000 20.000000 142.000000 
0.000000 20.000000 143.000000 
0.000000 20.000000 144.000000 
0.000000 20.000000 145.000000 
0.000000 20.000000 146.000000 
0.000000 20.000000 147.000000 
0.000000 20.000000 148.000000 
0.000000 20.000000 149.000000 
0.000000 20.000000 150.000000 
0.000000 20.000000 151.000000 
0.000000 20.000000 152.000000 
0.000000 20.000000 153.000000 
0.000000 20.000000 154.000000 
0.000000 20.000000 155.000000 
0.000000 20.000000 156.000000 
0.000000 20.000000 157.000000 
0.000000 20.000000 158.000000 
0.000000 20.000000 159.000000 
0.000000 20.000000 160.000000 
0.000000 20.000000 161.000000 
0.000000 20.000000 162.000000 
0.000000 20.000000 163.000000 
0.000000 20.000000 164.000000 
0.000000 20.000000 165.000000 
0.000000 20.000000 166.000000 
0.000000 20.000000 167.000000 
0.000000 20.000000 168.000000 
0.000000 20.000000 169.000000 
0.000000 20.000000 170.000000 
0.000000 20.000000 171.000000 
0.000000 20.000000 172.000000 
0.000000 20.000000 173.000000 
0.000000 20.000000 174.000000 
0.000000 20.000000 175.000000 
0.000000 20.000000 176.000000 
0.000000 20.000000 177.000000 
0.000000 20.000000 178.000000 
0.000000 20.000000 179.000000 
0.000000 20.000000 180.000000 
0.000000 20.000000 181.000000 
0.000000 20.000000 182.000000 
0.000000 20.000000 183.000000 
0.000000 20.000000 184.000000 
0.000000 20.000000 185.000000 
0.000000 20.000000 186.000000 
0.000000 20.000000 187.000000 
0.000000 20.000000 188.000000 
0.000000 20.000000 189.000000 
0.000000 20.000000 190.000000 
0.000000 20.000000 191.000000 
0.000000 20.000000 192.000000 
0.000000 20.000000 193.000000 
0.000000 20.000000 194.000000 
0.000000 20.000000 195.000000 
0.000000 20.000000 196.000000 
0.000000 20.000000 197.000000 
0.000000 20.000000 198.000000 
0.000000 20.000000 199.000000 
0.000000 20.000000 200.000000 
0.000000 21.000000 0.000000 
0.000000 21.000000 1.000000 
0.000000 21.000000 2.000000 
0.000000 21.000000 3.000000 
0.000000 21.000000 4.000000 
0.000000 21.000000 5.000000 
0.000000 21.000000 6.000000 
0.000000 21.000000 7.000000 
0.000000 21.000000 8.000000 
0.000000 21.000000 9.000000 
0.000000 21.000000 10.000000 
0.000000 21.000000 11.000000 
0.000000 21.000000 12.000000 
0.000000 21.000000 13.000000 
0.000000 21.000000 14.000000 
0.000000 21.000000 15.000000 
0.000000 21.000000 16.000000 
0.000000 21.000000 17.000000 
0.000000 21.000000 18.000000 
0.000000 21.000000 19.000000 
0.000000 21.000000 20.000000 
0.000000 21.000000 21.000000 
0.000000 21.000000 22.000000 
0.000000 21.000000 23.000000 
0.000000 21.000000 24.000000 
0.000000 21.000000 25.000000 
0.000000 21.000000 26.000000 
0.000000 21.000000 27.000000 
0.000000 21.000000 28.000000 
0.000000 21.000000 29.000000 
0.000000 21.000000 30.000000 
0.000000 21.000000 31.000000 
0.000000 21.000000 32.000000 
0.000000 21.000000 33.000000 
0.000000 21.000000 34.000000 
0.000000 21.000000 35.000000 
0.000000 21.000000 36.000000 
0.000000 21.000000 37.000000 
0.000000 21.000000 38.000000 
0.000000 21.000000 39.000000 
0.000000 21.000000 40.000000 
0.000000 21.000000 41.000000 
0.000000 21.000000 42.000000 
0.000000 21.000000 43.000000 
0.000000 21.000000 44.000000 
0.000000 21.000000 45.000000 
0.000000 21.000000 46.000000 
0.000000 21.000000 47.000000 
0.000000 21.000000 48.000000 
0.000000 21.000000 49.000000 
0.000000 21.000000 50.000000 
0.000000 21.000000 51.000000 
0.000000 21.000000 52.000000 
0.000000 21.000000 53.000000 
0.000000 21.000000 54.000000 
0.000000 21.000000 55.000000 
0.000000 21.000000 56.000000 
0.000000 21.000000 57.000000 
0.000000 21.000000 58.000000 
0.000000 21.000000 59.000000 
0.000000 21.000000 60.000000 
0.000000 21.000000 61.000000 
0.000000 21.000000 62.000000 
0.000000 21.000000 63.000000 
0.000000 21.000000 64.000000 
0.000000 21.000000 65.000000 
0.000000 21.000000 66.000000 
0.000000 21.000000 67.000000 
0.000000 21.000000 68.000000 
0.000000 21.000000 69.000000 
0.000000 21.000000 70.000000 
0.000000 21.000000 71.000000 
0.000000 21.000000 72.000000 
0.000000 21.000000 73.000000 
0.000000 21.000000 74.000000 
0.000000 21.000000 75.000000 
0.000000 21.000000 76.000000 
0.000000 21.000000 77.000000 
0.000000 21.000000 78.000000 
0.000000 21.000000 79.000000 
0.000000 21.000000 80.000000 
0.000000 21.000000 81.000000 
0.000000 21.000000 82.000000 
0.000000 21.000000 83.000000 
0.000000 21.000000 84.000000 
0.000000 21.000000 85.000000 
0.000000 21.000000 86.000000 
0.000000 21.000000 87.000000 
0.000000 21.000000 88.000000 
0.000000 21.000000 89.000000 
0.000000 21.000000 90.000000 
0.000000 21.000000 91.000000 
0.000000 21.000000 92.000000 
0.000000 21.000000 93.000000 
0.000000 21.000000 94.000000 
0.000000 21.000000 95.000000 
0.000000 21.000000 96.000000 
0.000000 21.000000 97.000000 
0.000000 21.000000 98.000000 
0.000000 21.000000 99.000000 
0.000000 21.000000 100.000000 
0.000000 21.000000 101.000000 
0.000000 21.000000 102.000000 
0.000000 21.000000 103.000000 
0.000000 21.000000 104.000000 
0.000000 21.000000 105.000000 
0.000000 21.000000 106.000000 
0.000000 21.000000 107.000000 
0.000000 21.000000 108.000000 
0.000000 21.000000 109.000000 
0.000000 21.000000 110.000000 
0.000000 21.000000 111.000000 
0.000000 21.000000 112.000000 
0.000000 21.000000 113.000000 
0.000000 21.000000 114.000000 
0.000000 21.000000 115.000000 
0.000000 21.000000 116.000000 
0.000000 21.000000 117.000000 
0.000000 21.000000 118.000000 
0.000000 21.000000 119.000000 
0.000000 21.000000 120.000000 
0.000000 21.000000 121.000000 
0.000000 21.000000 122.000000 
0.000000 21.000000 123.000000 
0.000000 21.000000 124.000000 
0.000000 21.000000 125.000000 
0.000000 21.000000 126.000000 
0.000000 21.000000 127.000000 
0.000000 21.000000 128.000000 
0.000000 21.000000 129.000000 
0.000000 21.000000 130.000000 
0.000000 21.000000 131.000000 
0.000000 21.000000 132.000000 
0.000000 21.000000 133.000000 
0.000000 21.000000 134.000000 
0.000000 21.000000 135.000000 
0.000000 21.000000 136.000000 
0.000000 21.000000 137.000000 
0.000000 21.000000 138.000000 
0.000000 21.000000 139.000000 
0.000000 21.000000 140.000000 
0.000000 21.000000 141.000000 
0.000000 21.000000 142.000000 
0.000000 21.000000 143.000000 
0.000000 21.000000 144.000000 
0.000000 21.000000 145.000000 
0.000000 21.000000 146.000000 
0.000000 21.000000 147.000000 
0.000000 21.000000 148.000000 
0.000000 21.000000 149.000000 
0.000000 21.000000 150.000000 
0.000000 21.000000 151.000000 
0.000000 21.000000 152.000000 
0.000000 21.000000 153.000000 
0.000000 21.000000 154.000000 
0.000000 21.000000 155.000000 
0.000000 21.000000 156.000000 
0.000000 21.000000 157.000000 
0.000000 21.000000 158.000000 
0.000000 21.000000 159.000000 
0.000000 21.000000 160.000000 
0.000000 21.000000 161.000000 
0.000000 21.000000 162.000000 
0.000000 21.000000 163.000000 
0.000000 21.000000 164.000000 
0.000000 21.000000 165.000000 
0.000000 21.000000 166.000000 
0.000000 21.000000 167.000000 
0.000000 21.000000 168.000000 
0.000000 21.000000 169.000000 
0.000000 21.000000 170.000000 
0.000000 21.000000 171.000000 
0.000000 21.000000 172.000000 
0.000000 21.000000 173.000000 
0.000000 21.000000 174.000000 
0.000000 21.000000 175.000000 
0.000000 21.000000 176.000000 
0.000000 21.000000 177.000000 
0.000000 21.000000 178.000000 
0.000000 21.000000 179.000000 
0.000000 21.000000 180.000000 
0.000000 21.000000 181.000000 
0.000000 21.000000 182.000000 
0.000000 21.000000 183.000000 
0.000000 21.000000 184.000000 
0.000000 21.000000 185.000000 
0.000000 21.000000 186.000000 
0.000000 21.000000 187.000000 
0.000000 21.000000 188.000000 
0.000000 21.000000 189.000000 
0.000000 21.000000 190.000000 
0.000000 21.000000 191.000000 
0.000000 21.000000 192.000000 
0.000000 21.000000 193.000000 
0.000000 21.000000 194.000000 
0.000000 21.000000 195.000000 
0.000000 21.000000 196.000000 
0.000000 21.000000 197.000000 
0.000000 21.000000 198.000000 
0.000000 21.000000 199.000000 
0.000000 21.000000 200.000000 
0.000000 22.000000 0.000000 
0.000000 22.000000 1.000000 
0.000000 22.000000 2.000000 
0.000000 22.000000 3.000000 
0.000000 22.000000 4.000000 
0.000000 22.000000 5.000000 
0.000000 22.000000 6.000000 
0.000000 22.000000 7.000000 
0.000000 22.000000 8.000000 
0.000000 22.000000 9.000000 
0.000000 22.000000 10.000000 
0.000000 22.000000 11.000000 
0.000000 22.000000 12.000000 
0.000000 22.000000 13.000000 
0.000000 22.000000 14.000000 
0.000000 22.000000 15.000000 
0.000000 22.000000 16.000000 
0.000000 22.000000 17.000000 
0.000000 22.000000 18.000000 
0.000000 22.000000 19.000000 
0.000000 22.000000 20.000000 
0.000000 22.000000 21.000000 
0.000000 22.000000 22.000000 
0.000000 22.000000 23.000000 
0.000000 22.000000 24.000000 
0.000000 22.000000 25.000000 
0.000000 22.000000 26.000000 
0.000000 22.000000 27.000000 
0.000000 22.000000 28.000000 
0.000000 22.000000 29.000000 
0.000000 22.000000 30.000000 
0.000000 22.000000 31.000000 
0.000000 22.000000 32.000000 
0.000000 22.000000 33.000000 
0.000000 22.000000 34.000000 
0.000000 22.000000 35.000000 
0.000000 22.000000 36.000000 
0.000000 22.000000 37.000000 
0.000000 22.000000 38.000000 
0.000000 22.000000 39.000000 
0.000000 22.000000 40.000000 
0.000000 22.000000 41.000000 
0.000000 22.000000 42.000000 
0.000000 22.000000 43.000000 
0.000000 22.000000 44.000000 
0.000000 22.000000 45.000000 
0.000000 22.000000 46.000000 
0.000000 22.000000 47.000000 
0.000000 22.000000 48.000000 
0.000000 22.000000 49.000000 
0.000000 22.000000 50.000000 
0.000000 22.000000 51.000000 
0.000000 22.000000 52.000000 
0.000000 22.000000 53.000000 
0.000000 22.000000 54.000000 
0.000000 22.000000 55.000000 
0.000000 22.000000 56.000000 
0.000000 22.000000 57.000000 
0.000000 22.000000 58.000000 
0.000000 22.000000 59.000000 
0.000000 22.000000 60.000000 
0.000000 22.000000 61.000000 
0.000000 22.000000 62.000000 
0.000000 22.000000 63.000000 
0.000000 22.000000 64.000000 
0.000000 22.000000 65.000000 
0.000000 22.000000 66.000000 
0.000000 22.000000 67.000000 
0.000000 22.000000 68.000000 
0.000000 22.000000 69.000000 
0.000000 22.000000 70.000000 
0.000000 22.000000 71.000000 
0.000000 22.000000 72.000000 
0.000000 22.000000 73.000000 
0.000000 22.000000 74.000000 
0.000000 22.000000 75.000000 
0.000000 22.000000 76.000000 
0.000000 22.000000 77.000000 
0.000000 22.000000 78.000000 
0.000000 22.000000 79.000000 
0.000000 22.000000 80.000000 
0.000000 22.000000 81.000000 
0.000000 22.000000 82.000000 
0.000000 22.000000 83.000000 
0.000000 22.000000 84.000000 
0.000000 22.000000 85.000000 
0.000000 22.000000 86.000000 
0.000000 22.000000 87.000000 
0.000000 22.000000 88.000000 
0.000000 22.000000 89.000000 
0.000000 22.000000 90.000000 
0.000000 22.000000 91.000000 
0.000000 22.000000 92.000000 
0.000000 22.000000 93.000000 
0.000000 22.000000 94.000000 
0.000000 22.000000 95.000000 
0.000000 22.000000 96.000000 
0.000000 22.000000 97.000000 
0.000000 22.000000 98.000000 
0.000000 22.000000 99.000000 
0.000000 22.000000 100.000000 
0.000000 22.000000 101.000000 
0.000000 22.000000 102.000000 
0.000000 22.000000 103.000000 
0.000000 22.000000 104.000000 
0.000000 22.000000 105.000000 
0.000000 22.000000 106.000000 
0.000000 22.000000 107.000000 
0.000000 22.000000 108.000000 
0.000000 22.000000 109.000000 
0.000000 22.000000 110.000000 
0.000000 22.000000 111.000000 
0.000000 22.000000 112.000000 
0.000000 22.000000 113.000000 
0.000000 22.000000 114.000000 
0.000000 22.000000 115.000000 
0.000000 22.000000 116.000000 
0.000000 22.000000 117.000000 
0.000000 22.000000 118.000000 
0.000000 22.000000 119.000000 
0.000000 22.000000 120.000000 
0.000000 22.000000 121.000000 
0.000000 22.000000 122.000000 
0.000000 22.000000 123.000000 
0.000000 22.000000 124.000000 
0.000000 22.000000 125.000000 
0.000000 22.000000 126.000000 
0.000000 22.000000 127.000000 
0.000000 22.000000 128.000000 
0.000000 22.000000 129.000000 
0.000000 22.000000 130.000000 
0.000000 22.000000 131.000000 
0.000000 22.000000 132.000000 
0.000000 22.000000 133.000000 
0.000000 22.000000 134.000000 
0.000000 22.000000 135.000000 
0.000000 22.000000 136.000000 
0.000000 22.000000 137.000000 
0.000000 22.000000 138.000000 
0.000000 22.000000 139.000000 
0.000000 22.000000 140.000000 
0.000000 22.000000 141.000000 
0.000000 22.000000 142.000000 
0.000000 22.000000 143.000000 
0.000000 22.000000 144.000000 
0.000000 22.000000 145.000000 
0.000000 22.000000 146.000000 
0.000000 22.000000 147.000000 
0.000000 22.000000 148.000000 
0.000000 22.000000 149.000000 
0.000000 22.000000 150.000000 
0.000000 22.000000 151.000000 
0.000000 22.000000 152.000000 
0.000000 22.000000 153.000000 
0.000000 22.000000 154.000000 
0.000000 22.000000 155.000000 
0.000000 22.000000 156.000000 
0.000000 22.000000 157.000000 
0.000000 22.000000 158.000000 
0.000000 22.000000 159.000000 
0.000000 22.000000 160.000000 
0.000000 22.000000 161.000000 
0.000000 22.000000 162.000000 
0.000000 22.000000 163.000000 
0.000000 22.000000 164.000000 
0.000000 22.000000 165.000000 
0.000000 22.000000 166.000000 
0.000000 22.000000 167.000000 
0.000000 22.000000 168.000000 
0.000000 22.000000 169.000000 
0.000000 22.000000 170.000000 
0.000000 22.000000 171.000000 
0.000000 22.000000 172.000000 
0.000000 22.000000 173.000000 
0.000000 22.000000 174.000000 
0.000000 22.000000 175.000000 
0.000000 22.000000 176.000000 
0.000000 22.000000 177.000000 
0.000000 22.000000 178.000000 
0.000000 22.000000 179.000000 
0.000000 22.000000 180.000000 
0.000000 22.000000 181.000000 
0.000000 22.000000 182.000000 
0.000000 22.000000 183.000000 
0.000000 22.000000 184.000000 
0.000000 22.000000 185.000000 
0.000000 22.000000 186.000000 
0.000000 22.000000 187.000000 
0.000000 22.000000 188.000000 
0.000000 22.000000 189.000000 
0.000000 22.000000 190.000000 
0.000000 22.000000 191.000000 
0.000000 22.000000 192.000000 
0.000000 22.000000 193.000000 
0.000000 22.000000 194.000000 
0.000000 22.000000 195.000000 
0.000000 22.000000 196.000000 
0.000000 22.000000 197.000000 
0.000000 22.000000 198.000000 
0.000000 22.000000 199.000000 
0.000000 22.000000 200.000000 
0.000000 23.000000 0.000000 
0.000000 23.000000 1.000000 
0.000000 23.000000 2.000000 
0.000000 23.000000 3.000000 
0.000000 23.000000 4.000000 
0.000000 23.000000 5.000000 
0.000000 23.000000 6.000000 
0.000000 23.000000 7.000000 
0.000000 23.000000 8.000000 
0.000000 23.000000 9.000000 
0.000000 23.000000 10.000000 
0.000000 23.000000 11.000000 
0.000000 23.000000 12.000000 
0.000000 23.000000 13.000000 
0.000000 23.000000 14.000000 
0.000000 23.000000 15.000000 
0.000000 23.000000 16.000000 
0.000000 23.000000 17.000000 
0.000000 23.000000 18.000000 
0.000000 23.000000 19.000000 
0.000000 23.000000 20.000000 
0.000000 23.000000 21.000000 
0.000000 23.000000 22.000000 
0.000000 23.000000 23.000000 
0.000000 23.000000 24.000000 
0.000000 23.000000 25.000000 
0.000000 23.000000 26.000000 
0.000000 23.000000 27.000000 
0.000000 23.000000 28.000000 
0.000000 23.000000 29.000000 
0.000000 23.000000 30.000000 
0.000000 23.000000 31.000000 
0.000000 23.000000 32.000000 
0.000000 23.000000 33.000000 
0.000000 23.000000 34.000000 
0.000000 23.000000 35.000000 
0.000000 23.000000 36.000000 
0.000000 23.000000 37.000000 
0.000000 23.000000 38.000000 
0.000000 23.000000 39.000000 
0.000000 23.000000 40.000000 
0.000000 23.000000 41.000000 
0.000000 23.000000 42.000000 
0.000000 23.000000 43.000000 
0.000000 23.000000 44.000000 
0.000000 23.000000 45.000000 
0.000000 23.000000 46.000000 
0.000000 23.000000 47.000000 
0.000000 23.000000 48.000000 
0.000000 23.000000 49.000000 
0.000000 23.000000 50.000000 
0.000000 23.000000 51.000000 
0.000000 23.000000 52.000000 
0.000000 23.000000 53.000000 
0.000000 23.000000 54.000000 
0.000000 23.000000 55.000000 
0.000000 23.000000 56.000000 
0.000000 23.000000 57.000000 
0.000000 23.000000 58.000000 
0.000000 23.000000 59.000000 
0.000000 23.000000 60.000000 
0.000000 23.000000 61.000000 
0.000000 23.000000 62.000000 
0.000000 23.000000 63.000000 
0.000000 23.000000 64.000000 
0.000000 23.000000 65.000000 
0.000000 23.000000 66.000000 
0.000000 23.000000 67.000000 
0.000000 23.000000 68.000000 
0.000000 23.000000 69.000000 
0.000000 23.000000 70.000000 
0.000000 23.000000 71.000000 
0.000000 23.000000 72.000000 
0.000000 23.000000 73.000000 
0.000000 23.000000 74.000000 
0.000000 23.000000 75.000000 
0.000000 23.000000 76.000000 
0.000000 23.000000 77.000000 
0.000000 23.000000 78.000000 
0.000000 23.000000 79.000000 
0.000000 23.000000 80.000000 
0.000000 23.000000 81.000000 
0.000000 23.000000 82.000000 
0.000000 23.000000 83.000000 
0.000000 23.000000 84.000000 
0.000000 23.000000 85.000000 
0.000000 23.000000 86.000000 
0.000000 23.000000 87.000000 
0.000000 23.000000 88.000000 
0.000000 23.000000 89.000000 
0.000000 23.000000 90.000000 
0.000000 23.000000 91.000000 
0.000000 23.000000 92.000000 
0.000000 23.000000 93.000000 
0.000000 23.000000 94.000000 
0.000000 23.000000 95.000000 
0.000000 23.000000 96.000000 
0.000000 23.000000 97.000000 
0.000000 23.000000 98.000000 
0.000000 23.000000 99.000000 
0.000000 23.000000 100.000000 
0.000000 23.000000 101.000000 
0.000000 23.000000 102.000000 
0.000000 23.000000 103.000000 
0.000000 23.000000 104.000000 
0.000000 23.000000 105.000000 
0.000000 23.000000 106.000000 
0.000000 23.000000 107.000000 
0.000000 23.000000 108.000000 
0.000000 23.000000 109.000000 
0.000000 23.000000 110.000000 
0.000000 23.000000 111.000000 
0.000000 23.000000 112.000000 
0.000000 23.000000 113.000000 
0.000000 23.000000 114.000000 
0.000000 23.000000 115.000000 
0.000000 23.000000 116.000000 
0.000000 23.000000 117.000000 
0.000000 23.000000 118.000000 
0.000000 23.000000 119.000000 
0.000000 23.000000 120.000000 
0.000000 23.000000 121.000000 
0.000000 23.000000 122.000000 
0.000000 23.000000 123.000000 
0.000000 23.000000 124.000000 
0.000000 23.000000 125.000000 
0.000000 23.000000 126.000000 
0.000000 23.000000 127.000000 
0.000000 23.000000 128.000000 
0.000000 23.000000 129.000000 
0.000000 23.000000 130.000000 
0.000000 23.000000 131.000000 
0.000000 23.000000 132.000000 
0.000000 23.000000 133.000000 
0.000000 23.000000 134.000000 
0.000000 23.000000 135.000000 
0.000000 23.000000 136.000000 
0.000000 23.000000 137.000000 
0.000000 23.000000 138.000000 
0.000000 23.000000 139.000000 
0.000000 23.000000 140.000000 
0.000000 23.000000 141.000000 
0.000000 23.000000 142.000000 
0.000000 23.000000 143.000000 
0.000000 23.000000 144.000000 
0.000000 23.000000 145.000000 
0.000000 23.000000 146.000000 
0.000000 23.000000 147.000000 
0.000000 23.000000 148.000000 
0.000000 23.000000 149.000000 
0.000000 23.000000 150.000000 
0.000000 23.000000 151.000000 
0.000000 23.000000 152.000000 
0.000000 23.000000 153.000000 
0.000000 23.000000 154.000000 
0.000000 23.000000 155.000000 
0.000000 23.000000 156.000000 
0.000000 23.000000 157.000000 
0.000000 23.000000 158.000000 
0.000000 23.000000 159.000000 
0.000000 23.000000 160.000000 
0.000000 23.000000 161.000000 
0.000000 23.000000 162.000000 
0.000000 23.000000 163.000000 
0.000000 23.000000 164.000000 
0.000000 23.000000 165.000000 
0.000000 23.000000 166.000000 
0.000000 23.000000 167.000000 
0.000000 23.000000 168.000000 
0.000000 23.000000 169.000000 
0.000000 23.000000 170.000000 
0.000000 23.000000 171.000000 
0.000000 23.000000 172.000000 
0.000000 23.000000 173.000000 
0.000000 23.000000 174.000000 
0.000000 23.000000 175.000000 
0.000000 23.000000 176.000000 
0.000000 23.000000 177.000000 
0.000000 23.000000 178.000000 
0.000000 23.000000 179.000000 
0.000000 23.000000 180.000000 
0.000000 23.000000 181.000000 
0.000000 23.000000 182.000000 
0.000000 23.000000 183.000000 
0.000000 23.000000 184.000000 
0.000000 23.000000 185.000000 
0.000000 23.000000 186.000000 
0.000000 23.000000 187.000000 
0.000000 23.000000 188.000000 
0.000000 23.000000 189.000000 
0.000000 23.000000 190.000000 
0.000000 23.000000 191.000000 
0.000000 23.000000 192.000000 
0.000000 23.000000 193.000000 
0.000000 23.000000 194.000000 
0.000000 23.000000 195.000000 
0.000000 23.000000 196.000000 
0.000000 23.000000 197.000000 
0.000000 23.000000 198.000000 
0.000000 23.000000 199.000000 
0.000000 23.000000 200.000000 
0.000000 24.000000 0.000000 
0.000000 24.000000 1.000000 
0.000000 24.000000 2.000000 
0.000000 24.000000 3.000000 
0.000000 24.000000 4.000000 
0.000000 24.000000 5.000000 
0.000000 24.000000 6.000000 
0.000000 24.000000 7.000000 
0.000000 24.000000 8.000000 
0.000000 24.000000 9.000000 
0.000000 24.000000 10.000000 
0.000000 24.000000 11.000000 
0.000000 24.000000 12.000000 
0.000000 24.000000 13.000000 
0.000000 24.000000 14.000000 
0.000000 24.000000 15.000000 
0.000000 24.000000 16.000000 
0.000000 24.000000 17.000000 
0.000000 24.000000 18.000000 
0.000000 24.000000 19.000000 
0.000000 24.000000 20.000000 
0.000000 24.000000 21.000000 
0.000000 24.000000 22.000000 
0.000000 24.000000 23.000000 
0.000000 24.000000 24.000000 
0.000000 24.000000 25.000000 
0.000000 24.000000 26.000000 
0.000000 24.000000 27.000000 
0.000000 24.000000 28.000000 
0.000000 24.000000 29.000000 
0.000000 24.000000 30.000000 
0.000000 24.000000 31.000000 
0.000000 24.000000 32.000000 
0.000000 24.000000 33.000000 
0.000000 24.000000 34.000000 
0.000000 24.000000 35.000000 
0.000000 24.000000 36.000000 
0.000000 24.000000 37.000000 
0.000000 24.000000 38.000000 
0.000000 24.000000 39.000000 
0.000000 24.000000 40.000000 
0.000000 24.000000 41.000000 
0.000000 24.000000 42.000000 
0.000000 24.000000 43.000000 
0.000000 24.000000 44.000000 
0.000000 24.000000 45.000000 
0.000000 24.000000 46.000000 
0.000000 24.000000 47.000000 
0.000000 24.000000 48.000000 
0.000000 24.000000 49.000000 
0.000000 24.000000 50.000000 
0.000000 24.000000 51.000000 
0.000000 24.000000 52.000000 
0.000000 24.000000 53.000000 
0.000000 24.000000 54.000000 
0.000000 24.000000 55.000000 
0.000000 24.000000 56.000000 
0.000000 24.000000 57.000000 
0.000000 24.000000 58.000000 
0.000000 24.000000 59.000000 
0.000000 24.000000 60.000000 
0.000000 24.000000 61.000000 
0.000000 24.000000 62.000000 
0.000000 24.000000 63.000000 
0.000000 24.000000 64.000000 
0.000000 24.000000 65.000000 
0.000000 24.000000 66.000000 
0.000000 24.000000 67.000000 
0.000000 24.000000 68.000000 
0.000000 24.000000 69.000000 
0.000000 24.000000 70.000000 
0.000000 24.000000 71.000000 
0.000000 24.000000 72.000000 
0.000000 24.000000 73.000000 
0.000000 24.000000 74.000000 
0.000000 24.000000 75.000000 
0.000000 24.000000 76.000000 
0.000000 24.000000 77.000000 
0.000000 24.000000 78.000000 
0.000000 24.000000 79.000000 
0.000000 24.000000 80.000000 
0.000000 24.000000 81.000000 
0.000000 24.000000 82.000000 
0.000000 24.000000 83.000000 
0.000000 24.000000 84.000000 
0.000000 24.000000 85.000000 
0.000000 24.000000 86.000000 
0.000000 24.000000 87.000000 
0.000000 24.000000 88.000000 
0.000000 24.000000 89.000000 
0.000000 24.000000 90.000000 
0.000000 24.000000 91.000000 
0.000000 24.000000 92.000000 
0.000000 24.000000 93.000000 
0.000000 24.000000 94.000000 
0.000000 24.000000 95.000000 
0.000000 24.000000 96.000000 
0.000000 24.000000 97.000000 
0.000000 24.000000 98.000000 
0.000000 24.000000 99.000000 
0.000000 24.000000 100.000000 
0.000000 24.000000 101.000000 
0.000000 24.000000 102.000000 
0.000000 24.000000 103.000000 
0.000000 24.000000 104.000000 
0.000000 24.000000 105.000000 
0.000000 24.000000 106.000000 
0.000000 24.000000 107.000000 
0.000000 24.000000 108.000000 
0.000000 24.000000 109.000000 
0.000000 24.000000 110.000000 
0.000000 24.000000 111.000000 
0.000000 24.000000 112.000000 
0.000000 24.000000 113.000000 
0.000000 24.000000 114.000000 
0.000000 24.000000 115.000000 
0.000000 24.000000 116.000000 
0.000000 24.000000 117.000000 
0.000000 24.000000 118.000000 
0.000000 24.000000 119.000000 
0.000000 24.000000 120.000000 
0.000000 24.000000 121.000000 
0.000000 24.000000 122.000000 
0.000000 24.000000 123.000000 
0.000000 24.000000 124.000000 
0.000000 24.000000 125.000000 
0.000000 24.000000 126.000000 
0.000000 24.000000 127.000000 
0.000000 24.000000 128.000000 
0.000000 24.000000 129.000000 
0.000000 24.000000 130.000000 
0.000000 24.000000 131.000000 
0.000000 24.000000 132.000000 
0.000000 24.000000 133.000000 
0.000000 24.000000 134.000000 
0.000000 24.000000 135.000000 
0.000000 24.000000 136.000000 
0.000000 24.000000 137.000000 
0.000000 24.000000 138.000000 
0.000000 24.000000 139.000000 
0.000000 24.000000 140.000000 
0.000000 24.000000 141.000000 
0.000000 24.000000 142.000000 
0.000000 24.000000 143.000000 
0.000000 24.000000 144.000000 
0.000000 24.000000 145.000000 
0.000000 24.000000 146.000000 
0.000000 24.000000 147.000000 
0.000000 24.000000 148.000000 
0.000000 24.000000 149.000000 
0.000000 24.000000 150.000000 
0.000000 24.000000 151.000000 
0.000000 24.000000 152.000000 
0.000000 24.000000 153.000000 
0.000000 24.000000 154.000000 
0.000000 24.000000 155.000000 
0.000000 24.000000 156.000000 
0.000000 24.000000 157.000000 
0.000000 24.000000 158.000000 
0.000000 24.000000 159.000000 
0.000000 24.000000 160.000000 
0.000000 24.000000 161.000000 
0.000000 24.000000 162.000000 
0.000000 24.000000 163.000000 
0.000000 24.000000 164.000000 
0.000000 24.000000 165.000000 
0.000000 24.000000 166.000000 
0.000000 24.000000 167.000000 
0.000000 24.000000 168.000000 
0.000000 24.000000 169.000000 
0.000000 24.000000 170.000000 
0.000000 24.000000 171.000000 
0.000000 24.000000 172.000000 
0.000000 24.000000 173.000000 
0.000000 24.000000 174.000000 
0.000000 24.000000 175.000000 
0.000000 24.000000 176.000000 
0.000000 24.000000 177.000000 
0.000000 24.000000 178.000000 
0.000000 24.000000 179.000000 
0.000000 24.000000 180.000000 
0.000000 24.000000 181.000000 
0.000000 24.000000 182.000000 
0.000000 24.000000 183.000000 
0.000000 24.000000 184.000000 
0.000000 24.000000 185.000000 
0.000000 24.000000 186.000000 
0.000000 24.000000 187.000000 
0.000000 24.000000 188.000000 
0.000000 24.000000 189.000000 
0.000000 24.000000 190.000000 
0.000000 24.000000 191.000000 
0.000000 24.000000 192.000000 
0.000000 24.000000 193.000000 
0.000000 24.000000 194.000000 
0.000000 24.000000 195.000000 
0.000000 24.000000 196.000000 
0.000000 24.000000 197.000000 
0.000000 24.000000 198.000000 
0.000000 24.000000 199.000000 
0.000000 24.000000 200.000000 
0.000000 25.000000 0.000000 
0.000000 25.000000 1.000000 
0.000000 25.000000 2.000000 
0.000000 25.000000 3.000000 
0.000000 25.000000 4.000000 
0.000000 25.000000 5.000000 
0.000000 25.000000 6.000000 
0.000000 25.000000 7.000000 
0.000000 25.000000 8.000000 
0.000000 25.000000 9.000000 
0.000000 25.000000 10.000000 
0.000000 25.000000 11.000000 
0.000000 25.000000 12.000000 
0.000000 25.000000 13.000000 
0.000000 25.000000 14.000000 
0.000000 25.000000 15.000000 
0.000000 25.000000 16.000000 
0.000000 25.000000 17.000000 
0.000000 25.000000 18.000000 
0.000000 25.000000 19.000000 
0.000000 25.000000 20.000000 
0.000000 25.000000 21.000000 
0.000000 25.000000 22.000000 
0.000000 25.000000 23.000000 
0.000000 25.000000 24.000000 
0.000000 25.000000 25.000000 
0.000000 25.000000 26.000000 
0.000000 25.000000 27.000000 
0.000000 25.000000 28.000000 
0.000000 25.000000 29.000000 
0.000000 25.000000 30.000000 
0.000000 25.000000 31.000000 
0.000000 25.000000 32.000000 
0.000000 25.000000 33.000000 
0.000000 25.000000 34.000000 
0.000000 25.000000 35.000000 
0.000000 25.000000 36.000000 
0.000000 25.000000 37.000000 
0.000000 25.000000 38.000000 
0.000000 25.000000 39.000000 
0.000000 25.000000 40.000000 
0.000000 25.000000 41.000000 
0.000000 25.000000 42.000000 
0.000000 25.000000 43.000000 
0.000000 25.000000 44.000000 
0.000000 25.000000 45.000000 
0.000000 25.000000 46.000000 
0.000000 25.000000 47.000000 
0.000000 25.000000 48.000000 
0.000000 25.000000 49.000000 
0.000000 25.000000 50.000000 
0.000000 25.000000 51.000000 
0.000000 25.000000 52.000000 
0.000000 25.000000 53.000000 
0.000000 25.000000 54.000000 
0.000000 25.000000 55.000000 
0.000000 25.000000 56.000000 
0.000000 25.000000 57.000000 
0.000000 25.000000 58.000000 
0.000000 25.000000 59.000000 
0.000000 25.000000 60.000000 
0.000000 25.000000 61.000000 
0.000000 25.000000 62.000000 
0.000000 25.000000 63.000000 
0.000000 25.000000 64.000000 
0.000000 25.000000 65.000000 
0.000000 25.000000 66.000000 
0.000000 25.000000 67.000000 
0.000000 25.000000 68.000000 
0.000000 25.000000 69.000000 
0.000000 25.000000 70.000000 
0.000000 25.000000 71.000000 
0.000000 25.000000 72.000000 
0.000000 25.000000 73.000000 
0.000000 25.000000 74.000000 
0.000000 25.000000 75.000000 
0.000000 25.000000 76.000000 
0.000000 25.000000 77.000000 
0.000000 25.000000 78.000000 
0.000000 25.000000 79.000000 
0.000000 25.000000 80.000000 
0.000000 25.000000 81.000000 
0.000000 25.000000 82.000000 
0.000000 25.000000 83.000000 
0.000000 25.000000 84.000000 
0.000000 25.000000 85.000000 
0.000000 25.000000 86.000000 
0.000000 25.000000 87.000000 
0.000000 25.000000 88.000000 
0.000000 25.000000 89.000000 
0.000000 25.000000 90.000000 
0.000000 25.000000 91.000000 
0.000000 25.000000 92.000000 
0.000000 25.000000 93.000000 
0.000000 25.000000 94.000000 
0.000000 25.000000 95.000000 
0.000000 25.000000 96.000000 
0.000000 25.000000 97.000000 
0.000000 25.000000 98.000000 
0.000000 25.000000 99.000000 
0.000000 25.000000 100.000000 
0.000000 25.000000 101.000000 
0.000000 25.000000 102.000000 
0.000000 25.000000 103.000000 
0.000000 25.000000 104.000000 
0.000000 25.000000 105.000000 
0.000000 25.000000 106.000000 
0.000000 25.000000 107.000000 
0.000000 25.000000 108.000000 
0.000000 25.000000 109.000000 
0.000000 25.000000 110.000000 
0.000000 25.000000 111.000000 
0.000000 25.000000 112.000000 
0.000000 25.000000 113.000000 
0.000000 25.000000 114.000000 
0.000000 25.000000 115.000000 
0.000000 25.000000 116.000000 
0.000000 25.000000 117.000000 
0.000000 25.000000 118.000000 
0.000000 25.000000 119.000000 
0.000000 25.000000 120.000000 
0.000000 25.000000 121.000000 
0.000000 25.000000 122.000000 
0.000000 25.000000 123.000000 
0.000000 25.000000 124.000000 
0.000000 25.000000 125.000000 
0.000000 25.000000 126.000000 
0.000000 25.000000 127.000000 
0.000000 25.000000 128.000000 
0.000000 25.000000 129.000000 
0.000000 25.000000 130.000000 
0.000000 25.000000 131.000000 
0.000000 25.000000 132.000000 
0.000000 25.000000 133.000000 
0.000000 25.000000 134.000000 
0.000000 25.000000 135.000000 
0.000000 25.000000 136.000000 
0.000000 25.000000 137.000000 
0.000000 25.000000 138.000000 
0.000000 25.000000 139.000000 
0.000000 25.000000 140.000000 
0.000000 25.000000 141.000000 
0.000000 25.000000 142.000000 
0.000000 25.000000 143.000000 
0.000000 25.000000 144.000000 
0.000000 25.000000 145.000000 
0.000000 25.000000 146.000000 
0.000000 25.000000 147.000000 
0.000000 25.000000 148.000000 
0.000000 25.000000 149.000000 
0.000000 25.000000 150.000000 
0.000000 25.000000 151.000000 
0.000000 25.000000 152.000000 
0.000000 25.000000 153.000000 
0.000000 25.000000 154.000000 
0.000000 25.000000 155.000000 
0.000000 25.000000 156.000000 
0.000000 25.000000 157.000000 
0.000000 25.000000 158.000000 
0.000000 25.000000 159.000000 
0.000000 25.000000 160.000000 
0.000000 25.000000 161.000000 
0.000000 25.000000 162.000000 
0.000000 25.000000 163.000000 
0.000000 25.000000 164.000000 
0.000000 25.000000 165.000000 
0.000000 25.000000 166.000000 
0.000000 25.000000 167.000000 
0.000000 25.000000 168.000000 
0.000000 25.000000 169.000000 
0.000000 25.000000 170.000000 
0.000000 25.000000 171.000000 
0.000000 25.000000 172.000000 
0.000000 25.000000 173.000000 
0.000000 25.000000 174.000000 
0.000000 25.000000 175.000000 
0.000000 25.000000 176.000000 
0.000000 25.000000 177.000000 
0.000000 25.000000 178.000000 
0.000000 25.000000 179.000000 
0.000000 25.000000 180.000000 
0.000000 25.000000 181.000000 
0.000000 25.000000 182.000000 
0.000000 25.000000 183.000000 
0.000000 25.000000 184.000000 
0.000000 25.000000 185.000000 
0.000000 25.000000 186.000000 
0.000000 25.000000 187.000000 
0.000000 25.000000 188.000000 
0.000000 25.000000 189.000000 
0.000000 25.000000 190.000000 
0.000000 25.000000 191.000000 
0.000000 25.000000 192.000000 
0.000000 25.000000 193.000000 
0.000000 25.000000 194.000000 
0.000000 25.000000 195.000000 
0.000000 25.000000 196.000000 
0.000000 25.000000 197.000000 
0.000000 25.000000 198.000000 
0.000000 25.000000 199.000000 
0.000000 25.000000 200.000000 
0.000000 26.000000 0.000000 
0.000000 26.000000 1.000000 
0.000000 26.000000 2.000000 
0.000000 26.000000 3.000000 
0.000000 26.000000 4.000000 
0.000000 26.000000 5.000000 
0.000000 26.000000 6.000000 
0.000000 26.000000 7.000000 
0.000000 26.000000 8.000000 
0.000000 26.000000 9.000000 
0.000000 26.000000 10.000000 
0.000000 26.000000 11.000000 
0.000000 26.000000 12.000000 
0.000000 26.000000 13.000000 
0.000000 26.000000 14.000000 
0.000000 26.000000 15.000000 
0.000000 26.000000 16.000000 
0.000000 26.000000 17.000000 
0.000000 26.000000 18.000000 
0.000000 26.000000 19.000000 
0.000000 26.000000 20.000000 
0.000000 26.000000 21.000000 
0.000000 26.000000 22.000000 
0.000000 26.000000 23.000000 
0.000000 26.000000 24.000000 
0.000000 26.000000 25.000000 
0.000000 26.000000 26.000000 
0.000000 26.000000 27.000000 
0.000000 26.000000 28.000000 
0.000000 26.000000 29.000000 
0.000000 26.000000 30.000000 
0.000000 26.000000 31.000000 
0.000000 26.000000 32.000000 
0.000000 26.000000 33.000000 
0.000000 26.000000 34.000000 
0.000000 26.000000 35.000000 
0.000000 26.000000 36.000000 
0.000000 26.000000 37.000000 
0.000000 26.000000 38.000000 
0.000000 26.000000 39.000000 
0.000000 26.000000 40.000000 
0.000000 26.000000 41.000000 
0.000000 26.000000 42.000000 
0.000000 26.000000 43.000000 
0.000000 26.000000 44.000000 
0.000000 26.000000 45.000000 
0.000000 26.000000 46.000000 
0.000000 26.000000 47.000000 
0.000000 26.000000 48.000000 
0.000000 26.000000 49.000000 
0.000000 26.000000 50.000000 
0.000000 26.000000 51.000000 
0.000000 26.000000 52.000000 
0.000000 26.000000 53.000000 
0.000000 26.000000 54.000000 
0.000000 26.000000 55.000000 
0.000000 26.000000 56.000000 
0.000000 26.000000 57.000000 
0.000000 26.000000 58.000000 
0.000000 26.000000 59.000000 
0.000000 26.000000 60.000000 
0.000000 26.000000 61.000000 
0.000000 26.000000 62.000000 
0.000000 26.000000 63.000000 
0.000000 26.000000 64.000000 
0.000000 26.000000 65.000000 
0.000000 26.000000 66.000000 
0.000000 26.000000 67.000000 
0.000000 26.000000 68.000000 
0.000000 26.000000 69.000000 
0.000000 26.000000 70.000000 
0.000000 26.000000 71.000000 
0.000000 26.000000 72.000000 
0.000000 26.000000 73.000000 
0.000000 26.000000 74.000000 
0.000000 26.000000 75.000000 
0.000000 26.000000 76.000000 
0.000000 26.000000 77.000000 
0.000000 26.000000 78.000000 
0.000000 26.000000 79.000000 
0.000000 26.000000 80.000000 
0.000000 26.000000 81.000000 
0.000000 26.000000 82.000000 
0.000000 26.000000 83.000000 
0.000000 26.000000 84.000000 
0.000000 26.000000 85.000000 
0.000000 26.000000 86.000000 
0.000000 26.000000 87.000000 
0.000000 26.000000 88.000000 
0.000000 26.000000 89.000000 
0.000000 26.000000 90.000000 
0.000000 26.000000 91.000000 
0.000000 26.000000 92.000000 
0.000000 26.000000 93.000000 
0.000000 26.000000 94.000000 
0.000000 26.000000 95.000000 
0.000000 26.000000 96.000000 
0.000000 26.000000 97.000000 
0.000000 26.000000 98.000000 
0.000000 26.000000 99.000000 
0.000000 26.000000 100.000000 
0.000000 26.000000 101.000000 
0.000000 26.000000 102.000000 
0.000000 26.000000 103.000000 
0.000000 26.000000 104.000000 
0.000000 26.000000 105.000000 
0.000000 26.000000 106.000000 
0.000000 26.000000 107.000000 
0.000000 26.000000 108.000000 
0.000000 26.000000 109.000000 
0.000000 26.000000 110.000000 
0.000000 26.000000 111.000000 
0.000000 26.000000 112.000000 
0.000000 26.000000 113.000000 
0.000000 26.000000 114.000000 
0.000000 26.000000 115.000000 
0.000000 26.000000 116.000000 
0.000000 26.000000 117.000000 
0.000000 26.000000 118.000000 
0.000000 26.000000 119.000000 
0.000000 26.000000 120.000000 
0.000000 26.000000 121.000000 
0.000000 26.000000 122.000000 
0.000000 26.000000 123.000000 
0.000000 26.000000 124.000000 
0.000000 26.000000 125.000000 
0.000000 26.000000 126.000000 
0.000000 26.000000 127.000000 
0.000000 26.000000 128.000000 
0.000000 26.000000 129.000000 
0.000000 26.000000 130.000000 
0.000000 26.000000 131.000000 
0.000000 26.000000 132.000000 
0.000000 26.000000 133.000000 
0.000000 26.000000 134.000000 
0.000000 26.000000 135.000000 
0.000000 26.000000 136.000000 
0.000000 26.000000 137.000000 
0.000000 26.000000 138.000000 
0.000000 26.000000 139.000000 
0.000000 26.000000 140.000000 
0.000000 26.000000 141.000000 
0.000000 26.000000 142.000000 
0.000000 26.000000 143.000000 
0.000000 26.000000 144.000000 
0.000000 26.000000 145.000000 
0.000000 26.000000 146.000000 
0.000000 26.000000 147.000000 
0.000000 26.000000 148.000000 
0.000000 26.000000 149.000000 
0.000000 26.000000 150.000000 
0.000000 26.000000 151.000000 
0.000000 26.000000 152.000000 
0.000000 26.000000 153.000000 
0.000000 26.000000 154.000000 
0.000000 26.000000 155.000000 
0.000000 26.000000 156.000000 
0.000000 26.000000 157.000000 
0.000000 26.000000 158.000000 
0.000000 26.000000 159.000000 
0.000000 26.000000 160.000000 
0.000000 26.000000 161.000000 
0.000000 26.000000 162.000000 
0.000000 26.000000 163.000000 
0.000000 26.000000 164.000000 
0.000000 26.000000 165.000000 
0.000000 26.000000 166.000000 
0.000000 26.000000 167.000000 
0.000000 26.000000 168.000000 
0.000000 26.000000 169.000000 
0.000000 26.000000 170.000000 
0.000000 26.000000 171.000000 
0.000000 26.000000 172.000000 
0.000000 26.000000 173.000000 
0.000000 26.000000 174.000000 
0.000000 26.000000 175.000000 
0.000000 26.000000 176.000000 
0.000000 26.000000 177.000000 
0.000000 26.000000 178.000000 
0.000000 26.000000 179.000000 
0.000000 26.000000 180.000000 
0.000000 26.000000 181.000000 
0.000000 26.000000 182.000000 
0.000000 26.000000 183.000000 
0.000000 26.000000 184.000000 
0.000000 26.000000 185.000000 
0.000000 26.000000 186.000000 
0.000000 26.000000 187.000000 
0.000000 26.000000 188.000000 
0.000000 26.000000 189.000000 
0.000000 26.000000 190.000000 
0.000000 26.000000 191.000000 
0.000000 26.000000 192.000000 
0.000000 26.000000 193.000000 
0.000000 26.000000 194.000000 
0.000000 26.000000 195.000000 
0.000000 26.000000 196.000000 
0.000000 26.000000 197.000000 
0.000000 26.000000 198.000000 
0.000000 26.000000 199.000000 
0.000000 26.000000 200.000000 
0.000000 27.000000 0.000000 
0.000000 27.000000 1.000000 
0.000000 27.000000 2.000000 
0.000000 27.000000 3.000000 
0.000000 27.000000 4.000000 
0.000000 27.000000 5.000000 
0.000000 27.000000 6.000000 
0.000000 27.000000 7.000000 
0.000000 27.000000 8.000000 
0.000000 27.000000 9.000000 
0.000000 27.000000 10.000000 
0.000000 27.000000 11.000000 
0.000000 27.000000 12.000000 
0.000000 27.000000 13.000000 
0.000000 27.000000 14.000000 
0.000000 27.000000 15.000000 
0.000000 27.000000 16.000000 
0.000000 27.000000 17.000000 
0.000000 27.000000 18.000000 
0.000000 27.000000 19.000000 
0.000000 27.000000 20.000000 
0.000000 27.000000 21.000000 
0.000000 27.000000 22.000000 
0.000000 27.000000 23.000000 
0.000000 27.000000 24.000000 
0.000000 27.000000 25.000000 
0.000000 27.000000 26.000000 
0.000000 27.000000 27.000000 
0.000000 27.000000 28.000000 
0.000000 27.000000 29.000000 
0.000000 27.000000 30.000000 
0.000000 27.000000 31.000000 
0.000000 27.000000 32.000000 
0.000000 27.000000 33.000000 
0.000000 27.000000 34.000000 
0.000000 27.000000 35.000000 
0.000000 27.000000 36.000000 
0.000000 27.000000 37.000000 
0.000000 27.000000 38.000000 
0.000000 27.000000 39.000000 
0.000000 27.000000 40.000000 
0.000000 27.000000 41.000000 
0.000000 27.000000 42.000000 
0.000000 27.000000 43.000000 
0.000000 27.000000 44.000000 
0.000000 27.000000 45.000000 
0.000000 27.000000 46.000000 
0.000000 27.000000 47.000000 
0.000000 27.000000 48.000000 
0.000000 27.000000 49.000000 
0.000000 27.000000 50.000000 
0.000000 27.000000 51.000000 
0.000000 27.000000 52.000000 
0.000000 27.000000 53.000000 
0.000000 27.000000 54.000000 
0.000000 27.000000 55.000000 
0.000000 27.000000 56.000000 
0.000000 27.000000 57.000000 
0.000000 27.000000 58.000000 
0.000000 27.000000 59.000000 
0.000000 27.000000 60.000000 
0.000000 27.000000 61.000000 
0.000000 27.000000 62.000000 
0.000000 27.000000 63.000000 
0.000000 27.000000 64.000000 
0.000000 27.000000 65.000000 
0.000000 27.000000 66.000000 
0.000000 27.000000 67.000000 
0.000000 27.000000 68.000000 
0.000000 27.000000 69.000000 
0.000000 27.000000 70.000000 
0.000000 27.000000 71.000000 
0.000000 27.000000 72.000000 
0.000000 27.000000 73.000000 
0.000000 27.000000 74.000000 
0.000000 27.000000 75.000000 
0.000000 27.000000 76.000000 
0.000000 27.000000 77.000000 
0.000000 27.000000 78.000000 
0.000000 27.000000 79.000000 
0.000000 27.000000 80.000000 
0.000000 27.000000 81.000000 
0.000000 27.000000 82.000000 
0.000000 27.000000 83.000000 
0.000000 27.000000 84.000000 
0.000000 27.000000 85.000000 
0.000000 27.000000 86.000000 
0.000000 27.000000 87.000000 
0.000000 27.000000 88.000000 
0.000000 27.000000 89.000000 
0.000000 27.000000 90.000000 
0.000000 27.000000 91.000000 
0.000000 27.000000 92.000000 
0.000000 27.000000 93.000000 
0.000000 27.000000 94.000000 
0.000000 27.000000 95.000000 
0.000000 27.000000 96.000000 
0.000000 27.000000 97.000000 
0.000000 27.000000 98.000000 
0.000000 27.000000 99.000000 
0.000000 27.000000 100.000000 
0.000000 27.000000 101.000000 
0.000000 27.000000 102.000000 
0.000000 27.000000 103.000000 
0.000000 27.000000 104.000000 
0.000000 27.000000 105.000000 
0.000000 27.000000 106.000000 
0.000000 27.000000 107.000000 
0.000000 27.000000 108.000000 
0.000000 27.000000 109.000000 
0.000000 27.000000 110.000000 
0.000000 27.000000 111.000000 
0.000000 27.000000 112.000000 
0.000000 27.000000 113.000000 
0.000000 27.000000 114.000000 
0.000000 27.000000 115.000000 
0.000000 27.000000 116.000000 
0.000000 27.000000 117.000000 
0.000000 27.000000 118.000000 
0.000000 27.000000 119.000000 
0.000000 27.000000 120.000000 
0.000000 27.000000 121.000000 
0.000000 27.000000 122.000000 
0.000000 27.000000 123.000000 
0.000000 27.000000 124.000000 
0.000000 27.000000 125.000000 
0.000000 27.000000 126.000000 
0.000000 27.000000 127.000000 
0.000000 27.000000 128.000000 
0.000000 27.000000 129.000000 
0.000000 27.000000 130.000000 
0.000000 27.000000 131.000000 
0.000000 27.000000 132.000000 
0.000000 27.000000 133.000000 
0.000000 27.000000 134.000000 
0.000000 27.000000 135.000000 
0.000000 27.000000 136.000000 
0.000000 27.000000 137.000000 
0.000000 27.000000 138.000000 
0.000000 27.000000 139.000000 
0.000000 27.000000 140.000000 
0.000000 27.000000 141.000000 
0.000000 27.000000 142.000000 
0.000000 27.000000 143.000000 
0.000000 27.000000 144.000000 
0.000000 27.000000 145.000000 
0.000000 27.000000 146.000000 
0.000000 27.000000 147.000000 
0.000000 27.000000 148.000000 
0.000000 27.000000 149.000000 
0.000000 27.000000 150.000000 
0.000000 27.000000 151.000000 
0.000000 27.000000 152.000000 
0.000000 27.000000 153.000000 
0.000000 27.000000 154.000000 
0.000000 27.000000 155.000000 
0.000000 27.000000 156.000000 
0.000000 27.000000 157.000000 
0.000000 27.000000 158.000000 
0.000000 27.000000 159.000000 
0.000000 27.000000 160.000000 
0.000000 27.000000 161.000000 
0.000000 27.000000 162.000000 
0.000000 27.000000 163.000000 
0.000000 27.000000 164.000000 
0.000000 27.000000 165.000000 
0.000000 27.000000 166.000000 
0.000000 27.000000 167.000000 
0.000000 27.000000 168.000000 
0.000000 27.000000 169.000000 
0.000000 27.000000 170.000000 
0.000000 27.000000 171.000000 
0.000000 27.000000 172.000000 
0.000000 27.000000 173.000000 
0.000000 27.000000 174.000000 
0.000000 27.000000 175.000000 
0.000000 27.000000 176.000000 
0.000000 27.000000 177.000000 
0.000000 27.000000 178.000000 
0.000000 27.000000 179.000000 
0.000000 27.000000 180.000000 
0.000000 27.000000 181.000000 
0.000000 27.000000 182.000000 
0.000000 27.000000 183.000000 
0.000000 27.000000 184.000000 
0.000000 27.000000 185.000000 
0.000000 27.000000 186.000000 
0.000000 27.000000 187.000000 
0.000000 27.000000 188.000000 
0.000000 27.000000 189.000000 
0.000000 27.000000 190.000000 
0.000000 27.000000 191.000000 
0.000000 27.000000 192.000000 
0.000000 27.000000 193.000000 
0.000000 27.000000 194.000000 
0.000000 27.000000 195.000000 
0.000000 27.000000 196.000000 
0.000000 27.000000 197.000000 
0.000000 27.000000 198.000000 
0.000000 27.000000 199.000000 
0.000000 27.000000 200.000000 
0.000000 28.000000 0.000000 
0.000000 28.000000 1.000000 
0.000000 28.000000 2.000000 
0.000000 28.000000 3.000000 
0.000000 28.000000 4.000000 
0.000000 28.000000 5.000000 
0.000000 28.000000 6.000000 
0.000000 28.000000 7.000000 
0.000000 28.000000 8.000000 
0.000000 28.000000 9.000000 
0.000000 28.000000 10.000000 
0.000000 28.000000 11.000000 
0.000000 28.000000 12.000000 
0.000000 28.000000 13.000000 
0.000000 28.000000 14.000000 
0.000000 28.000000 15.000000 
0.000000 28.000000 16.000000 
0.000000 28.000000 17.000000 
0.000000 28.000000 18.000000 
0.000000 28.000000 19.000000 
0.000000 28.000000 20.000000 
0.000000 28.000000 21.000000 
0.000000 28.000000 22.000000 
0.000000 28.000000 23.000000 
0.000000 28.000000 24.000000 
0.000000 28.000000 25.000000 
0.000000 28.000000 26.000000 
0.000000 28.000000 27.000000 
0.000000 28.000000 28.000000 
0.000000 28.000000 29.000000 
0.000000 28.000000 30.000000 
0.000000 28.000000 31.000000 
0.000000 28.000000 32.000000 
0.000000 28.000000 33.000000 
0.000000 28.000000 34.000000 
0.000000 28.000000 35.000000 
0.000000 28.000000 36.000000 
0.000000 28.000000 37.000000 
0.000000 28.000000 38.000000 
0.000000 28.000000 39.000000 
0.000000 28.000000 40.000000 
0.000000 28.000000 41.000000 
0.000000 28.000000 42.000000 
0.000000 28.000000 43.000000 
0.000000 28.000000 44.000000 
0.000000 28.000000 45.000000 
0.000000 28.000000 46.000000 
0.000000 28.000000 47.000000 
0.000000 28.000000 48.000000 
0.000000 28.000000 49.000000 
0.000000 28.000000 50.000000 
0.000000 28.000000 51.000000 
0.000000 28.000000 52.000000 
0.000000 28.000000 53.000000 
0.000000 28.000000 54.000000 
0.000000 28.000000 55.000000 
0.000000 28.000000 56.000000 
0.000000 28.000000 57.000000 
0.000000 28.000000 58.000000 
0.000000 28.000000 59.000000 
0.000000 28.000000 60.000000 
0.000000 28.000000 61.000000 
0.000000 28.000000 62.000000 
0.000000 28.000000 63.000000 
0.000000 28.000000 64.000000 
0.000000 28.000000 65.000000 
0.000000 28.000000 66.000000 
0.000000 28.000000 67.000000 
0.000000 28.000000 68.000000 
0.000000 28.000000 69.000000 
0.000000 28.000000 70.000000 
0.000000 28.000000 71.000000 
0.000000 28.000000 72.000000 
0.000000 28.000000 73.000000 
0.000000 28.000000 74.000000 
0.000000 28.000000 75.000000 
0.000000 28.000000 76.000000 
0.000000 28.000000 77.000000 
0.000000 28.000000 78.000000 
0.000000 28.000000 79.000000 
0.000000 28.000000 80.000000 
0.000000 28.000000 81.000000 
0.000000 28.000000 82.000000 
0.000000 28.000000 83.000000 
0.000000 28.000000 84.000000 
0.000000 28.000000 85.000000 
0.000000 28.000000 86.000000 
0.000000 28.000000 87.000000 
0.000000 28.000000 88.000000 
0.000000 28.000000 89.000000 
0.000000 28.000000 90.000000 
0.000000 28.000000 91.000000 
0.000000 28.000000 92.000000 
0.000000 28.000000 93.000000 
0.000000 28.000000 94.000000 
0.000000 28.000000 95.000000 
0.000000 28.000000 96.000000 
0.000000 28.000000 97.000000 
0.000000 28.000000 98.000000 
0.000000 28.000000 99.000000 
0.000000 28.000000 100.000000 
0.000000 28.000000 101.000000 
0.000000 28.000000 102.000000 
0.000000 28.000000 103.000000 
0.000000 28.000000 104.000000 
0.000000 28.000000 105.000000 
0.000000 28.000000 106.000000 
0.000000 28.000000 107.000000 
0.000000 28.000000 108.000000 
0.000000 28.000000 109.000000 
0.000000 28.000000 110.000000 
0.000000 28.000000 111.000000 
0.000000 28.000000 112.000000 
0.000000 28.000000 113.000000 
0.000000 28.000000 114.000000 
0.000000 28.000000 115.000000 
0.000000 28.000000 116.000000 
0.000000 28.000000 117.000000 
0.000000 28.000000 118.000000 
0.000000 28.000000 119.000000 
0.000000 28.000000 120.000000 
0.000000 28.000000 121.000000 
0.000000 28.000000 122.000000 
0.000000 28.000000 123.000000 
0.000000 28.000000 124.000000 
0.000000 28.000000 125.000000 
0.000000 28.000000 126.000000 
0.000000 28.000000 127.000000 
0.000000 28.000000 128.000000 
0.000000 28.000000 129.000000 
0.000000 28.000000 130.000000 
0.000000 28.000000 131.000000 
0.000000 28.000000 132.000000 
0.000000 28.000000 133.000000 
0.000000 28.000000 134.000000 
0.000000 28.000000 135.000000 
0.000000 28.000000 136.000000 
0.000000 28.000000 137.000000 
0.000000 28.000000 138.000000 
0.000000 28.000000 139.000000 
0.000000 28.000000 140.000000 
0.000000 28.000000 141.000000 
0.000000 28.000000 142.000000 
0.000000 28.000000 143.000000 
0.000000 28.000000 144.000000 
0.000000 28.000000 145.000000 
0.000000 28.000000 146.000000 
0.000000 28.000000 147.000000 
0.000000 28.000000 148.000000 
0.000000 28.000000 149.000000 
0.000000 28.000000 150.000000 
0.000000 28.000000 151.000000 
0.000000 28.000000 152.000000 
0.000000 28.000000 153.000000 
0.000000 28.000000 154.000000 
0.000000 28.000000 155.000000 
0.000000 28.000000 156.000000 
0.000000 28.000000 157.000000 
0.000000 28.000000 158.000000 
0.000000 28.000000 159.000000 
0.000000 28.000000 160.000000 
0.000000 28.000000 161.000000 
0.000000 28.000000 162.000000 
0.000000 28.000000 163.000000 
0.000000 28.000000 164.000000 
0.000000 28.000000 165.000000 
0.000000 28.000000 166.000000 
0.000000 28.000000 167.000000 
0.000000 28.000000 168.000000 
0.000000 28.000000 169.000000 
0.000000 28.000000 170.000000 
0.000000 28.000000 171.000000 
0.000000 28.000000 172.000000 
0.000000 28.000000 173.000000 
0.000000 28.000000 174.000000 
0.000000 28.000000 175.000000 
0.000000 28.000000 176.000000 
0.000000 28.000000 177.000000 
0.000000 28.000000 178.000000 
0.000000 28.000000 179.000000 
0.000000 28.000000 180.000000 
0.000000 28.000000 181.000000 
0.000000 28.000000 182.000000 
0.000000 28.000000 183.000000 
0.000000 28.000000 184.000000 
0.000000 28.000000 185.000000 
0.000000 28.000000 186.000000 
0.000000 28.000000 187.000000 
0.000000 28.000000 188.000000 
0.000000 28.000000 189.000000 
0.000000 28.000000 190.000000 
0.000000 28.000000 191.000000 
0.000000 28.000000 192.000000 
0.000000 28.000000 193.000000 
0.000000 28.000000 194.000000 
0.000000 28.000000 195.000000 
0.000000 28.000000 196.000000 
0.000000 28.000000 197.000000 
0.000000 28.000000 198.000000 
0.000000 28.000000 199.000000 
0.000000 28.000000 200.000000 
0.000000 29.000000 0.000000 
0.000000 29.000000 1.000000 
0.000000 29.000000 2.000000 
0.000000 29.000000 3.000000 
0.000000 29.000000 4.000000 
0.000000 29.000000 5.000000 
0.000000 29.000000 6.000000 
0.000000 29.000000 7.000000 
0.000000 29.000000 8.000000 
0.000000 29.000000 9.000000 
0.000000 29.000000 10.000000 
0.000000 29.000000 11.000000 
0.000000 29.000000 12.000000 
0.000000 29.000000 13.000000 
0.000000 29.000000 14.000000 
0.000000 29.000000 15.000000 
0.000000 29.000000 16.000000 
0.000000 29.000000 17.000000 
0.000000 29.000000 18.000000 
0.000000 29.000000 19.000000 
0.000000 29.000000 20.000000 
0.000000 29.000000 21.000000 
0.000000 29.000000 22.000000 
0.000000 29.000000 23.000000 
0.000000 29.000000 24.000000 
0.000000 29.000000 25.000000 
0.000000 29.000000 26.000000 
0.000000 29.000000 27.000000 
0.000000 29.000000 28.000000 
0.000000 29.000000 29.000000 
0.000000 29.000000 30.000000 
0.000000 29.000000 31.000000 
0.000000 29.000000 32.000000 
0.000000 29.000000 33.000000 
0.000000 29.000000 34.000000 
0.000000 29.000000 35.000000 
0.000000 29.000000 36.000000 
0.000000 29.000000 37.000000 
0.000000 29.000000 38.000000 
0.000000 29.000000 39.000000 
0.000000 29.000000 40.000000 
0.000000 29.000000 41.000000 
0.000000 29.000000 42.000000 
0.000000 29.000000 43.000000 
0.000000 29.000000 44.000000 
0.000000 29.000000 45.000000 
0.000000 29.000000 46.000000 
0.000000 29.000000 47.000000 
0.000000 29.000000 48.000000 
0.000000 29.000000 49.000000 
0.000000 29.000000 50.000000 
0.000000 29.000000 51.000000 
0.000000 29.000000 52.000000 
0.000000 29.000000 53.000000 
0.000000 29.000000 54.000000 
0.000000 29.000000 55.000000 
0.000000 29.000000 56.000000 
0.000000 29.000000 57.000000 
0.000000 29.000000 58.000000 
0.000000 29.000000 59.000000 
0.000000 29.000000 60.000000 
0.000000 29.000000 61.000000 
0.000000 29.000000 62.000000 
0.000000 29.000000 63.000000 
0.000000 29.000000 64.000000 
0.000000 29.000000 65.000000 
0.000000 29.000000 66.000000 
0.000000 29.000000 67.000000 
0.000000 29.000000 68.000000 
0.000000 29.000000 69.000000 
0.000000 29.000000 70.000000 
0.000000 29.000000 71.000000 
0.000000 29.000000 72.000000 
0.000000 29.000000 73.000000 
0.000000 29.000000 74.000000 
0.000000 29.000000 75.000000 
0.000000 29.000000 76.000000 
0.000000 29.000000 77.000000 
0.000000 29.000000 78.000000 
0.000000 29.000000 79.000000 
0.000000 29.000000 80.000000 
0.000000 29.000000 81.000000 
0.000000 29.000000 82.000000 
0.000000 29.000000 83.000000 
0.000000 29.000000 84.000000 
0.000000 29.000000 85.000000 
0.000000 29.000000 86.000000 
0.000000 29.000000 87.000000 
0.000000 29.000000 88.000000 
0.000000 29.000000 89.000000 
0.000000 29.000000 90.000000 
0.000000 29.000000 91.000000 
0.000000 29.000000 92.000000 
0.000000 29.000000 93.000000 
0.000000 29.000000 94.000000 
0.000000 29.000000 95.000000 
0.000000 29.000000 96.000000 
0.000000 29.000000 97.000000 
0.000000 29.000000 98.000000 
0.000000 29.000000 99.000000 
0.000000 29.000000 100.000000 
0.000000 29.000000 101.000000 
0.000000 29.000000 102.000000 
0.000000 29.000000 103.000000 
0.000000 29.000000 104.000000 
0.000000 29.000000 105.000000 
0.000000 29.000000 106.000000 
0.000000 29.000000 107.000000 
0.000000 29.000000 108.000000 
0.000000 29.000000 109.000000 
0.000000 29.000000 110.000000 
0.000000 29.000000 111.000000 
0.000000 29.000000 112.000000 
0.000000 29.000000 113.000000 
0.000000 29.000000 114.000000 
0.000000 29.000000 115.000000 
0.000000 29.000000 116.000000 
0.000000 29.000000 117.000000 
0.000000 29.000000 118.000000 
0.000000 29.000000 119.000000 
0.000000 29.000000 120.000000 
0.000000 29.000000 121.000000 
0.000000 29.000000 122.000000 
0.000000 29.000000 123.000000 
0.000000 29.000000 124.000000 
0.000000 29.000000 125.000000 
0.000000 29.000000 126.000000 
0.000000 29.000000 127.000000 
0.000000 29.000000 128.000000 
0.000000 29.000000 129.000000 
0.000000 29.000000 130.000000 
0.000000 29.000000 131.000000 
0.000000 29.000000 132.000000 
0.000000 29.000000 133.000000 
0.000000 29.000000 134.000000 
0.000000 29.000000 135.000000 
0.000000 29.000000 136.000000 
0.000000 29.000000 137.000000 
0.000000 29.000000 138.000000 
0.000000 29.000000 139.000000 
0.000000 29.000000 140.000000 
0.000000 29.000000 141.000000 
0.000000 29.000000 142.000000 
0.000000 29.000000 143.000000 
0.000000 29.000000 144.000000 
0.000000 29.000000 145.000000 
0.000000 29.000000 146.000000 
0.000000 29.000000 147.000000 
0.000000 29.000000 148.000000 
0.000000 29.000000 149.000000 
0.000000 29.000000 150.000000 
0.000000 29.000000 151.000000 
0.000000 29.000000 152.000000 
0.000000 29.000000 153.000000 
0.000000 29.000000 154.000000 
0.000000 29.000000 155.000000 
0.000000 29.000000 156.000000 
0.000000 29.000000 157.000000 
0.000000 29.000000 158.000000 
0.000000 29.000000 159.000000 
0.000000 29.000000 160.000000 
0.000000 29.000000 161.000000 
0.000000 29.000000 162.000000 
0.000000 29.000000 163.000000 
0.000000 29.000000 164.000000 
0.000000 29.000000 165.000000 
0.000000 29.000000 166.000000 
0.000000 29.000000 167.000000 
0.000000 29.000000 168.000000 
0.000000 29.000000 169.000000 
0.000000 29.000000 170.000000 
0.000000 29.000000 171.000000 
0.000000 29.000000 172.000000 
0.000000 29.000000 173.000000 
0.000000 29.000000 174.000000 
0.000000 29.000000 175.000000 
0.000000 29.000000 176.000000 
0.000000 29.000000 177.000000 
0.000000 29.000000 178.000000 
0.000000 29.000000 179.000000 
0.000000 29.000000 180.000000 
0.000000 29.000000 181.000000 
0.000000 29.000000 182.000000 
0.000000 29.000000 183.000000 
0.000000 29.000000 184.000000 
0.000000 29.000000 185.000000 
0.000000 29.000000 186.000000 
0.000000 29.000000 187.000000 
0.000000 29.000000 188.000000 
0.000000 29.000000 189.000000 
0.000000 29.000000 190.000000 
0.000000 29.000000 191.000000 
0.000000 29.000000 192.000000 
0.000000 29.000000 193.000000 
0.000000 29.000000 194.000000 
0.000000 29.000000 195.000000 
0.000000 29.000000 196.000000 
0.000000 29.000000 197.000000 
0.000000 29.000000 198.000000 
0.000000 29.000000 199.000000 
0.000000 29.000000 200.000000 
0.000000 30.000000 0.000000 
0.000000 30.000000 1.000000 
0.000000 30.000000 2.000000 
0.000000 30.000000 3.000000 
0.000000 30.000000 4.000000 
0.000000 30.000000 5.000000 
0.000000 30.000000 6.000000 
0.000000 30.000000 7.000000 
0.000000 30.000000 8.000000 
0.000000 30.000000 9.000000 
0.000000 30.000000 10.000000 
0.000000 30.000000 11.000000 
0.000000 30.000000 12.000000 
0.000000 30.000000 13.000000 
0.000000 30.000000 14.000000 
0.000000 30.000000 15.000000 
0.000000 30.000000 16.000000 
0.000000 30.000000 17.000000 
0.000000 30.000000 18.000000 
0.000000 30.000000 19.000000 
0.000000 30.000000 20.000000 
0.000000 30.000000 21.000000 
0.000000 30.000000 22.000000 
0.000000 30.000000 23.000000 
0.000000 30.000000 24.000000 
0.000000 30.000000 25.000000 
0.000000 30.000000 26.000000 
0.000000 30.000000 27.000000 
0.000000 30.000000 28.000000 
0.000000 30.000000 29.000000 
0.000000 30.000000 30.000000 
0.000000 30.000000 31.000000 
0.000000 30.000000 32.000000 
0.000000 30.000000 33.000000 
0.000000 30.000000 34.000000 
0.000000 30.000000 35.000000 
0.000000 30.000000 36.000000 
0.000000 30.000000 37.000000 
0.000000 30.000000 38.000000 
0.000000 30.000000 39.000000 
0.000000 30.000000 40.000000 
0.000000 30.000000 41.000000 
0.000000 30.000000 42.000000 
0.000000 30.000000 43.000000 
0.000000 30.000000 44.000000 
0.000000 30.000000 45.000000 
0.000000 30.000000 46.000000 
0.000000 30.000000 47.000000 
0.000000 30.000000 48.000000 
0.000000 30.000000 49.000000 
0.000000 30.000000 50.000000 
0.000000 30.000000 51.000000 
0.000000 30.000000 52.000000 
0.000000 30.000000 53.000000 
0.000000 30.000000 54.000000 
0.000000 30.000000 55.000000 
0.000000 30.000000 56.000000 
0.000000 30.000000 57.000000 
0.000000 30.000000 58.000000 
0.000000 30.000000 59.000000 
0.000000 30.000000 60.000000 
0.000000 30.000000 61.000000 
0.000000 30.000000 62.000000 
0.000000 30.000000 63.000000 
0.000000 30.000000 64.000000 
0.000000 30.000000 65.000000 
0.000000 30.000000 66.000000 
0.000000 30.000000 67.000000 
0.000000 30.000000 68.000000 
0.000000 30.000000 69.000000 
0.000000 30.000000 70.000000 
0.000000 30.000000 71.000000 
0.000000 30.000000 72.000000 
0.000000 30.000000 73.000000 
0.000000 30.000000 74.000000 
0.000000 30.000000 75.000000 
0.000000 30.000000 76.000000 
0.000000 30.000000 77.000000 
0.000000 30.000000 78.000000 
0.000000 30.000000 79.000000 
0.000000 30.000000 80.000000 
0.000000 30.000000 81.000000 
0.000000 30.000000 82.000000 
0.000000 30.000000 83.000000 
0.000000 30.000000 84.000000 
0.000000 30.000000 85.000000 
0.000000 30.000000 86.000000 
0.000000 30.000000 87.000000 
0.000000 30.000000 88.000000 
0.000000 30.000000 89.000000 
0.000000 30.000000 90.000000 
0.000000 30.000000 91.000000 
0.000000 30.000000 92.000000 
0.000000 30.000000 93.000000 
0.000000 30.000000 94.000000 
0.000000 30.000000 95.000000 
0.000000 30.000000 96.000000 
0.000000 30.000000 97.000000 
0.000000 30.000000 98.000000 
0.000000 30.000000 99.000000 
0.000000 30.000000 100.000000 
0.000000 30.000000 101.000000 
0.000000 30.000000 102.000000 
0.000000 30.000000 103.000000 
0.000000 30.000000 104.000000 
0.000000 30.000000 105.000000 
0.000000 30.000000 106.000000 
0.000000 30.000000 107.000000 
0.000000 30.000000 108.000000 
0.000000 30.000000 109.000000 
0.000000 30.000000 110.000000 
0.000000 30.000000 111.000000 
0.000000 30.000000 112.000000 
0.000000 30.000000 113.000000 
0.000000 30.000000 114.000000 
0.000000 30.000000 115.000000 
0.000000 30.000000 116.000000 
0.000000 30.000000 117.000000 
0.000000 30.000000 118.000000 
0.000000 30.000000 119.000000 
0.000000 30.000000 120.000000 
0.000000 30.000000 121.000000 
0.000000 30.000000 122.000000 
0.000000 30.000000 123.000000 
0.000000 30.000000 124.000000 
0.000000 30.000000 125.000000 
0.000000 30.000000 126.000000 
0.000000 30.000000 127.000000 
0.000000 30.000000 128.000000 
0.000000 30.000000 129.000000 
0.000000 30.000000 130.000000 
0.000000 30.000000 131.000000 
0.000000 30.000000 132.000000 
0.000000 30.000000 133.000000 
0.000000 30.000000 134.000000 
0.000000 30.000000 135.000000 
0.000000 30.000000 136.000000 
0.000000 30.000000 137.000000 
0.000000 30.000000 138.000000 
0.000000 30.000000 139.000000 
0.000000 30.000000 140.000000 
0.000000 30.000000 141.000000 
0.000000 30.000000 142.000000 
0.000000 30.000000 143.000000 
0.000000 30.000000 144.000000 
0.000000 30.000000 145.000000 
0.000000 30.000000 146.000000 
0.000000 30.000000 147.000000 
0.000000 30.000000 148.000000 
0.000000 30.000000 149.000000 
0.000000 30.000000 150.000000 
0.000000 30.000000 151.000000 
0.000000 30.000000 152.000000 
0.000000 30.000000 153.000000 
0.000000 30.000000 154.000000 
0.000000 30.000000 155.000000 
0.000000 30.000000 156.000000 
0.000000 30.000000 157.000000 
0.000000 30.000000 158.000000 
0.000000 30.000000 159.000000 
0.000000 30.000000 160.000000 
0.000000 30.000000 161.000000 
0.000000 30.000000 162.000000 
0.000000 30.000000 163.000000 
0.000000 30.000000 164.000000 
0.000000 30.000000 165.000000 
0.000000 30.000000 166.000000 
0.000000 30.000000 167.000000 
0.000000 30.000000 168.000000 
0.000000 30.000000 169.000000 
0.000000 30.000000 170.000000 
0.000000 30.000000 171.000000 
0.000000 30.000000 172.000000 
0.000000 30.000000 173.000000 
0.000000 30.000000 174.000000 
0.000000 30.000000 175.000000 
0.000000 30.000000 176.000000 
0.000000 30.000000 177.000000 
0.000000 30.000000 178.000000 
0.000000 30.000000 179.000000 
0.000000 30.000000 180.000000 
0.000000 30.000000 181.000000 
0.000000 30.000000 182.000000 
0.000000 30.000000 183.000000 
0.000000 30.000000 184.000000 
0.000000 30.000000 185.000000 
0.000000 30.000000 186.000000 
0.000000 30.000000 187.000000 
0.000000 30.000000 188.000000 
0.000000 30.000000 189.000000 
0.000000 30.000000 190.000000 
0.000000 30.000000 191.000000 
0.000000 30.000000 192.000000 
0.000000 30.000000 193.000000 
0.000000 30.000000 194.000000 
0.000000 30.000000 195.000000 
0.000000 30.000000 196.000000 
0.000000 30.000000 197.000000 
0.000000 30.000000 198.000000 
0.000000 30.000000 199.000000 
0.000000 30.000000 200.000000 
0.000000 31.000000 0.000000 
0.000000 31.000000 1.000000 
0.000000 31.000000 2.000000 
0.000000 31.000000 3.000000 
0.000000 31.000000 4.000000 
0.000000 31.000000 5.000000 
0.000000 31.000000 6.000000 
0.000000 31.000000 7.000000 
0.000000 31.000000 8.000000 
0.000000 31.000000 9.000000 
0.000000 31.000000 10.000000 
0.000000 31.000000 11.000000 
0.000000 31.000000 12.000000 
0.000000 31.000000 13.000000 
0.000000 31.000000 14.000000 
0.000000 31.000000 15.000000 
0.000000 31.000000 16.000000 
0.000000 31.000000 17.000000 
0.000000 31.000000 18.000000 
0.000000 31.000000 19.000000 
0.000000 31.000000 20.000000 
0.000000 31.000000 21.000000 
0.000000 31.000000 22.000000 
0.000000 31.000000 23.000000 
0.000000 31.000000 24.000000 
0.000000 31.000000 25.000000 
0.000000 31.000000 26.000000 
0.000000 31.000000 27.000000 
0.000000 31.000000 28.000000 
0.000000 31.000000 29.000000 
0.000000 31.000000 30.000000 
0.000000 31.000000 31.000000 
0.000000 31.000000 32.000000 
0.000000 31.000000 33.000000 
0.000000 31.000000 34.000000 
0.000000 31.000000 35.000000 
0.000000 31.000000 36.000000 
0.000000 31.000000 37.000000 
0.000000 31.000000 38.000000 
0.000000 31.000000 39.000000 
0.000000 31.000000 40.000000 
0.000000 31.000000 41.000000 
0.000000 31.000000 42.000000 
0.000000 31.000000 43.000000 
0.000000 31.000000 44.000000 
0.000000 31.000000 45.000000 
0.000000 31.000000 46.000000 
0.000000 31.000000 47.000000 
0.000000 31.000000 48.000000 
0.000000 31.000000 49.000000 
0.000000 31.000000 50.000000 
0.000000 31.000000 51.000000 
0.000000 31.000000 52.000000 
0.000000 31.000000 53.000000 
0.000000 31.000000 54.000000 
0.000000 31.000000 55.000000 
0.000000 31.000000 56.000000 
0.000000 31.000000 57.000000 
0.000000 31.000000 58.000000 
0.000000 31.000000 59.000000 
0.000000 31.000000 60.000000 
0.000000 31.000000 61.000000 
0.000000 31.000000 62.000000 
0.000000 31.000000 63.000000 
0.000000 31.000000 64.000000 
0.000000 31.000000 65.000000 
0.000000 31.000000 66.000000 
0.000000 31.000000 67.000000 
0.000000 31.000000 68.000000 
0.000000 31.000000 69.000000 
0.000000 31.000000 70.000000 
0.000000 31.000000 71.000000 
0.000000 31.000000 72.000000 
0.000000 31.000000 73.000000 
0.000000 31.000000 74.000000 
0.000000 31.000000 75.000000 
0.000000 31.000000 76.000000 
0.000000 31.000000 77.000000 
0.000000 31.000000 78.000000 
0.000000 31.000000 79.000000 
0.000000 31.000000 80.000000 
0.000000 31.000000 81.000000 
0.000000 31.000000 82.000000 
0.000000 31.000000 83.000000 
0.000000 31.000000 84.000000 
0.000000 31.000000 85.000000 
0.000000 31.000000 86.000000 
0.000000 31.000000 87.000000 
0.000000 31.000000 88.000000 
0.000000 31.000000 89.000000 
0.000000 31.000000 90.000000 
0.000000 31.000000 91.000000 
0.000000 31.000000 92.000000 
0.000000 31.000000 93.000000 
0.000000 31.000000 94.000000 
0.000000 31.000000 95.000000 
0.000000 31.000000 96.000000 
0.000000 31.000000 97.000000 
0.000000 31.000000 98.000000 
0.000000 31.000000 99.000000 
0.000000 31.000000 100.000000 
0.000000 31.000000 101.000000 
0.000000 31.000000 102.000000 
0.000000 31.000000 103.000000 
0.000000 31.000000 104.000000 
0.000000 31.000000 105.000000 
0.000000 31.000000 106.000000 
0.000000 31.000000 107.000000 
0.000000 31.000000 108.000000 
0.000000 31.000000 109.000000 
0.000000 31.000000 110.000000 
0.000000 31.000000 111.000000 
0.000000 31.000000 112.000000 
0.000000 31.000000 113.000000 
0.000000 31.000000 114.000000 
0.000000 31.000000 115.000000 
0.000000 31.000000 116.000000 
0.000000 31.000000 117.000000 
0.000000 31.000000 118.000000 
0.000000 31.000000 119.000000 
0.000000 31.000000 120.000000 
0.000000 31.000000 121.000000 
0.000000 31.000000 122.000000 
0.000000 31.000000 123.000000 
0.000000 31.000000 124.000000 
0.000000 31.000000 125.000000 
0.000000 31.000000 126.000000 
0.000000 31.000000 127.000000 
0.000000 31.000000 128.000000 
0.000000 31.000000 129.000000 
0.000000 31.000000 130.000000 
0.000000 31.000000 131.000000 
0.000000 31.000000 132.000000 
0.000000 31.000000 133.000000 
0.000000 31.000000 134.000000 
0.000000 31.000000 135.000000 
0.000000 31.000000 136.000000 
0.000000 31.000000 137.000000 
0.000000 31.000000 138.000000 
0.000000 31.000000 139.000000 
0.000000 31.000000 140.000000 
0.000000 31.000000 141.000000 
0.000000 31.000000 142.000000 
0.000000 31.000000 143.000000 
0.000000 31.000000 144.000000 
0.000000 31.000000 145.000000 
0.000000 31.000000 146.000000 
0.000000 31.000000 147.000000 
0.000000 31.000000 148.000000 
0.000000 31.000000 149.000000 
0.000000 31.000000 150.000000 
0.000000 31.000000 151.000000 
0.000000 31.000000 152.000000 
0.000000 31.000000 153.000000 
0.000000 31.000000 154.000000 
0.000000 31.000000 155.000000 
0.000000 31.000000 156.000000 
0.000000 31.000000 157.000000 
0.000000 31.000000 158.000000 
0.000000 31.000000 159.000000 
0.000000 31.000000 160.000000 
0.000000 31.000000 161.000000 
0.000000 31.000000 162.000000 
0.000000 31.000000 163.000000 
0.000000 31.000000 164.000000 
0.000000 31.000000 165.000000 
0.000000 31.000000 166.000000 
0.000000 31.000000 167.000000 
0.000000 31.000000 168.000000 
0.000000 31.000000 169.000000 
0.000000 31.000000 170.000000 
0.000000 31.000000 171.000000 
0.000000 31.000000 172.000000 
0.000000 31.000000 173.000000 
0.000000 31.000000 174.000000 
0.000000 31.000000 175.000000 
0.000000 31.000000 176.000000 
0.000000 31.000000 177.000000 
0.000000 31.000000 178.000000 
0.000000 31.000000 179.000000 
0.000000 31.000000 180.000000 
0.000000 31.000000 181.000000 
0.000000 31.000000 182.000000 
0.000000 31.000000 183.000000 
0.000000 31.000000 184.000000 
0.000000 31.000000 185.000000 
0.000000 31.000000 186.000000 
0.000000 31.000000 187.000000 
0.000000 31.000000 188.000000 
0.000000 31.000000 189.000000 
0.000000 31.000000 190.000000 
0.000000 31.000000 191.000000 
0.000000 31.000000 192.000000 
0.000000 31.000000 193.000000 
0.000000 31.000000 194.000000 
0.000000 31.000000 195.000000 
0.000000 31.000000 196.000000 
0.000000 31.000000 197.000000 
0.000000 31.000000 198.000000 
0.000000 31.000000 199.000000 
0.000000 31.000000 200.000000 
0.000000 32.000000 0.000000 
0.000000 32.000000 1.000000 
0.000000 32.000000 2.000000 
0.000000 32.000000 3.000000 
0.000000 32.000000 4.000000 
0.000000 32.000000 5.000000 
0.000000 32.000000 6.000000 
0.000000 32.000000 7.000000 
0.000000 32.000000 8.000000 
0.000000 32.000000 9.000000 
0.000000 32.000000 10.000000 
0.000000 32.000000 11.000000 
0.000000 32.000000 12.000000 
0.000000 32.000000 13.000000 
0.000000 32.000000 14.000000 
0.000000 32.000000 15.000000 
0.000000 32.000000 16.000000 
0.000000 32.000000 17.000000 
0.000000 32.000000 18.000000 
0.000000 32.000000 19.000000 
0.000000 32.000000 20.000000 
0.000000 32.000000 21.000000 
0.000000 32.000000 22.000000 
0.000000 32.000000 23.000000 
0.000000 32.000000 24.000000 
0.000000 32.000000 25.000000 
0.000000 32.000000 26.000000 
0.000000 32.000000 27.000000 
0.000000 32.000000 28.000000 
0.000000 32.000000 29.000000 
0.000000 32.000000 30.000000 
0.000000 32.000000 31.000000 
0.000000 32.000000 32.000000 
0.000000 32.000000 33.000000 
0.000000 32.000000 34.000000 
0.000000 32.000000 35.000000 
0.000000 32.000000 36.000000 
0.000000 32.000000 37.000000 
0.000000 32.000000 38.000000 
0.000000 32.000000 39.000000 
0.000000 32.000000 40.000000 
0.000000 32.000000 41.000000 
0.000000 32.000000 42.000000 
0.000000 32.000000 43.000000 
0.000000 32.000000 44.000000 
0.000000 32.000000 45.000000 
0.000000 32.000000 46.000000 
0.000000 32.000000 47.000000 
0.000000 32.000000 48.000000 
0.000000 32.000000 49.000000 
0.000000 32.000000 50.000000 
0.000000 32.000000 51.000000 
0.000000 32.000000 52.000000 
0.000000 32.000000 53.000000 
0.000000 32.000000 54.000000 
0.000000 32.000000 55.000000 
0.000000 32.000000 56.000000 
0.000000 32.000000 57.000000 
0.000000 32.000000 58.000000 
0.000000 32.000000 59.000000 
0.000000 32.000000 60.000000 
0.000000 32.000000 61.000000 
0.000000 32.000000 62.000000 
0.000000 32.000000 63.000000 
0.000000 32.000000 64.000000 
0.000000 32.000000 65.000000 
0.000000 32.000000 66.000000 
0.000000 32.000000 67.000000 
0.000000 32.000000 68.000000 
0.000000 32.000000 69.000000 
0.000000 32.000000 70.000000 
0.000000 32.000000 71.000000 
0.000000 32.000000 72.000000 
0.000000 32.000000 73.000000 
0.000000 32.000000 74.000000 
0.000000 32.000000 75.000000 
0.000000 32.000000 76.000000 
0.000000 32.000000 77.000000 
0.000000 32.000000 78.000000 
0.000000 32.000000 79.000000 
0.000000 32.000000 80.000000 
0.000000 32.000000 81.000000 
0.000000 32.000000 82.000000 
0.000000 32.000000 83.000000 
0.000000 32.000000 84.000000 
0.000000 32.000000 85.000000 
0.000000 32.000000 86.000000 
0.000000 32.000000 87.000000 
0.000000 32.000000 88.000000 
0.000000 32.000000 89.000000 
0.000000 32.000000 90.000000 
0.000000 32.000000 91.000000 
0.000000 32.000000 92.000000 
0.000000 32.000000 93.000000 
0.000000 32.000000 94.000000 
0.000000 32.000000 95.000000 
0.000000 32.000000 96.000000 
0.000000 32.000000 97.000000 
0.000000 32.000000 98.000000 
0.000000 32.000000 99.000000 
0.000000 32.000000 100.000000 
0.000000 32.000000 101.000000 
0.000000 32.000000 102.000000 
0.000000 32.000000 103.000000 
0.000000 32.000000 104.000000 
0.000000 32.000000 105.000000 
0.000000 32.000000 106.000000 
0.000000 32.000000 107.000000 
0.000000 32.000000 108.000000 
0.000000 32.000000 109.000000 
0.000000 32.000000 110.000000 
0.000000 32.000000 111.000000 
0.000000 32.000000 112.000000 
0.000000 32.000000 113.000000 
0.000000 32.000000 114.000000 
0.000000 32.000000 115.000000 
0.000000 32.000000 116.000000 
0.000000 32.000000 117.000000 
0.000000 32.000000 118.000000 
0.000000 32.000000 119.000000 
0.000000 32.000000 120.000000 
0.000000 32.000000 121.000000 
0.000000 32.000000 122.000000 
0.000000 32.000000 123.000000 
0.000000 32.000000 124.000000 
0.000000 32.000000 125.000000 
0.000000 32.000000 126.000000 
0.000000 32.000000 127.000000 
0.000000 32.000000 128.000000 
0.000000 32.000000 129.000000 
0.000000 32.000000 130.000000 
0.000000 32.000000 131.000000 
0.000000 32.000000 132.000000 
0.000000 32.000000 133.000000 
0.000000 32.000000 134.000000 
0.000000 32.000000 135.000000 
0.000000 32.000000 136.000000 
0.000000 32.000000 137.000000 
0.000000 32.000000 138.000000 
0.000000 32.000000 139.000000 
0.000000 32.000000 140.000000 
0.000000 32.000000 141.000000 
0.000000 32.000000 142.000000 
0.000000 32.000000 143.000000 
0.000000 32.000000 144.000000 
0.000000 32.000000 145.000000 
0.000000 32.000000 146.000000 
0.000000 32.000000 147.000000 
0.000000 32.000000 148.000000 
0.000000 32.000000 149.000000 
0.000000 32.000000 150.000000 
0.000000 32.000000 151.000000 
0.000000 32.000000 152.000000 
0.000000 32.000000 153.000000 
0.000000 32.000000 154.000000 
0.000000 32.000000 155.000000 
0.000000 32.000000 156.000000 
0.000000 32.000000 157.000000 
0.000000 32.000000 158.000000 
0.000000 32.000000 159.000000 
0.000000 32.000000 160.000000 
0.000000 32.000000 161.000000 
0.000000 32.000000 162.000000 
0.000000 32.000000 163.000000 
0.000000 32.000000 164.000000 
0.000000 32.000000 165.000000 
0.000000 32.000000 166.000000 
0.000000 32.000000 167.000000 
0.000000 32.000000 168.000000 
0.000000 32.000000 169.000000 
0.000000 32.000000 170.000000 
0.000000 32.000000 171.000000 
0.000000 32.000000 172.000000 
0.000000 32.000000 173.000000 
0.000000 32.000000 174.000000 
0.000000 32.000000 175.000000 
0.000000 32.000000 176.000000 
0.000000 32.000000 177.000000 
0.000000 32.000000 178.000000 
0.000000 32.000000 179.000000 
0.000000 32.000000 180.000000 
0.000000 32.000000 181.000000 
0.000000 32.000000 182.000000 
0.000000 32.000000 183.000000 
0.000000 32.000000 184.000000 
0.000000 32.000000 185.000000 
0.000000 32.000000 186.000000 
0.000000 32.000000 187.000000 
0.000000 32.000000 188.000000 
0.000000 32.000000 189.000000 
0.000000 32.000000 190.000000 
0.000000 32.000000 191.000000 
0.000000 32.000000 192.000000 
0.000000 32.000000 193.000000 
0.000000 32.000000 194.000000 
0.000000 32.000000 195.000000 
0.000000 32.000000 196.000000 
0.000000 32.000000 197.000000 
0.000000 32.000000 198.000000 
0.000000 32.000000 199.000000 
0.000000 32.000000 200.000000 
0.000000 33.000000 0.000000 
0.000000 33.000000 1.000000 
0.000000 33.000000 2.000000 
0.000000 33.000000 3.000000 
0.000000 33.000000 4.000000 
0.000000 33.000000 5.000000 
0.000000 33.000000 6.000000 
0.000000 33.000000 7.000000 
0.000000 33.000000 8.000000 
0.000000 33.000000 9.000000 
0.000000 33.000000 10.000000 
0.000000 33.000000 11.000000 
0.000000 33.000000 12.000000 
0.000000 33.000000 13.000000 
0.000000 33.000000 14.000000 
0.000000 33.000000 15.000000 
0.000000 33.000000 16.000000 
0.000000 33.000000 17.000000 
0.000000 33.000000 18.000000 
0.000000 33.000000 19.000000 
0.000000 33.000000 20.000000 
0.000000 33.000000 21.000000 
0.000000 33.000000 22.000000 
0.000000 33.000000 23.000000 
0.000000 33.000000 24.000000 
0.000000 33.000000 25.000000 
0.000000 33.000000 26.000000 
0.000000 33.000000 27.000000 
0.000000 33.000000 28.000000 
0.000000 33.000000 29.000000 
0.000000 33.000000 30.000000 
0.000000 33.000000 31.000000 
0.000000 33.000000 32.000000 
0.000000 33.000000 33.000000 
0.000000 33.000000 34.000000 
0.000000 33.000000 35.000000 
0.000000 33.000000 36.000000 
0.000000 33.000000 37.000000 
0.000000 33.000000 38.000000 
0.000000 33.000000 39.000000 
0.000000 33.000000 40.000000 
0.000000 33.000000 41.000000 
0.000000 33.000000 42.000000 
0.000000 33.000000 43.000000 
0.000000 33.000000 44.000000 
0.000000 33.000000 45.000000 
0.000000 33.000000 46.000000 
0.000000 33.000000 47.000000 
0.000000 33.000000 48.000000 
0.000000 33.000000 49.000000 
0.000000 33.000000 50.000000 
0.000000 33.000000 51.000000 
0.000000 33.000000 52.000000 
0.000000 33.000000 53.000000 
0.000000 33.000000 54.000000 
0.000000 33.000000 55.000000 
0.000000 33.000000 56.000000 
0.000000 33.000000 57.000000 
0.000000 33.000000 58.000000 
0.000000 33.000000 59.000000 
0.000000 33.000000 60.000000 
0.000000 33.000000 61.000000 
0.000000 33.000000 62.000000 
0.000000 33.000000 63.000000 
0.000000 33.000000 64.000000 
0.000000 33.000000 65.000000 
0.000000 33.000000 66.000000 
0.000000 33.000000 67.000000 
0.000000 33.000000 68.000000 
0.000000 33.000000 69.000000 
0.000000 33.000000 70.000000 
0.000000 33.000000 71.000000 
0.000000 33.000000 72.000000 
0.000000 33.000000 73.000000 
0.000000 33.000000 74.000000 
0.000000 33.000000 75.000000 
0.000000 33.000000 76.000000 
0.000000 33.000000 77.000000 
0.000000 33.000000 78.000000 
0.000000 33.000000 79.000000 
0.000000 33.000000 80.000000 
0.000000 33.000000 81.000000 
0.000000 33.000000 82.000000 
0.000000 33.000000 83.000000 
0.000000 33.000000 84.000000 
0.000000 33.000000 85.000000 
0.000000 33.000000 86.000000 
0.000000 33.000000 87.000000 
0.000000 33.000000 88.000000 
0.000000 33.000000 89.000000 
0.000000 33.000000 90.000000 
0.000000 33.000000 91.000000 
0.000000 33.000000 92.000000 
0.000000 33.000000 93.000000 
0.000000 33.000000 94.000000 
0.000000 33.000000 95.000000 
0.000000 33.000000 96.000000 
0.000000 33.000000 97.000000 
0.000000 33.000000 98.000000 
0.000000 33.000000 99.000000 
0.000000 33.000000 100.000000 
0.000000 33.000000 101.000000 
0.000000 33.000000 102.000000 
0.000000 33.000000 103.000000 
0.000000 33.000000 104.000000 
0.000000 33.000000 105.000000 
0.000000 33.000000 106.000000 
0.000000 33.000000 107.000000 
0.000000 33.000000 108.000000 
0.000000 33.000000 109.000000 
0.000000 33.000000 110.000000 
0.000000 33.000000 111.000000 
0.000000 33.000000 112.000000 
0.000000 33.000000 113.000000 
0.000000 33.000000 114.000000 
0.000000 33.000000 115.000000 
0.000000 33.000000 116.000000 
0.000000 33.000000 117.000000 
0.000000 33.000000 118.000000 
0.000000 33.000000 119.000000 
0.000000 33.000000 120.000000 
0.000000 33.000000 121.000000 
0.000000 33.000000 122.000000 
0.000000 33.000000 123.000000 
0.000000 33.000000 124.000000 
0.000000 33.000000 125.000000 
0.000000 33.000000 126.000000 
0.000000 33.000000 127.000000 
0.000000 33.000000 128.000000 
0.000000 33.000000 129.000000 
0.000000 33.000000 130.000000 
0.000000 33.000000 131.000000 
0.000000 33.000000 132.000000 
0.000000 33.000000 133.000000 
0.000000 33.000000 134.000000 
0.000000 33.000000 135.000000 
0.000000 33.000000 136.000000 
0.000000 33.000000 137.000000 
0.000000 33.000000 138.000000 
0.000000 33.000000 139.000000 
0.000000 33.000000 140.000000 
0.000000 33.000000 141.000000 
0.000000 33.000000 142.000000 
0.000000 33.000000 143.000000 
0.000000 33.000000 144.000000 
0.000000 33.000000 145.000000 
0.000000 33.000000 146.000000 
0.000000 33.000000 147.000000 
0.000000 33.000000 148.000000 
0.000000 33.000000 149.000000 
0.000000 33.000000 150.000000 
0.000000 33.000000 151.000000 
0.000000 33.000000 152.000000 
0.000000 33.000000 153.000000 
0.000000 33.000000 154.000000 
0.000000 33.000000 155.000000 
0.000000 33.000000 156.000000 
0.000000 33.000000 157.000000 
0.000000 33.000000 158.000000 
0.000000 33.000000 159.000000 
0.000000 33.000000 160.000000 
0.000000 33.000000 161.000000 
0.000000 33.000000 162.000000 
0.000000 33.000000 163.000000 
0.000000 33.000000 164.000000 
0.000000 33.000000 165.000000 
0.000000 33.000000 166.000000 
0.000000 33.000000 167.000000 
0.000000 33.000000 168.000000 
0.000000 33.000000 169.000000 
0.000000 33.000000 170.000000 
0.000000 33.000000 171.000000 
0.000000 33.000000 172.000000 
0.000000 33.000000 173.000000 
0.000000 33.000000 174.000000 
0.000000 33.000000 175.000000 
0.000000 33.000000 176.000000 
0.000000 33.000000 177.000000 
0.000000 33.000000 178.000000 
0.000000 33.000000 179.000000 
0.000000 33.000000 180.000000 
0.000000 33.000000 181.000000 
0.000000 33.000000 182.000000 
0.000000 33.000000 183.000000 
0.000000 33.000000 184.000000 
0.000000 33.000000 185.000000 
0.000000 33.000000 186.000000 
0.000000 33.000000 187.000000 
0.000000 33.000000 188.000000 
0.000000 33.000000 189.000000 
0.000000 33.000000 190.000000 
0.000000 33.000000 191.000000 
0.000000 33.000000 192.000000 
0.000000 33.000000 193.000000 
0.000000 33.000000 194.000000 
0.000000 33.000000 195.000000 
0.000000 33.000000 196.000000 
0.000000 33.000000 197.000000 
0.000000 33.000000 198.000000 
0.000000 33.000000 199.000000 
0.000000 33.000000 200.000000 
0.000000 34.000000 0.000000 
0.000000 34.000000 1.000000 
0.000000 34.000000 2.000000 
0.000000 34.000000 3.000000 
0.000000 34.000000 4.000000 
0.000000 34.000000 5.000000 
0.000000 34.000000 6.000000 
0.000000 34.000000 7.000000 
0.000000 34.000000 8.000000 
0.000000 34.000000 9.000000 
0.000000 34.000000 10.000000 
0.000000 34.000000 11.000000 
0.000000 34.000000 12.000000 
0.000000 34.000000 13.000000 
0.000000 34.000000 14.000000 
0.000000 34.000000 15.000000 
0.000000 34.000000 16.000000 
0.000000 34.000000 17.000000 
0.000000 34.000000 18.000000 
0.000000 34.000000 19.000000 
0.000000 34.000000 20.000000 
0.000000 34.000000 21.000000 
0.000000 34.000000 22.000000 
0.000000 34.000000 23.000000 
0.000000 34.000000 24.000000 
0.000000 34.000000 25.000000 
0.000000 34.000000 26.000000 
0.000000 34.000000 27.000000 
0.000000 34.000000 28.000000 
0.000000 34.000000 29.000000 
0.000000 34.000000 30.000000 
0.000000 34.000000 31.000000 
0.000000 34.000000 32.000000 
0.000000 34.000000 33.000000 
0.000000 34.000000 34.000000 
0.000000 34.000000 35.000000 
0.000000 34.000000 36.000000 
0.000000 34.000000 37.000000 
0.000000 34.000000 38.000000 
0.000000 34.000000 39.000000 
0.000000 34.000000 40.000000 
0.000000 34.000000 41.000000 
0.000000 34.000000 42.000000 
0.000000 34.000000 43.000000 
0.000000 34.000000 44.000000 
0.000000 34.000000 45.000000 
0.000000 34.000000 46.000000 
0.000000 34.000000 47.000000 
0.000000 34.000000 48.000000 
0.000000 34.000000 49.000000 
0.000000 34.000000 50.000000 
0.000000 34.000000 51.000000 
0.000000 34.000000 52.000000 
0.000000 34.000000 53.000000 
0.000000 34.000000 54.000000 
0.000000 34.000000 55.000000 
0.000000 34.000000 56.000000 
0.000000 34.000000 57.000000 
0.000000 34.000000 58.000000 
0.000000 34.000000 59.000000 
0.000000 34.000000 60.000000 
0.000000 34.000000 61.000000 
0.000000 34.000000 62.000000 
0.000000 34.000000 63.000000 
0.000000 34.000000 64.000000 
0.000000 34.000000 65.000000 
0.000000 34.000000 66.000000 
0.000000 34.000000 67.000000 
0.000000 34.000000 68.000000 
0.000000 34.000000 69.000000 
0.000000 34.000000 70.000000 
0.000000 34.000000 71.000000 
0.000000 34.000000 72.000000 
0.000000 34.000000 73.000000 
0.000000 34.000000 74.000000 
0.000000 34.000000 75.000000 
0.000000 34.000000 76.000000 
0.000000 34.000000 77.000000 
0.000000 34.000000 78.000000 
0.000000 34.000000 79.000000 
0.000000 34.000000 80.000000 
0.000000 34.000000 81.000000 
0.000000 34.000000 82.000000 
0.000000 34.000000 83.000000 
0.000000 34.000000 84.000000 
0.000000 34.000000 85.000000 
0.000000 34.000000 86.000000 
0.000000 34.000000 87.000000 
0.000000 34.000000 88.000000 
0.000000 34.000000 89.000000 
0.000000 34.000000 90.000000 
0.000000 34.000000 91.000000 
0.000000 34.000000 92.000000 
0.000000 34.000000 93.000000 
0.000000 34.000000 94.000000 
0.000000 34.000000 95.000000 
0.000000 34.000000 96.000000 
0.000000 34.000000 97.000000 
0.000000 34.000000 98.000000 
0.000000 34.000000 99.000000 
0.000000 34.000000 100.000000 
0.000000 34.000000 101.000000 
0.000000 34.000000 102.000000 
0.000000 34.000000 103.000000 
0.000000 34.000000 104.000000 
0.000000 34.000000 105.000000 
0.000000 34.000000 106.000000 
0.000000 34.000000 107.000000 
0.000000 34.000000 108.000000 
0.000000 34.000000 109.000000 
0.000000 34.000000 110.000000 
0.000000 34.000000 111.000000 
0.000000 34.000000 112.000000 
0.000000 34.000000 113.000000 
0.000000 34.000000 114.000000 
0.000000 34.000000 115.000000 
0.000000 34.000000 116.000000 
0.000000 34.000000 117.000000 
0.000000 34.000000 118.000000 
0.000000 34.000000 119.000000 
0.000000 34.000000 120.000000 
0.000000 34.000000 121.000000 
0.000000 34.000000 122.000000 
0.000000 34.000000 123.000000 
0.000000 34.000000 124.000000 
0.000000 34.000000 125.000000 
0.000000 34.000000 126.000000 
0.000000 34.000000 127.000000 
0.000000 34.000000 128.000000 
0.000000 34.000000 129.000000 
0.000000 34.000000 130.000000 
0.000000 34.000000 131.000000 
0.000000 34.000000 132.000000 
0.000000 34.000000 133.000000 
0.000000 34.000000 134.000000 
0.000000 34.000000 135.000000 
0.000000 34.000000 136.000000 
0.000000 34.000000 137.000000 
0.000000 34.000000 138.000000 
0.000000 34.000000 139.000000 
0.000000 34.000000 140.000000 
0.000000 34.000000 141.000000 
0.000000 34.000000 142.000000 
0.000000 34.000000 143.000000 
0.000000 34.000000 144.000000 
0.000000 34.000000 145.000000 
0.000000 34.000000 146.000000 
0.000000 34.000000 147.000000 
0.000000 34.000000 148.000000 
0.000000 34.000000 149.000000 
0.000000 34.000000 150.000000 
0.000000 34.000000 151.000000 
0.000000 34.000000 152.000000 
0.000000 34.000000 153.000000 
0.000000 34.000000 154.000000 
0.000000 34.000000 155.000000 
0.000000 34.000000 156.000000 
0.000000 34.000000 157.000000 
0.000000 34.000000 158.000000 
0.000000 34.000000 159.000000 
0.000000 34.000000 160.000000 
0.000000 34.000000 161.000000 
0.000000 34.000000 162.000000 
0.000000 34.000000 163.000000 
0.000000 34.000000 164.000000 
0.000000 34.000000 165.000000 
0.000000 34.000000 166.000000 
0.000000 34.000000 167.000000 
0.000000 34.000000 168.000000 
0.000000 34.000000 169.000000 
0.000000 34.000000 170.000000 
0.000000 34.000000 171.000000 
0.000000 34.000000 172.000000 
0.000000 34.000000 173.000000 
0.000000 34.000000 174.000000 
0.000000 34.000000 175.000000 
0.000000 34.000000 176.000000 
0.000000 34.000000 177.000000 
0.000000 34.000000 178.000000 
0.000000 34.000000 179.000000 
0.000000 34.000000 180.000000 
0.000000 34.000000 181.000000 
0.000000 34.000000 182.000000 
0.000000 34.000000 183.000000 
0.000000 34.000000 184.000000 
0.000000 34.000000 185.000000 
0.000000 34.000000 186.000000 
0.000000 34.000000 187.000000 
0.000000 34.000000 188.000000 
0.000000 34.000000 189.000000 
0.000000 34.000000 190.000000 
0.000000 34.000000 191.000000 
0.000000 34.000000 192.000000 
0.000000 34.000000 193.000000 
0.000000 34.000000 194.000000 
0.000000 34.000000 195.000000 
0.000000 34.000000 196.000000 
0.000000 34.000000 197.000000 
0.000000 34.000000 198.000000 
0.000000 34.000000 199.000000 
0.000000 34.000000 200.000000 
0.000000 35.000000 0.000000 
0.000000 35.000000 1.000000 
0.000000 35.000000 2.000000 
0.000000 35.000000 3.000000 
0.000000 35.000000 4.000000 
0.000000 35.000000 5.000000 
0.000000 35.000000 6.000000 
0.000000 35.000000 7.000000 
0.000000 35.000000 8.000000 
0.000000 35.000000 9.000000 
0.000000 35.000000 10.000000 
0.000000 35.000000 11.000000 
0.000000 35.000000 12.000000 
0.000000 35.000000 13.000000 
0.000000 35.000000 14.000000 
0.000000 35.000000 15.000000 
0.000000 35.000000 16.000000 
0.000000 35.000000 17.000000 
0.000000 35.000000 18.000000 
0.000000 35.000000 19.000000 
0.000000 35.000000 20.000000 
0.000000 35.000000 21.000000 
0.000000 35.000000 22.000000 
0.000000 35.000000 23.000000 
0.000000 35.000000 24.000000 
0.000000 35.000000 25.000000 
0.000000 35.000000 26.000000 
0.000000 35.000000 27.000000 
0.000000 35.000000 28.000000 
0.000000 35.000000 29.000000 
0.000000 35.000000 30.000000 
0.000000 35.000000 31.000000 
0.000000 35.000000 32.000000 
0.000000 35.000000 33.000000 
0.000000 35.000000 34.000000 
0.000000 35.000000 35.000000 
0.000000 35.000000 36.000000 
0.000000 35.000000 37.000000 
0.000000 35.000000 38.000000 
0.000000 35.000000 39.000000 
0.000000 35.000000 40.000000 
0.000000 35.000000 41.000000 
0.000000 35.000000 42.000000 
0.000000 35.000000 43.000000 
0.000000 35.000000 44.000000 
0.000000 35.000000 45.000000 
0.000000 35.000000 46.000000 
0.000000 35.000000 47.000000 
0.000000 35.000000 48.000000 
0.000000 35.000000 49.000000 
0.000000 35.000000 50.000000 
0.000000 35.000000 51.000000 
0.000000 35.000000 52.000000 
0.000000 35.000000 53.000000 
0.000000 35.000000 54.000000 
0.000000 35.000000 55.000000 
0.000000 35.000000 56.000000 
0.000000 35.000000 57.000000 
0.000000 35.000000 58.000000 
0.000000 35.000000 59.000000 
0.000000 35.000000 60.000000 
0.000000 35.000000 61.000000 
0.000000 35.000000 62.000000 
0.000000 35.000000 63.000000 
0.000000 35.000000 64.000000 
0.000000 35.000000 65.000000 
0.000000 35.000000 66.000000 
0.000000 35.000000 67.000000 
0.000000 35.000000 68.000000 
0.000000 35.000000 69.000000 
0.000000 35.000000 70.000000 
0.000000 35.000000 71.000000 
0.000000 35.000000 72.000000 
0.000000 35.000000 73.000000 
0.000000 35.000000 74.000000 
0.000000 35.000000 75.000000 
0.000000 35.000000 76.000000 
0.000000 35.000000 77.000000 
0.000000 35.000000 78.000000 
0.000000 35.000000 79.000000 
0.000000 35.000000 80.000000 
0.000000 35.000000 81.000000 
0.000000 35.000000 82.000000 
0.000000 35.000000 83.000000 
0.000000 35.000000 84.000000 
0.000000 35.000000 85.000000 
0.000000 35.000000 86.000000 
0.000000 35.000000 87.000000 
0.000000 35.000000 88.000000 
0.000000 35.000000 89.000000 
0.000000 35.000000 90.000000 
0.000000 35.000000 91.000000 
0.000000 35.000000 92.000000 
0.000000 35.000000 93.000000 
0.000000 35.000000 94.000000 
0.000000 35.000000 95.000000 
0.000000 35.000000 96.000000 
0.000000 35.000000 97.000000 
0.000000 35.000000 98.000000 
0.000000 35.000000 99.000000 
0.000000 35.000000 100.000000 
0.000000 35.000000 101.000000 
0.000000 35.000000 102.000000 
0.000000 35.000000 103.000000 
0.000000 35.000000 104.000000 
0.000000 35.000000 105.000000 
0.000000 35.000000 106.000000 
0.000000 35.000000 107.000000 
0.000000 35.000000 108.000000 
0.000000 35.000000 109.000000 
0.000000 35.000000 110.000000 
0.000000 35.000000 111.000000 
0.000000 35.000000 112.000000 
0.000000 35.000000 113.000000 
0.000000 35.000000 114.000000 
0.000000 35.000000 115.000000 
0.000000 35.000000 116.000000 
0.000000 35.000000 117.000000 
0.000000 35.000000 118.000000 
0.000000 35.000000 119.000000 
0.000000 35.000000 120.000000 
0.000000 35.000000 121.000000 
0.000000 35.000000 122.000000 
0.000000 35.000000 123.000000 
0.000000 35.000000 124.000000 
0.000000 35.000000 125.000000 
0.000000 35.000000 126.000000 
0.000000 35.000000 127.000000 
0.000000 35.000000 128.000000 
0.000000 35.000000 129.000000 
0.000000 35.000000 130.000000 
0.000000 35.000000 131.000000 
0.000000 35.000000 132.000000 
0.000000 35.000000 133.000000 
0.000000 35.000000 134.000000 
0.000000 35.000000 135.000000 
0.000000 35.000000 136.000000 
0.000000 35.000000 137.000000 
0.000000 35.000000 138.000000 
0.000000 35.000000 139.000000 
0.000000 35.000000 140.000000 
0.000000 35.000000 141.000000 
0.000000 35.000000 142.000000 
0.000000 35.000000 143.000000 
0.000000 35.000000 144.000000 
0.000000 35.000000 145.000000 
0.000000 35.000000 146.000000 
0.000000 35.000000 147.000000 
0.000000 35.000000 148.000000 
0.000000 35.000000 149.000000 
0.000000 35.000000 150.000000 
0.000000 35.000000 151.000000 
0.000000 35.000000 152.000000 
0.000000 35.000000 153.000000 
0.000000 35.000000 154.000000 
0.000000 35.000000 155.000000 
0.000000 35.000000 156.000000 
0.000000 35.000000 157.000000 
0.000000 35.000000 158.000000 
0.000000 35.000000 159.000000 
0.000000 35.000000 160.000000 
0.000000 35.000000 161.000000 
0.000000 35.000000 162.000000 
0.000000 35.000000 163.000000 
0.000000 35.000000 164.000000 
0.000000 35.000000 165.000000 
0.000000 35.000000 166.000000 
0.000000 35.000000 167.000000 
0.000000 35.000000 168.000000 
0.000000 35.000000 169.000000 
0.000000 35.000000 170.000000 
0.000000 35.000000 171.000000 
0.000000 35.000000 172.000000 
0.000000 35.000000 173.000000 
0.000000 35.000000 174.000000 
0.000000 35.000000 175.000000 
0.000000 35.000000 176.000000 
0.000000 35.000000 177.000000 
0.000000 35.000000 178.000000 
0.000000 35.000000 179.000000 
0.000000 35.000000 180.000000 
0.000000 35.000000 181.000000 
0.000000 35.000000 182.000000 
0.000000 35.000000 183.000000 
0.000000 35.000000 184.000000 
0.000000 35.000000 185.000000 
0.000000 35.000000 186.000000 
0.000000 35.000000 187.000000 
0.000000 35.000000 188.000000 
0.000000 35.000000 189.000000 
0.000000 35.000000 190.000000 
0.000000 35.000000 191.000000 
0.000000 35.000000 192.000000 
0.000000 35.000000 193.000000 
0.000000 35.000000 194.000000 
0.000000 35.000000 195.000000 
0.000000 35.000000 196.000000 
0.000000 35.000000 197.000000 
0.000000 35.000000 198.000000 
0.000000 35.000000 199.000000 
0.000000 35.000000 200.000000 
0.000000 36.000000 0.000000 
0.000000 36.000000 1.000000 
0.000000 36.000000 2.000000 
0.000000 36.000000 3.000000 
0.000000 36.000000 4.000000 
0.000000 36.000000 5.000000 
0.000000 36.000000 6.000000 
0.000000 36.000000 7.000000 
0.000000 36.000000 8.000000 
0.000000 36.000000 9.000000 
0.000000 36.000000 10.000000 
0.000000 36.000000 11.000000 
0.000000 36.000000 12.000000 
0.000000 36.000000 13.000000 
0.000000 36.000000 14.000000 
0.000000 36.000000 15.000000 
0.000000 36.000000 16.000000 
0.000000 36.000000 17.000000 
0.000000 36.000000 18.000000 
0.000000 36.000000 19.000000 
0.000000 36.000000 20.000000 
0.000000 36.000000 21.000000 
0.000000 36.000000 22.000000 
0.000000 36.000000 23.000000 
0.000000 36.000000 24.000000 
0.000000 36.000000 25.000000 
0.000000 36.000000 26.000000 
0.000000 36.000000 27.000000 
0.000000 36.000000 28.000000 
0.000000 36.000000 29.000000 
0.000000 36.000000 30.000000 
0.000000 36.000000 31.000000 
0.000000 36.000000 32.000000 
0.000000 36.000000 33.000000 
0.000000 36.000000 34.000000 
0.000000 36.000000 35.000000 
0.000000 36.000000 36.000000 
0.000000 36.000000 37.000000 
0.000000 36.000000 38.000000 
0.000000 36.000000 39.000000 
0.000000 36.000000 40.000000 
0.000000 36.000000 41.000000 
0.000000 36.000000 42.000000 
0.000000 36.000000 43.000000 
0.000000 36.000000 44.000000 
0.000000 36.000000 45.000000 
0.000000 36.000000 46.000000 
0.000000 36.000000 47.000000 
0.000000 36.000000 48.000000 
0.000000 36.000000 49.000000 
0.000000 36.000000 50.000000 
0.000000 36.000000 51.000000 
0.000000 36.000000 52.000000 
0.000000 36.000000 53.000000 
0.000000 36.000000 54.000000 
0.000000 36.000000 55.000000 
0.000000 36.000000 56.000000 
0.000000 36.000000 57.000000 
0.000000 36.000000 58.000000 
0.000000 36.000000 59.000000 
0.000000 36.000000 60.000000 
0.000000 36.000000 61.000000 
0.000000 36.000000 62.000000 
0.000000 36.000000 63.000000 
0.000000 36.000000 64.000000 
0.000000 36.000000 65.000000 
0.000000 36.000000 66.000000 
0.000000 36.000000 67.000000 
0.000000 36.000000 68.000000 
0.000000 36.000000 69.000000 
0.000000 36.000000 70.000000 
0.000000 36.000000 71.000000 
0.000000 36.000000 72.000000 
0.000000 36.000000 73.000000 
0.000000 36.000000 74.000000 
0.000000 36.000000 75.000000 
0.000000 36.000000 76.000000 
0.000000 36.000000 77.000000 
0.000000 36.000000 78.000000 
0.000000 36.000000 79.000000 
0.000000 36.000000 80.000000 
0.000000 36.000000 81.000000 
0.000000 36.000000 82.000000 
0.000000 36.000000 83.000000 
0.000000 36.000000 84.000000 
0.000000 36.000000 85.000000 
0.000000 36.000000 86.000000 
0.000000 36.000000 87.000000 
0.000000 36.000000 88.000000 
0.000000 36.000000 89.000000 
0.000000 36.000000 90.000000 
0.000000 36.000000 91.000000 
0.000000 36.000000 92.000000 
0.000000 36.000000 93.000000 
0.000000 36.000000 94.000000 
0.000000 36.000000 95.000000 
0.000000 36.000000 96.000000 
0.000000 36.000000 97.000000 
0.000000 36.000000 98.000000 
0.000000 36.000000 99.000000 
0.000000 36.000000 100.000000 
0.000000 36.000000 101.000000 
0.000000 36.000000 102.000000 
0.000000 36.000000 103.000000 
0.000000 36.000000 104.000000 
0.000000 36.000000 105.000000 
0.000000 36.000000 106.000000 
0.000000 36.000000 107.000000 
0.000000 36.000000 108.000000 
0.000000 36.000000 109.000000 
0.000000 36.000000 110.000000 
0.000000 36.000000 111.000000 
0.000000 36.000000 112.000000 
0.000000 36.000000 113.000000 
0.000000 36.000000 114.000000 
0.000000 36.000000 115.000000 
0.000000 36.000000 116.000000 
0.000000 36.000000 117.000000 
0.000000 36.000000 118.000000 
0.000000 36.000000 119.000000 
0.000000 36.000000 120.000000 
0.000000 36.000000 121.000000 
0.000000 36.000000 122.000000 
0.000000 36.000000 123.000000 
0.000000 36.000000 124.000000 
0.000000 36.000000 125.000000 
0.000000 36.000000 126.000000 
0.000000 36.000000 127.000000 
0.000000 36.000000 128.000000 
0.000000 36.000000 129.000000 
0.000000 36.000000 130.000000 
0.000000 36.000000 131.000000 
0.000000 36.000000 132.000000 
0.000000 36.000000 133.000000 
0.000000 36.000000 134.000000 
0.000000 36.000000 135.000000 
0.000000 36.000000 136.000000 
0.000000 36.000000 137.000000 
0.000000 36.000000 138.000000 
0.000000 36.000000 139.000000 
0.000000 36.000000 140.000000 
0.000000 36.000000 141.000000 
0.000000 36.000000 142.000000 
0.000000 36.000000 143.000000 
0.000000 36.000000 144.000000 
0.000000 36.000000 145.000000 
0.000000 36.000000 146.000000 
0.000000 36.000000 147.000000 
0.000000 36.000000 148.000000 
0.000000 36.000000 149.000000 
0.000000 36.000000 150.000000 
0.000000 36.000000 151.000000 
0.000000 36.000000 152.000000 
0.000000 36.000000 153.000000 
0.000000 36.000000 154.000000 
0.000000 36.000000 155.000000 
0.000000 36.000000 156.000000 
0.000000 36.000000 157.000000 
0.000000 36.000000 158.000000 
0.000000 36.000000 159.000000 
0.000000 36.000000 160.000000 
0.000000 36.000000 161.000000 
0.000000 36.000000 162.000000 
0.000000 36.000000 163.000000 
0.000000 36.000000 164.000000 
0.000000 36.000000 165.000000 
0.000000 36.000000 166.000000 
0.000000 36.000000 167.000000 
0.000000 36.000000 168.000000 
0.000000 36.000000 169.000000 
0.000000 36.000000 170.000000 
0.000000 36.000000 171.000000 
0.000000 36.000000 172.000000 
0.000000 36.000000 173.000000 
0.000000 36.000000 174.000000 
0.000000 36.000000 175.000000 
0.000000 36.000000 176.000000 
0.000000 36.000000 177.000000 
0.000000 36.000000 178.000000 
0.000000 36.000000 179.000000 
0.000000 36.000000 180.000000 
0.000000 36.000000 181.000000 
0.000000 36.000000 182.000000 
0.000000 36.000000 183.000000 
0.000000 36.000000 184.000000 
0.000000 36.000000 185.000000 
0.000000 36.000000 186.000000 
0.000000 36.000000 187.000000 
0.000000 36.000000 188.000000 
0.000000 36.000000 189.000000 
0.000000 36.000000 190.000000 
0.000000 36.000000 191.000000 
0.000000 36.000000 192.000000 
0.000000 36.000000 193.000000 
0.000000 36.000000 194.000000 
0.000000 36.000000 195.000000 
0.000000 36.000000 196.000000 
0.000000 36.000000 197.000000 
0.000000 36.000000 198.000000 
0.000000 36.000000 199.000000 
0.000000 36.000000 200.000000 
0.000000 37.000000 0.000000 
0.000000 37.000000 1.000000 
0.000000 37.000000 2.000000 
0.000000 37.000000 3.000000 
0.000000 37.000000 4.000000 
0.000000 37.000000 5.000000 
0.000000 37.000000 6.000000 
0.000000 37.000000 7.000000 
0.000000 37.000000 8.000000 
0.000000 37.000000 9.000000 
0.000000 37.000000 10.000000 
0.000000 37.000000 11.000000 
0.000000 37.000000 12.000000 
0.000000 37.000000 13.000000 
0.000000 37.000000 14.000000 
0.000000 37.000000 15.000000 
0.000000 37.000000 16.000000 
0.000000 37.000000 17.000000 
0.000000 37.000000 18.000000 
0.000000 37.000000 19.000000 
0.000000 37.000000 20.000000 
0.000000 37.000000 21.000000 
0.000000 37.000000 22.000000 
0.000000 37.000000 23.000000 
0.000000 37.000000 24.000000 
0.000000 37.000000 25.000000 
0.000000 37.000000 26.000000 
0.000000 37.000000 27.000000 
0.000000 37.000000 28.000000 
0.000000 37.000000 29.000000 
0.000000 37.000000 30.000000 
0.000000 37.000000 31.000000 
0.000000 37.000000 32.000000 
0.000000 37.000000 33.000000 
0.000000 37.000000 34.000000 
0.000000 37.000000 35.000000 
0.000000 37.000000 36.000000 
0.000000 37.000000 37.000000 
0.000000 37.000000 38.000000 
0.000000 37.000000 39.000000 
0.000000 37.000000 40.000000 
0.000000 37.000000 41.000000 
0.000000 37.000000 42.000000 
0.000000 37.000000 43.000000 
0.000000 37.000000 44.000000 
0.000000 37.000000 45.000000 
0.000000 37.000000 46.000000 
0.000000 37.000000 47.000000 
0.000000 37.000000 48.000000 
0.000000 37.000000 49.000000 
0.000000 37.000000 50.000000 
0.000000 37.000000 51.000000 
0.000000 37.000000 52.000000 
0.000000 37.000000 53.000000 
0.000000 37.000000 54.000000 
0.000000 37.000000 55.000000 
0.000000 37.000000 56.000000 
0.000000 37.000000 57.000000 
0.000000 37.000000 58.000000 
0.000000 37.000000 59.000000 
0.000000 37.000000 60.000000 
0.000000 37.000000 61.000000 
0.000000 37.000000 62.000000 
0.000000 37.000000 63.000000 
0.000000 37.000000 64.000000 
0.000000 37.000000 65.000000 
0.000000 37.000000 66.000000 
0.000000 37.000000 67.000000 
0.000000 37.000000 68.000000 
0.000000 37.000000 69.000000 
0.000000 37.000000 70.000000 
0.000000 37.000000 71.000000 
0.000000 37.000000 72.000000 
0.000000 37.000000 73.000000 
0.000000 37.000000 74.000000 
0.000000 37.000000 75.000000 
0.000000 37.000000 76.000000 
0.000000 37.000000 77.000000 
0.000000 37.000000 78.000000 
0.000000 37.000000 79.000000 
0.000000 37.000000 80.000000 
0.000000 37.000000 81.000000 
0.000000 37.000000 82.000000 
0.000000 37.000000 83.000000 
0.000000 37.000000 84.000000 
0.000000 37.000000 85.000000 
0.000000 37.000000 86.000000 
0.000000 37.000000 87.000000 
0.000000 37.000000 88.000000 
0.000000 37.000000 89.000000 
0.000000 37.000000 90.000000 
0.000000 37.000000 91.000000 
0.000000 37.000000 92.000000 
0.000000 37.000000 93.000000 
0.000000 37.000000 94.000000 
0.000000 37.000000 95.000000 
0.000000 37.000000 96.000000 
0.000000 37.000000 97.000000 
0.000000 37.000000 98.000000 
0.000000 37.000000 99.000000 
0.000000 37.000000 100.000000 
0.000000 37.000000 101.000000 
0.000000 37.000000 102.000000 
0.000000 37.000000 103.000000 
0.000000 37.000000 104.000000 
0.000000 37.000000 105.000000 
0.000000 37.000000 106.000000 
0.000000 37.000000 107.000000 
0.000000 37.000000 108.000000 
0.000000 37.000000 109.000000 
0.000000 37.000000 110.000000 
0.000000 37.000000 111.000000 
0.000000 37.000000 112.000000 
0.000000 37.000000 113.000000 
0.000000 37.000000 114.000000 
0.000000 37.000000 115.000000 
0.000000 37.000000 116.000000 
0.000000 37.000000 117.000000 
0.000000 37.000000 118.000000 
0.000000 37.000000 119.000000 
0.000000 37.000000 120.000000 
0.000000 37.000000 121.000000 
0.000000 37.000000 122.000000 
0.000000 37.000000 123.000000 
0.000000 37.000000 124.000000 
0.000000 37.000000 125.000000 
0.000000 37.000000 126.000000 
0.000000 37.000000 127.000000 
0.000000 37.000000 128.000000 
0.000000 37.000000 129.000000 
0.000000 37.000000 130.000000 
0.000000 37.000000 131.000000 
0.000000 37.000000 132.000000 
0.000000 37.000000 133.000000 
0.000000 37.000000 134.000000 
0.000000 37.000000 135.000000 
0.000000 37.000000 136.000000 
0.000000 37.000000 137.000000 
0.000000 37.000000 138.000000 
0.000000 37.000000 139.000000 
0.000000 37.000000 140.000000 
0.000000 37.000000 141.000000 
0.000000 37.000000 142.000000 
0.000000 37.000000 143.000000 
0.000000 37.000000 144.000000 
0.000000 37.000000 145.000000 
0.000000 37.000000 146.000000 
0.000000 37.000000 147.000000 
0.000000 37.000000 148.000000 
0.000000 37.000000 149.000000 
0.000000 37.000000 150.000000 
0.000000 37.000000 151.000000 
0.000000 37.000000 152.000000 
0.000000 37.000000 153.000000 
0.000000 37.000000 154.000000 
0.000000 37.000000 155.000000 
0.000000 37.000000 156.000000 
0.000000 37.000000 157.000000 
0.000000 37.000000 158.000000 
0.000000 37.000000 159.000000 
0.000000 37.000000 160.000000 
0.000000 37.000000 161.000000 
0.000000 37.000000 162.000000 
0.000000 37.000000 163.000000 
0.000000 37.000000 164.000000 
0.000000 37.000000 165.000000 
0.000000 37.000000 166.000000 
0.000000 37.000000 167.000000 
0.000000 37.000000 168.000000 
0.000000 37.000000 169.000000 
0.000000 37.000000 170.000000 
0.000000 37.000000 171.000000 
0.000000 37.000000 172.000000 
0.000000 37.000000 173.000000 
0.000000 37.000000 174.000000 
0.000000 37.000000 175.000000 
0.000000 37.000000 176.000000 
0.000000 37.000000 177.000000 
0.000000 37.000000 178.000000 
0.000000 37.000000 179.000000 
0.000000 37.000000 180.000000 
0.000000 37.000000 181.000000 
0.000000 37.000000 182.000000 
0.000000 37.000000 183.000000 
0.000000 37.000000 184.000000 
0.000000 37.000000 185.000000 
0.000000 37.000000 186.000000 
0.000000 37.000000 187.000000 
0.000000 37.000000 188.000000 
0.000000 37.000000 189.000000 
0.000000 37.000000 190.000000 
0.000000 37.000000 191.000000 
0.000000 37.000000 192.000000 
0.000000 37.000000 193.000000 
0.000000 37.000000 194.000000 
0.000000 37.000000 195.000000 
0.000000 37.000000 196.000000 
0.000000 37.000000 197.000000 
0.000000 37.000000 198.000000 
0.000000 37.000000 199.000000 
0.000000 37.000000 200.000000 
0.000000 38.000000 0.000000 
0.000000 38.000000 1.000000 
0.000000 38.000000 2.000000 
0.000000 38.000000 3.000000 
0.000000 38.000000 4.000000 
0.000000 38.000000 5.000000 
0.000000 38.000000 6.000000 
0.000000 38.000000 7.000000 
0.000000 38.000000 8.000000 
0.000000 38.000000 9.000000 
0.000000 38.000000 10.000000 
0.000000 38.000000 11.000000 
0.000000 38.000000 12.000000 
0.000000 38.000000 13.000000 
0.000000 38.000000 14.000000 
0.000000 38.000000 15.000000 
0.000000 38.000000 16.000000 
0.000000 38.000000 17.000000 
0.000000 38.000000 18.000000 
0.000000 38.000000 19.000000 
0.000000 38.000000 20.000000 
0.000000 38.000000 21.000000 
0.000000 38.000000 22.000000 
0.000000 38.000000 23.000000 
0.000000 38.000000 24.000000 
0.000000 38.000000 25.000000 
0.000000 38.000000 26.000000 
0.000000 38.000000 27.000000 
0.000000 38.000000 28.000000 
0.000000 38.000000 29.000000 
0.000000 38.000000 30.000000 
0.000000 38.000000 31.000000 
0.000000 38.000000 32.000000 
0.000000 38.000000 33.000000 
0.000000 38.000000 34.000000 
0.000000 38.000000 35.000000 
0.000000 38.000000 36.000000 
0.000000 38.000000 37.000000 
0.000000 38.000000 38.000000 
0.000000 38.000000 39.000000 
0.000000 38.000000 40.000000 
0.000000 38.000000 41.000000 
0.000000 38.000000 42.000000 
0.000000 38.000000 43.000000 
0.000000 38.000000 44.000000 
0.000000 38.000000 45.000000 
0.000000 38.000000 46.000000 
0.000000 38.000000 47.000000 
0.000000 38.000000 48.000000 
0.000000 38.000000 49.000000 
0.000000 38.000000 50.000000 
0.000000 38.000000 51.000000 
0.000000 38.000000 52.000000 
0.000000 38.000000 53.000000 
0.000000 38.000000 54.000000 
0.000000 38.000000 55.000000 
0.000000 38.000000 56.000000 
0.000000 38.000000 57.000000 
0.000000 38.000000 58.000000 
0.000000 38.000000 59.000000 
0.000000 38.000000 60.000000 
0.000000 38.000000 61.000000 
0.000000 38.000000 62.000000 
0.000000 38.000000 63.000000 
0.000000 38.000000 64.000000 
0.000000 38.000000 65.000000 
0.000000 38.000000 66.000000 
0.000000 38.000000 67.000000 
0.000000 38.000000 68.000000 
0.000000 38.000000 69.000000 
0.000000 38.000000 70.000000 
0.000000 38.000000 71.000000 
0.000000 38.000000 72.000000 
0.000000 38.000000 73.000000 
0.000000 38.000000 74.000000 
0.000000 38.000000 75.000000 
0.000000 38.000000 76.000000 
0.000000 38.000000 77.000000 
0.000000 38.000000 78.000000 
0.000000 38.000000 79.000000 
0.000000 38.000000 80.000000 
0.000000 38.000000 81.000000 
0.000000 38.000000 82.000000 
0.000000 38.000000 83.000000 
0.000000 38.000000 84.000000 
0.000000 38.000000 85.000000 
0.000000 38.000000 86.000000 
0.000000 38.000000 87.000000 
0.000000 38.000000 88.000000 
0.000000 38.000000 89.000000 
0.000000 38.000000 90.000000 
0.000000 38.000000 91.000000 
0.000000 38.000000 92.000000 
0.000000 38.000000 93.000000 
0.000000 38.000000 94.000000 
0.000000 38.000000 95.000000 
0.000000 38.000000 96.000000 
0.000000 38.000000 97.000000 
0.000000 38.000000 98.000000 
0.000000 38.000000 99.000000 
0.000000 38.000000 100.000000 
0.000000 38.000000 101.000000 
0.000000 38.000000 102.000000 
0.000000 38.000000 103.000000 
0.000000 38.000000 104.000000 
0.000000 38.000000 105.000000 
0.000000 38.000000 106.000000 
0.000000 38.000000 107.000000 
0.000000 38.000000 108.000000 
0.000000 38.000000 109.000000 
0.000000 38.000000 110.000000 
0.000000 38.000000 111.000000 
0.000000 38.000000 112.000000 
0.000000 38.000000 113.000000 
0.000000 38.000000 114.000000 
0.000000 38.000000 115.000000 
0.000000 38.000000 116.000000 
0.000000 38.000000 117.000000 
0.000000 38.000000 118.000000 
0.000000 38.000000 119.000000 
0.000000 38.000000 120.000000 
0.000000 38.000000 121.000000 
0.000000 38.000000 122.000000 
0.000000 38.000000 123.000000 
0.000000 38.000000 124.000000 
0.000000 38.000000 125.000000 
0.000000 38.000000 126.000000 
0.000000 38.000000 127.000000 
0.000000 38.000000 128.000000 
0.000000 38.000000 129.000000 
0.000000 38.000000 130.000000 
0.000000 38.000000 131.000000 
0.000000 38.000000 132.000000 
0.000000 38.000000 133.000000 
0.000000 38.000000 134.000000 
0.000000 38.000000 135.000000 
0.000000 38.000000 136.000000 
0.000000 38.000000 137.000000 
0.000000 38.000000 138.000000 
0.000000 38.000000 139.000000 
0.000000 38.000000 140.000000 
0.000000 38.000000 141.000000 
0.000000 38.000000 142.000000 
0.000000 38.000000 143.000000 
0.000000 38.000000 144.000000 
0.000000 38.000000 145.000000 
0.000000 38.000000 146.000000 
0.000000 38.000000 147.000000 
0.000000 38.000000 148.000000 
0.000000 38.000000 149.000000 
0.000000 38.000000 150.000000 
0.000000 38.000000 151.000000 
0.000000 38.000000 152.000000 
0.000000 38.000000 153.000000 
0.000000 38.000000 154.000000 
0.000000 38.000000 155.000000 
0.000000 38.000000 156.000000 
0.000000 38.000000 157.000000 
0.000000 38.000000 158.000000 
0.000000 38.000000 159.000000 
0.000000 38.000000 160.000000 
0.000000 38.000000 161.000000 
0.000000 38.000000 162.000000 
0.000000 38.000000 163.000000 
0.000000 38.000000 164.000000 
0.000000 38.000000 165.000000 
0.000000 38.000000 166.000000 
0.000000 38.000000 167.000000 
0.000000 38.000000 168.000000 
0.000000 38.000000 169.000000 
0.000000 38.000000 170.000000 
0.000000 38.000000 171.000000 
0.000000 38.000000 172.000000 
0.000000 38.000000 173.000000 
0.000000 38.000000 174.000000 
0.000000 38.000000 175.000000 
0.000000 38.000000 176.000000 
0.000000 38.000000 177.000000 
0.000000 38.000000 178.000000 
0.000000 38.000000 179.000000 
0.000000 38.000000 180.000000 
0.000000 38.000000 181.000000 
0.000000 38.000000 182.000000 
0.000000 38.000000 183.000000 
0.000000 38.000000 184.000000 
0.000000 38.000000 185.000000 
0.000000 38.000000 186.000000 
0.000000 38.000000 187.000000 
0.000000 38.000000 188.000000 
0.000000 38.000000 189.000000 
0.000000 38.000000 190.000000 
0.000000 38.000000 191.000000 
0.000000 38.000000 192.000000 
0.000000 38.000000 193.000000 
0.000000 38.000000 194.000000 
0.000000 38.000000 195.000000 
0.000000 38.000000 196.000000 
0.000000 38.000000 197.000000 
0.000000 38.000000 198.000000 
0.000000 38.000000 199.000000 
0.000000 38.000000 200.000000 
0.000000 39.000000 0.000000 
0.000000 39.000000 1.000000 
0.000000 39.000000 2.000000 
0.000000 39.000000 3.000000 
0.000000 39.000000 4.000000 
0.000000 39.000000 5.000000 
0.000000 39.000000 6.000000 
0.000000 39.000000 7.000000 
0.000000 39.000000 8.000000 
0.000000 39.000000 9.000000 
0.000000 39.000000 10.000000 
0.000000 39.000000 11.000000 
0.000000 39.000000 12.000000 
0.000000 39.000000 13.000000 
0.000000 39.000000 14.000000 
0.000000 39.000000 15.000000 
0.000000 39.000000 16.000000 
0.000000 39.000000 17.000000 
0.000000 39.000000 18.000000 
0.000000 39.000000 19.000000 
0.000000 39.000000 20.000000 
0.000000 39.000000 21.000000 
0.000000 39.000000 22.000000 
0.000000 39.000000 23.000000 
0.000000 39.000000 24.000000 
0.000000 39.000000 25.000000 
0.000000 39.000000 26.000000 
0.000000 39.000000 27.000000 
0.000000 39.000000 28.000000 
0.000000 39.000000 29.000000 
0.000000 39.000000 30.000000 
0.000000 39.000000 31.000000 
0.000000 39.000000 32.000000 
0.000000 39.000000 33.000000 
0.000000 39.000000 34.000000 
0.000000 39.000000 35.000000 
0.000000 39.000000 36.000000 
0.000000 39.000000 37.000000 
0.000000 39.000000 38.000000 
0.000000 39.000000 39.000000 
0.000000 39.000000 40.000000 
0.000000 39.000000 41.000000 
0.000000 39.000000 42.000000 
0.000000 39.000000 43.000000 
0.000000 39.000000 44.000000 
0.000000 39.000000 45.000000 
0.000000 39.000000 46.000000 
0.000000 39.000000 47.000000 
0.000000 39.000000 48.000000 
0.000000 39.000000 49.000000 
0.000000 39.000000 50.000000 
0.000000 39.000000 51.000000 
0.000000 39.000000 52.000000 
0.000000 39.000000 53.000000 
0.000000 39.000000 54.000000 
0.000000 39.000000 55.000000 
0.000000 39.000000 56.000000 
0.000000 39.000000 57.000000 
0.000000 39.000000 58.000000 
0.000000 39.000000 59.000000 
0.000000 39.000000 60.000000 
0.000000 39.000000 61.000000 
0.000000 39.000000 62.000000 
0.000000 39.000000 63.000000 
0.000000 39.000000 64.000000 
0.000000 39.000000 65.000000 
0.000000 39.000000 66.000000 
0.000000 39.000000 67.000000 
0.000000 39.000000 68.000000 
0.000000 39.000000 69.000000 
0.000000 39.000000 70.000000 
0.000000 39.000000 71.000000 
0.000000 39.000000 72.000000 
0.000000 39.000000 73.000000 
0.000000 39.000000 74.000000 
0.000000 39.000000 75.000000 
0.000000 39.000000 76.000000 
0.000000 39.000000 77.000000 
0.000000 39.000000 78.000000 
0.000000 39.000000 79.000000 
0.000000 39.000000 80.000000 
0.000000 39.000000 81.000000 
0.000000 39.000000 82.000000 
0.000000 39.000000 83.000000 
0.000000 39.000000 84.000000 
0.000000 39.000000 85.000000 
0.000000 39.000000 86.000000 
0.000000 39.000000 87.000000 
0.000000 39.000000 88.000000 
0.000000 39.000000 89.000000 
0.000000 39.000000 90.000000 
0.000000 39.000000 91.000000 
0.000000 39.000000 92.000000 
0.000000 39.000000 93.000000 
0.000000 39.000000 94.000000 
0.000000 39.000000 95.000000 
0.000000 39.000000 96.000000 
0.000000 39.000000 97.000000 
0.000000 39.000000 98.000000 
0.000000 39.000000 99.000000 
0.000000 39.000000 100.000000 
0.000000 39.000000 101.000000 
0.000000 39.000000 102.000000 
0.000000 39.000000 103.000000 
0.000000 39.000000 104.000000 
0.000000 39.000000 105.000000 
0.000000 39.000000 106.000000 
0.000000 39.000000 107.000000 
0.000000 39.000000 108.000000 
0.000000 39.000000 109.000000 
0.000000 39.000000 110.000000 
0.000000 39.000000 111.000000 
0.000000 39.000000 112.000000 
0.000000 39.000000 113.000000 
0.000000 39.000000 114.000000 
0.000000 39.000000 115.000000 
0.000000 39.000000 116.000000 
0.000000 39.000000 117.000000 
0.000000 39.000000 118.000000 
0.000000 39.000000 119.000000 
0.000000 39.000000 120.000000 
0.000000 39.000000 121.000000 
0.000000 39.000000 122.000000 
0.000000 39.000000 123.000000 
0.000000 39.000000 124.000000 
0.000000 39.000000 125.000000 
0.000000 39.000000 126.000000 
0.000000 39.000000 127.000000 
0.000000 39.000000 128.000000 
0.000000 39.000000 129.000000 
0.000000 39.000000 130.000000 
0.000000 39.000000 131.000000 
0.000000 39.000000 132.000000 
0.000000 39.000000 133.000000 
0.000000 39.000000 134.000000 
0.000000 39.000000 135.000000 
0.000000 39.000000 136.000000 
0.000000 39.000000 137.000000 
0.000000 39.000000 138.000000 
0.000000 39.000000 139.000000 
0.000000 39.000000 140.000000 
0.000000 39.000000 141.000000 
0.000000 39.000000 142.000000 
0.000000 39.000000 143.000000 
0.000000 39.000000 144.000000 
0.000000 39.000000 145.000000 
0.000000 39.000000 146.000000 
0.000000 39.000000 147.000000 
0.000000 39.000000 148.000000 
0.000000 39.000000 149.000000 
0.000000 39.000000 150.000000 
0.000000 39.000000 151.000000 
0.000000 39.000000 152.000000 
0.000000 39.000000 153.000000 
0.000000 39.000000 154.000000 
0.000000 39.000000 155.000000 
0.000000 39.000000 156.000000 
0.000000 39.000000 157.000000 
0.000000 39.000000 158.000000 
0.000000 39.000000 159.000000 
0.000000 39.000000 160.000000 
0.000000 39.000000 161.000000 
0.000000 39.000000 162.000000 
0.000000 39.000000 163.000000 
0.000000 39.000000 164.000000 
0.000000 39.000000 165.000000 
0.000000 39.000000 166.000000 
0.000000 39.000000 167.000000 
0.000000 39.000000 168.000000 
0.000000 39.000000 169.000000 
0.000000 39.000000 170.000000 
0.000000 39.000000 171.000000 
0.000000 39.000000 172.000000 
0.000000 39.000000 173.000000 
0.000000 39.000000 174.000000 
0.000000 39.000000 175.000000 
0.000000 39.000000 176.000000 
0.000000 39.000000 177.000000 
0.000000 39.000000 178.000000 
0.000000 39.000000 179.000000 
0.000000 39.000000 180.000000 
0.000000 39.000000 181.000000 
0.000000 39.000000 182.000000 
0.000000 39.000000 183.000000 
0.000000 39.000000 184.000000 
0.000000 39.000000 185.000000 
0.000000 39.000000 186.000000 
0.000000 39.000000 187.000000 
0.000000 39.000000 188.000000 
0.000000 39.000000 189.000000 
0.000000 39.000000 190.000000 
0.000000 39.000000 191.000000 
0.000000 39.000000 192.000000 
0.000000 39.000000 193.000000 
0.000000 39.000000 194.000000 
0.000000 39.000000 195.000000 
0.000000 39.000000 196.000000 
0.000000 39.000000 197.000000 
0.000000 39.000000 198.000000 
0.000000 39.000000 199.000000 
0.000000 39.000000 200.000000 
0.000000 40.000000 0.000000 
0.000000 40.000000 1.000000 
0.000000 40.000000 2.000000 
0.000000 40.000000 3.000000 
0.000000 40.000000 4.000000 
0.000000 40.000000 5.000000 
0.000000 40.000000 6.000000 
0.000000 40.000000 7.000000 
0.000000 40.000000 8.000000 
0.000000 40.000000 9.000000 
0.000000 40.000000 10.000000 
0.000000 40.000000 11.000000 
0.000000 40.000000 12.000000 
0.000000 40.000000 13.000000 
0.000000 40.000000 14.000000 
0.000000 40.000000 15.000000 
0.000000 40.000000 16.000000 
0.000000 40.000000 17.000000 
0.000000 40.000000 18.000000 
0.000000 40.000000 19.000000 
0.000000 40.000000 20.000000 
0.000000 40.000000 21.000000 
0.000000 40.000000 22.000000 
0.000000 40.000000 23.000000 
0.000000 40.000000 24.000000 
0.000000 40.000000 25.000000 
0.000000 40.000000 26.000000 
0.000000 40.000000 27.000000 
0.000000 40.000000 28.000000 
0.000000 40.000000 29.000000 
0.000000 40.000000 30.000000 
0.000000 40.000000 31.000000 
0.000000 40.000000 32.000000 
0.000000 40.000000 33.000000 
0.000000 40.000000 34.000000 
0.000000 40.000000 35.000000 
0.000000 40.000000 36.000000 
0.000000 40.000000 37.000000 
0.000000 40.000000 38.000000 
0.000000 40.000000 39.000000 
0.000000 40.000000 40.000000 
0.000000 40.000000 41.000000 
0.000000 40.000000 42.000000 
0.000000 40.000000 43.000000 
0.000000 40.000000 44.000000 
0.000000 40.000000 45.000000 
0.000000 40.000000 46.000000 
0.000000 40.000000 47.000000 
0.000000 40.000000 48.000000 
0.000000 40.000000 49.000000 
0.000000 40.000000 50.000000 
0.000000 40.000000 51.000000 
0.000000 40.000000 52.000000 
0.000000 40.000000 53.000000 
0.000000 40.000000 54.000000 
0.000000 40.000000 55.000000 
0.000000 40.000000 56.000000 
0.000000 40.000000 57.000000 
0.000000 40.000000 58.000000 
0.000000 40.000000 59.000000 
0.000000 40.000000 60.000000 
0.000000 40.000000 61.000000 
0.000000 40.000000 62.000000 
0.000000 40.000000 63.000000 
0.000000 40.000000 64.000000 
0.000000 40.000000 65.000000 
0.000000 40.000000 66.000000 
0.000000 40.000000 67.000000 
0.000000 40.000000 68.000000 
0.000000 40.000000 69.000000 
0.000000 40.000000 70.000000 
0.000000 40.000000 71.000000 
0.000000 40.000000 72.000000 
0.000000 40.000000 73.000000 
0.000000 40.000000 74.000000 
0.000000 40.000000 75.000000 
0.000000 40.000000 76.000000 
0.000000 40.000000 77.000000 
0.000000 40.000000 78.000000 
0.000000 40.000000 79.000000 
0.000000 40.000000 80.000000 
0.000000 40.000000 81.000000 
0.000000 40.000000 82.000000 
0.000000 40.000000 83.000000 
0.000000 40.000000 84.000000 
0.000000 40.000000 85.000000 
0.000000 40.000000 86.000000 
0.000000 40.000000 87.000000 
0.000000 40.000000 88.000000 
0.000000 40.000000 89.000000 
0.000000 40.000000 90.000000 
0.000000 40.000000 91.000000 
0.000000 40.000000 92.000000 
0.000000 40.000000 93.000000 
0.000000 40.000000 94.000000 
0.000000 40.000000 95.000000 
0.000000 40.000000 96.000000 
0.000000 40.000000 97.000000 
0.000000 40.000000 98.000000 
0.000000 40.000000 99.000000 
0.000000 40.000000 100.000000 
0.000000 40.000000 101.000000 
0.000000 40.000000 102.000000 
0.000000 40.000000 103.000000 
0.000000 40.000000 104.000000 
0.000000 40.000000 105.000000 
0.000000 40.000000 106.000000 
0.000000 40.000000 107.000000 
0.000000 40.000000 108.000000 
0.000000 40.000000 109.000000 
0.000000 40.000000 110.000000 
0.000000 40.000000 111.000000 
0.000000 40.000000 112.000000 
0.000000 40.000000 113.000000 
0.000000 40.000000 114.000000 
0.000000 40.000000 115.000000 
0.000000 40.000000 116.000000 
0.000000 40.000000 117.000000 
0.000000 40.000000 118.000000 
0.000000 40.000000 119.000000 
0.000000 40.000000 120.000000 
0.000000 40.000000 121.000000 
0.000000 40.000000 122.000000 
0.000000 40.000000 123.000000 
0.000000 40.000000 124.000000 
0.000000 40.000000 125.000000 
0.000000 40.000000 126.000000 
0.000000 40.000000 127.000000 
0.000000 40.000000 128.000000 
0.000000 40.000000 129.000000 
0.000000 40.000000 130.000000 
0.000000 40.000000 131.000000 
0.000000 40.000000 132.000000 
0.000000 40.000000 133.000000 
0.000000 40.000000 134.000000 
0.000000 40.000000 135.000000 
0.000000 40.000000 136.000000 
0.000000 40.000000 137.000000 
0.000000 40.000000 138.000000 
0.000000 40.000000 139.000000 
0.000000 40.000000 140.000000 
0.000000 40.000000 141.000000 
0.000000 40.000000 142.000000 
0.000000 40.000000 143.000000 
0.000000 40.000000 144.000000 
0.000000 40.000000 145.000000 
0.000000 40.000000 146.000000 
0.000000 40.000000 147.000000 
0.000000 40.000000 148.000000 
0.000000 40.000000 149.000000 
0.000000 40.000000 150.000000 
0.000000 40.000000 151.000000 
0.000000 40.000000 152.000000 
0.000000 40.000000 153.000000 
0.000000 40.000000 154.000000 
0.000000 40.000000 155.000000 
0.000000 40.000000 156.000000 
0.000000 40.000000 157.000000 
0.000000 40.000000 158.000000 
0.000000 40.000000 159.000000 
0.000000 40.000000 160.000000 
0.000000 40.000000 161.000000 
0.000000 40.000000 162.000000 
0.000000 40.000000 163.000000 
0.000000 40.000000 164.000000 
0.000000 40.000000 165.000000 
0.000000 40.000000 166.000000 
0.000000 40.000000 167.000000 
0.000000 40.000000 168.000000 
0.000000 40.000000 169.000000 
0.000000 40.000000 170.000000 
0.000000 40.000000 171.000000 
0.000000 40.000000 172.000000 
0.000000 40.000000 173.000000 
0.000000 40.000000 174.000000 
0.000000 40.000000 175.000000 
0.000000 40.000000 176.000000 
0.000000 40.000000 177.000000 
0.000000 40.000000 178.000000 
0.000000 40.000000 179.000000 
0.000000 40.000000 180.000000 
0.000000 40.000000 181.000000 
0.000000 40.000000 182.000000 
0.000000 40.000000 183.000000 
0.000000 40.000000 184.000000 
0.000000 40.000000 185.000000 
0.000000 40.000000 186.000000 
0.000000 40.000000 187.000000 
0.000000 40.000000 188.000000 
0.000000 40.000000 189.000000 
0.000000 40.000000 190.000000 
0.000000 40.000000 191.000000 
0.000000 40.000000 192.000000 
0.000000 40.000000 193.000000 
0.000000 40.000000 194.000000 
0.000000 40.000000 195.000000 
0.000000 40.000000 196.000000 
0.000000 40.000000 197.000000 
0.000000 40.000000 198.000000 
0.000000 40.000000 199.000000 
0.000000 40.000000 200.000000 
0.000000 41.000000 0.000000 
0.000000 41.000000 1.000000 
0.000000 41.000000 2.000000 
0.000000 41.000000 3.000000 
0.000000 41.000000 4.000000 
0.000000 41.000000 5.000000 
0.000000 41.000000 6.000000 
0.000000 41.000000 7.000000 
0.000000 41.000000 8.000000 
0.000000 41.000000 9.000000 
0.000000 41.000000 10.000000 
0.000000 41.000000 11.000000 
0.000000 41.000000 12.000000 
0.000000 41.000000 13.000000 
0.000000 41.000000 14.000000 
0.000000 41.000000 15.000000 
0.000000 41.000000 16.000000 
0.000000 41.000000 17.000000 
0.000000 41.000000 18.000000 
0.000000 41.000000 19.000000 
0.000000 41.000000 20.000000 
0.000000 41.000000 21.000000 
0.000000 41.000000 22.000000 
0.000000 41.000000 23.000000 
0.000000 41.000000 24.000000 
0.000000 41.000000 25.000000 
0.000000 41.000000 26.000000 
0.000000 41.000000 27.000000 
0.000000 41.000000 28.000000 
0.000000 41.000000 29.000000 
0.000000 41.000000 30.000000 
0.000000 41.000000 31.000000 
0.000000 41.000000 32.000000 
0.000000 41.000000 33.000000 
0.000000 41.000000 34.000000 
0.000000 41.000000 35.000000 
0.000000 41.000000 36.000000 
0.000000 41.000000 37.000000 
0.000000 41.000000 38.000000 
0.000000 41.000000 39.000000 
0.000000 41.000000 40.000000 
0.000000 41.000000 41.000000 
0.000000 41.000000 42.000000 
0.000000 41.000000 43.000000 
0.000000 41.000000 44.000000 
0.000000 41.000000 45.000000 
0.000000 41.000000 46.000000 
0.000000 41.000000 47.000000 
0.000000 41.000000 48.000000 
0.000000 41.000000 49.000000 
0.000000 41.000000 50.000000 
0.000000 41.000000 51.000000 
0.000000 41.000000 52.000000 
0.000000 41.000000 53.000000 
0.000000 41.000000 54.000000 
0.000000 41.000000 55.000000 
0.000000 41.000000 56.000000 
0.000000 41.000000 57.000000 
0.000000 41.000000 58.000000 
0.000000 41.000000 59.000000 
0.000000 41.000000 60.000000 
0.000000 41.000000 61.000000 
0.000000 41.000000 62.000000 
0.000000 41.000000 63.000000 
0.000000 41.000000 64.000000 
0.000000 41.000000 65.000000 
0.000000 41.000000 66.000000 
0.000000 41.000000 67.000000 
0.000000 41.000000 68.000000 
0.000000 41.000000 69.000000 
0.000000 41.000000 70.000000 
0.000000 41.000000 71.000000 
0.000000 41.000000 72.000000 
0.000000 41.000000 73.000000 
0.000000 41.000000 74.000000 
0.000000 41.000000 75.000000 
0.000000 41.000000 76.000000 
0.000000 41.000000 77.000000 
0.000000 41.000000 78.000000 
0.000000 41.000000 79.000000 
0.000000 41.000000 80.000000 
0.000000 41.000000 81.000000 
0.000000 41.000000 82.000000 
0.000000 41.000000 83.000000 
0.000000 41.000000 84.000000 
0.000000 41.000000 85.000000 
0.000000 41.000000 86.000000 
0.000000 41.000000 87.000000 
0.000000 41.000000 88.000000 
0.000000 41.000000 89.000000 
0.000000 41.000000 90.000000 
0.000000 41.000000 91.000000 
0.000000 41.000000 92.000000 
0.000000 41.000000 93.000000 
0.000000 41.000000 94.000000 
0.000000 41.000000 95.000000 
0.000000 41.000000 96.000000 
0.000000 41.000000 97.000000 
0.000000 41.000000 98.000000 
0.000000 41.000000 99.000000 
0.000000 41.000000 100.000000 
0.000000 41.000000 101.000000 
0.000000 41.000000 102.000000 
0.000000 41.000000 103.000000 
0.000000 41.000000 104.000000 
0.000000 41.000000 105.000000 
0.000000 41.000000 106.000000 
0.000000 41.000000 107.000000 
0.000000 41.000000 108.000000 
0.000000 41.000000 109.000000 
0.000000 41.000000 110.000000 
0.000000 41.000000 111.000000 
0.000000 41.000000 112.000000 
0.000000 41.000000 113.000000 
0.000000 41.000000 114.000000 
0.000000 41.000000 115.000000 
0.000000 41.000000 116.000000 
0.000000 41.000000 117.000000 
0.000000 41.000000 118.000000 
0.000000 41.000000 119.000000 
0.000000 41.000000 120.000000 
0.000000 41.000000 121.000000 
0.000000 41.000000 122.000000 
0.000000 41.000000 123.000000 
0.000000 41.000000 124.000000 
0.000000 41.000000 125.000000 
0.000000 41.000000 126.000000 
0.000000 41.000000 127.000000 
0.000000 41.000000 128.000000 
0.000000 41.000000 129.000000 
0.000000 41.000000 130.000000 
0.000000 41.000000 131.000000 
0.000000 41.000000 132.000000 
0.000000 41.000000 133.000000 
0.000000 41.000000 134.000000 
0.000000 41.000000 135.000000 
0.000000 41.000000 136.000000 
0.000000 41.000000 137.000000 
0.000000 41.000000 138.000000 
0.000000 41.000000 139.000000 
0.000000 41.000000 140.000000 
0.000000 41.000000 141.000000 
0.000000 41.000000 142.000000 
0.000000 41.000000 143.000000 
0.000000 41.000000 144.000000 
0.000000 41.000000 145.000000 
0.000000 41.000000 146.000000 
0.000000 41.000000 147.000000 
0.000000 41.000000 148.000000 
0.000000 41.000000 149.000000 
0.000000 41.000000 150.000000 
0.000000 41.000000 151.000000 
0.000000 41.000000 152.000000 
0.000000 41.000000 153.000000 
0.000000 41.000000 154.000000 
0.000000 41.000000 155.000000 
0.000000 41.000000 156.000000 
0.000000 41.000000 157.000000 
0.000000 41.000000 158.000000 
0.000000 41.000000 159.000000 
0.000000 41.000000 160.000000 
0.000000 41.000000 161.000000 
0.000000 41.000000 162.000000 
0.000000 41.000000 163.000000 
0.000000 41.000000 164.000000 
0.000000 41.000000 165.000000 
0.000000 41.000000 166.000000 
0.000000 41.000000 167.000000 
0.000000 41.000000 168.000000 
0.000000 41.000000 169.000000 
0.000000 41.000000 170.000000 
0.000000 41.000000 171.000000 
0.000000 41.000000 172.000000 
0.000000 41.000000 173.000000 
0.000000 41.000000 174.000000 
0.000000 41.000000 175.000000 
0.000000 41.000000 176.000000 
0.000000 41.000000 177.000000 
0.000000 41.000000 178.000000 
0.000000 41.000000 179.000000 
0.000000 41.000000 180.000000 
0.000000 41.000000 181.000000 
0.000000 41.000000 182.000000 
0.000000 41.000000 183.000000 
0.000000 41.000000 184.000000 
0.000000 41.000000 185.000000 
0.000000 41.000000 186.000000 
0.000000 41.000000 187.000000 
0.000000 41.000000 188.000000 
0.000000 41.000000 189.000000 
0.000000 41.000000 190.000000 
0.000000 41.000000 191.000000 
0.000000 41.000000 192.000000 
0.000000 41.000000 193.000000 
0.000000 41.000000 194.000000 
0.000000 41.000000 195.000000 
0.000000 41.000000 196.000000 
0.000000 41.000000 197.000000 
0.000000 41.000000 198.000000 
0.000000 41.000000 199.000000 
0.000000 41.000000 200.000000 
0.000000 42.000000 0.000000 
0.000000 42.000000 1.000000 
0.000000 42.000000 2.000000 
0.000000 42.000000 3.000000 
0.000000 42.000000 4.000000 
0.000000 42.000000 5.000000 
0.000000 42.000000 6.000000 
0.000000 42.000000 7.000000 
0.000000 42.000000 8.000000 
0.000000 42.000000 9.000000 
0.000000 42.000000 10.000000 
0.000000 42.000000 11.000000 
0.000000 42.000000 12.000000 
0.000000 42.000000 13.000000 
0.000000 42.000000 14.000000 
0.000000 42.000000 15.000000 
0.000000 42.000000 16.000000 
0.000000 42.000000 17.000000 
0.000000 42.000000 18.000000 
0.000000 42.000000 19.000000 
0.000000 42.000000 20.000000 
0.000000 42.000000 21.000000 
0.000000 42.000000 22.000000 
0.000000 42.000000 23.000000 
0.000000 42.000000 24.000000 
0.000000 42.000000 25.000000 
0.000000 42.000000 26.000000 
0.000000 42.000000 27.000000 
0.000000 42.000000 28.000000 
0.000000 42.000000 29.000000 
0.000000 42.000000 30.000000 
0.000000 42.000000 31.000000 
0.000000 42.000000 32.000000 
0.000000 42.000000 33.000000 
0.000000 42.000000 34.000000 
0.000000 42.000000 35.000000 
0.000000 42.000000 36.000000 
0.000000 42.000000 37.000000 
0.000000 42.000000 38.000000 
0.000000 42.000000 39.000000 
0.000000 42.000000 40.000000 
0.000000 42.000000 41.000000 
0.000000 42.000000 42.000000 
0.000000 42.000000 43.000000 
0.000000 42.000000 44.000000 
0.000000 42.000000 45.000000 
0.000000 42.000000 46.000000 
0.000000 42.000000 47.000000 
0.000000 42.000000 48.000000 
0.000000 42.000000 49.000000 
0.000000 42.000000 50.000000 
0.000000 42.000000 51.000000 
0.000000 42.000000 52.000000 
0.000000 42.000000 53.000000 
0.000000 42.000000 54.000000 
0.000000 42.000000 55.000000 
0.000000 42.000000 56.000000 
0.000000 42.000000 57.000000 
0.000000 42.000000 58.000000 
0.000000 42.000000 59.000000 
0.000000 42.000000 60.000000 
0.000000 42.000000 61.000000 
0.000000 42.000000 62.000000 
0.000000 42.000000 63.000000 
0.000000 42.000000 64.000000 
0.000000 42.000000 65.000000 
0.000000 42.000000 66.000000 
0.000000 42.000000 67.000000 
0.000000 42.000000 68.000000 
0.000000 42.000000 69.000000 
0.000000 42.000000 70.000000 
0.000000 42.000000 71.000000 
0.000000 42.000000 72.000000 
0.000000 42.000000 73.000000 
0.000000 42.000000 74.000000 
0.000000 42.000000 75.000000 
0.000000 42.000000 76.000000 
0.000000 42.000000 77.000000 
0.000000 42.000000 78.000000 
0.000000 42.000000 79.000000 
0.000000 42.000000 80.000000 
0.000000 42.000000 81.000000 
0.000000 42.000000 82.000000 
0.000000 42.000000 83.000000 
0.000000 42.000000 84.000000 
0.000000 42.000000 85.000000 
0.000000 42.000000 86.000000 
0.000000 42.000000 87.000000 
0.000000 42.000000 88.000000 
0.000000 42.000000 89.000000 
0.000000 42.000000 90.000000 
0.000000 42.000000 91.000000 
0.000000 42.000000 92.000000 
0.000000 42.000000 93.000000 
0.000000 42.000000 94.000000 
0.000000 42.000000 95.000000 
0.000000 42.000000 96.000000 
0.000000 42.000000 97.000000 
0.000000 42.000000 98.000000 
0.000000 42.000000 99.000000 
0.000000 42.000000 100.000000 
0.000000 42.000000 101.000000 
0.000000 42.000000 102.000000 
0.000000 42.000000 103.000000 
0.000000 42.000000 104.000000 
0.000000 42.000000 105.000000 
0.000000 42.000000 106.000000 
0.000000 42.000000 107.000000 
0.000000 42.000000 108.000000 
0.000000 42.000000 109.000000 
0.000000 42.000000 110.000000 
0.000000 42.000000 111.000000 
0.000000 42.000000 112.000000 
0.000000 42.000000 113.000000 
0.000000 42.000000 114.000000 
0.000000 42.000000 115.000000 
0.000000 42.000000 116.000000 
0.000000 42.000000 117.000000 
0.000000 42.000000 118.000000 
0.000000 42.000000 119.000000 
0.000000 42.000000 120.000000 
0.000000 42.000000 121.000000 
0.000000 42.000000 122.000000 
0.000000 42.000000 123.000000 
0.000000 42.000000 124.000000 
0.000000 42.000000 125.000000 
0.000000 42.000000 126.000000 
0.000000 42.000000 127.000000 
0.000000 42.000000 128.000000 
0.000000 42.000000 129.000000 
0.000000 42.000000 130.000000 
0.000000 42.000000 131.000000 
0.000000 42.000000 132.000000 
0.000000 42.000000 133.000000 
0.000000 42.000000 134.000000 
0.000000 42.000000 135.000000 
0.000000 42.000000 136.000000 
0.000000 42.000000 137.000000 
0.000000 42.000000 138.000000 
0.000000 42.000000 139.000000 
0.000000 42.000000 140.000000 
0.000000 42.000000 141.000000 
0.000000 42.000000 142.000000 
0.000000 42.000000 143.000000 
0.000000 42.000000 144.000000 
0.000000 42.000000 145.000000 
0.000000 42.000000 146.000000 
0.000000 42.000000 147.000000 
0.000000 42.000000 148.000000 
0.000000 42.000000 149.000000 
0.000000 42.000000 150.000000 
0.000000 42.000000 151.000000 
0.000000 42.000000 152.000000 
0.000000 42.000000 153.000000 
0.000000 42.000000 154.000000 
0.000000 42.000000 155.000000 
0.000000 42.000000 156.000000 
0.000000 42.000000 157.000000 
0.000000 42.000000 158.000000 
0.000000 42.000000 159.000000 
0.000000 42.000000 160.000000 
0.000000 42.000000 161.000000 
0.000000 42.000000 162.000000 
0.000000 42.000000 163.000000 
0.000000 42.000000 164.000000 
0.000000 42.000000 165.000000 
0.000000 42.000000 166.000000 
0.000000 42.000000 167.000000 
0.000000 42.000000 168.000000 
0.000000 42.000000 169.000000 
0.000000 42.000000 170.000000 
0.000000 42.000000 171.000000 
0.000000 42.000000 172.000000 
0.000000 42.000000 173.000000 
0.000000 42.000000 174.000000 
0.000000 42.000000 175.000000 
0.000000 42.000000 176.000000 
0.000000 42.000000 177.000000 
0.000000 42.000000 178.000000 
0.000000 42.000000 179.000000 
0.000000 42.000000 180.000000 
0.000000 42.000000 181.000000 
0.000000 42.000000 182.000000 
0.000000 42.000000 183.000000 
0.000000 42.000000 184.000000 
0.000000 42.000000 185.000000 
0.000000 42.000000 186.000000 
0.000000 42.000000 187.000000 
0.000000 42.000000 188.000000 
0.000000 42.000000 189.000000 
0.000000 42.000000 190.000000 
0.000000 42.000000 191.000000 
0.000000 42.000000 192.000000 
0.000000 42.000000 193.000000 
0.000000 42.000000 194.000000 
0.000000 42.000000 195.000000 
0.000000 42.000000 196.000000 
0.000000 42.000000 197.000000 
0.000000 42.000000 198.000000 
0.000000 42.000000 199.000000 
0.000000 42.000000 200.000000 
0.000000 43.000000 0.000000 
0.000000 43.000000 1.000000 
0.000000 43.000000 2.000000 
0.000000 43.000000 3.000000 
0.000000 43.000000 4.000000 
0.000000 43.000000 5.000000 
0.000000 43.000000 6.000000 
0.000000 43.000000 7.000000 
0.000000 43.000000 8.000000 
0.000000 43.000000 9.000000 
0.000000 43.000000 10.000000 
0.000000 43.000000 11.000000 
0.000000 43.000000 12.000000 
0.000000 43.000000 13.000000 
0.000000 43.000000 14.000000 
0.000000 43.000000 15.000000 
0.000000 43.000000 16.000000 
0.000000 43.000000 17.000000 
0.000000 43.000000 18.000000 
0.000000 43.000000 19.000000 
0.000000 43.000000 20.000000 
0.000000 43.000000 21.000000 
0.000000 43.000000 22.000000 
0.000000 43.000000 23.000000 
0.000000 43.000000 24.000000 
0.000000 43.000000 25.000000 
0.000000 43.000000 26.000000 
0.000000 43.000000 27.000000 
0.000000 43.000000 28.000000 
0.000000 43.000000 29.000000 
0.000000 43.000000 30.000000 
0.000000 43.000000 31.000000 
0.000000 43.000000 32.000000 
0.000000 43.000000 33.000000 
0.000000 43.000000 34.000000 
0.000000 43.000000 35.000000 
0.000000 43.000000 36.000000 
0.000000 43.000000 37.000000 
0.000000 43.000000 38.000000 
0.000000 43.000000 39.000000 
0.000000 43.000000 40.000000 
0.000000 43.000000 41.000000 
0.000000 43.000000 42.000000 
0.000000 43.000000 43.000000 
0.000000 43.000000 44.000000 
0.000000 43.000000 45.000000 
0.000000 43.000000 46.000000 
0.000000 43.000000 47.000000 
0.000000 43.000000 48.000000 
0.000000 43.000000 49.000000 
0.000000 43.000000 50.000000 
0.000000 43.000000 51.000000 
0.000000 43.000000 52.000000 
0.000000 43.000000 53.000000 
0.000000 43.000000 54.000000 
0.000000 43.000000 55.000000 
0.000000 43.000000 56.000000 
0.000000 43.000000 57.000000 
0.000000 43.000000 58.000000 
0.000000 43.000000 59.000000 
0.000000 43.000000 60.000000 
0.000000 43.000000 61.000000 
0.000000 43.000000 62.000000 
0.000000 43.000000 63.000000 
0.000000 43.000000 64.000000 
0.000000 43.000000 65.000000 
0.000000 43.000000 66.000000 
0.000000 43.000000 67.000000 
0.000000 43.000000 68.000000 
0.000000 43.000000 69.000000 
0.000000 43.000000 70.000000 
0.000000 43.000000 71.000000 
0.000000 43.000000 72.000000 
0.000000 43.000000 73.000000 
0.000000 43.000000 74.000000 
0.000000 43.000000 75.000000 
0.000000 43.000000 76.000000 
0.000000 43.000000 77.000000 
0.000000 43.000000 78.000000 
0.000000 43.000000 79.000000 
0.000000 43.000000 80.000000 
0.000000 43.000000 81.000000 
0.000000 43.000000 82.000000 
0.000000 43.000000 83.000000 
0.000000 43.000000 84.000000 
0.000000 43.000000 85.000000 
0.000000 43.000000 86.000000 
0.000000 43.000000 87.000000 
0.000000 43.000000 88.000000 
0.000000 43.000000 89.000000 
0.000000 43.000000 90.000000 
0.000000 43.000000 91.000000 
0.000000 43.000000 92.000000 
0.000000 43.000000 93.000000 
0.000000 43.000000 94.000000 
0.000000 43.000000 95.000000 
0.000000 43.000000 96.000000 
0.000000 43.000000 97.000000 
0.000000 43.000000 98.000000 
0.000000 43.000000 99.000000 
0.000000 43.000000 100.000000 
0.000000 43.000000 101.000000 
0.000000 43.000000 102.000000 
0.000000 43.000000 103.000000 
0.000000 43.000000 104.000000 
0.000000 43.000000 105.000000 
0.000000 43.000000 106.000000 
0.000000 43.000000 107.000000 
0.000000 43.000000 108.000000 
0.000000 43.000000 109.000000 
0.000000 43.000000 110.000000 
0.000000 43.000000 111.000000 
0.000000 43.000000 112.000000 
0.000000 43.000000 113.000000 
0.000000 43.000000 114.000000 
0.000000 43.000000 115.000000 
0.000000 43.000000 116.000000 
0.000000 43.000000 117.000000 
0.000000 43.000000 118.000000 
0.000000 43.000000 119.000000 
0.000000 43.000000 120.000000 
0.000000 43.000000 121.000000 
0.000000 43.000000 122.000000 
0.000000 43.000000 123.000000 
0.000000 43.000000 124.000000 
0.000000 43.000000 125.000000 
0.000000 43.000000 126.000000 
0.000000 43.000000 127.000000 
0.000000 43.000000 128.000000 
0.000000 43.000000 129.000000 
0.000000 43.000000 130.000000 
0.000000 43.000000 131.000000 
0.000000 43.000000 132.000000 
0.000000 43.000000 133.000000 
0.000000 43.000000 134.000000 
0.000000 43.000000 135.000000 
0.000000 43.000000 136.000000 
0.000000 43.000000 137.000000 
0.000000 43.000000 138.000000 
0.000000 43.000000 139.000000 
0.000000 43.000000 140.000000 
0.000000 43.000000 141.000000 
0.000000 43.000000 142.000000 
0.000000 43.000000 143.000000 
0.000000 43.000000 144.000000 
0.000000 43.000000 145.000000 
0.000000 43.000000 146.000000 
0.000000 43.000000 147.000000 
0.000000 43.000000 148.000000 
0.000000 43.000000 149.000000 
0.000000 43.000000 150.000000 
0.000000 43.000000 151.000000 
0.000000 43.000000 152.000000 
0.000000 43.000000 153.000000 
0.000000 43.000000 154.000000 
0.000000 43.000000 155.000000 
0.000000 43.000000 156.000000 
0.000000 43.000000 157.000000 
0.000000 43.000000 158.000000 
0.000000 43.000000 159.000000 
0.000000 43.000000 160.000000 
0.000000 43.000000 161.000000 
0.000000 43.000000 162.000000 
0.000000 43.000000 163.000000 
0.000000 43.000000 164.000000 
0.000000 43.000000 165.000000 
0.000000 43.000000 166.000000 
0.000000 43.000000 167.000000 
0.000000 43.000000 168.000000 
0.000000 43.000000 169.000000 
0.000000 43.000000 170.000000 
0.000000 43.000000 171.000000 
0.000000 43.000000 172.000000 
0.000000 43.000000 173.000000 
0.000000 43.000000 174.000000 
0.000000 43.000000 175.000000 
0.000000 43.000000 176.000000 
0.000000 43.000000 177.000000 
0.000000 43.000000 178.000000 
0.000000 43.000000 179.000000 
0.000000 43.000000 180.000000 
0.000000 43.000000 181.000000 
0.000000 43.000000 182.000000 
0.000000 43.000000 183.000000 
0.000000 43.000000 184.000000 
0.000000 43.000000 185.000000 
0.000000 43.000000 186.000000 
0.000000 43.000000 187.000000 
0.000000 43.000000 188.000000 
0.000000 43.000000 189.000000 
0.000000 43.000000 190.000000 
0.000000 43.000000 191.000000 
0.000000 43.000000 192.000000 
0.000000 43.000000 193.000000 
0.000000 43.000000 194.000000 
0.000000 43.000000 195.000000 
0.000000 43.000000 196.000000 
0.000000 43.000000 197.000000 
0.000000 43.000000 198.000000 
0.000000 43.000000 199.000000 
0.000000 43.000000 200.000000 
0.000000 44.000000 0.000000 
0.000000 44.000000 1.000000 
0.000000 44.000000 2.000000 
0.000000 44.000000 3.000000 
0.000000 44.000000 4.000000 
0.000000 44.000000 5.000000 
0.000000 44.000000 6.000000 
0.000000 44.000000 7.000000 
0.000000 44.000000 8.000000 
0.000000 44.000000 9.000000 
0.000000 44.000000 10.000000 
0.000000 44.000000 11.000000 
0.000000 44.000000 12.000000 
0.000000 44.000000 13.000000 
0.000000 44.000000 14.000000 
0.000000 44.000000 15.000000 
0.000000 44.000000 16.000000 
0.000000 44.000000 17.000000 
0.000000 44.000000 18.000000 
0.000000 44.000000 19.000000 
0.000000 44.000000 20.000000 
0.000000 44.000000 21.000000 
0.000000 44.000000 22.000000 
0.000000 44.000000 23.000000 
0.000000 44.000000 24.000000 
0.000000 44.000000 25.000000 
0.000000 44.000000 26.000000 
0.000000 44.000000 27.000000 
0.000000 44.000000 28.000000 
0.000000 44.000000 29.000000 
0.000000 44.000000 30.000000 
0.000000 44.000000 31.000000 
0.000000 44.000000 32.000000 
0.000000 44.000000 33.000000 
0.000000 44.000000 34.000000 
0.000000 44.000000 35.000000 
0.000000 44.000000 36.000000 
0.000000 44.000000 37.000000 
0.000000 44.000000 38.000000 
0.000000 44.000000 39.000000 
0.000000 44.000000 40.000000 
0.000000 44.000000 41.000000 
0.000000 44.000000 42.000000 
0.000000 44.000000 43.000000 
0.000000 44.000000 44.000000 
0.000000 44.000000 45.000000 
0.000000 44.000000 46.000000 
0.000000 44.000000 47.000000 
0.000000 44.000000 48.000000 
0.000000 44.000000 49.000000 
0.000000 44.000000 50.000000 
0.000000 44.000000 51.000000 
0.000000 44.000000 52.000000 
0.000000 44.000000 53.000000 
0.000000 44.000000 54.000000 
0.000000 44.000000 55.000000 
0.000000 44.000000 56.000000 
0.000000 44.000000 57.000000 
0.000000 44.000000 58.000000 
0.000000 44.000000 59.000000 
0.000000 44.000000 60.000000 
0.000000 44.000000 61.000000 
0.000000 44.000000 62.000000 
0.000000 44.000000 63.000000 
0.000000 44.000000 64.000000 
0.000000 44.000000 65.000000 
0.000000 44.000000 66.000000 
0.000000 44.000000 67.000000 
0.000000 44.000000 68.000000 
0.000000 44.000000 69.000000 
0.000000 44.000000 70.000000 
0.000000 44.000000 71.000000 
0.000000 44.000000 72.000000 
0.000000 44.000000 73.000000 
0.000000 44.000000 74.000000 
0.000000 44.000000 75.000000 
0.000000 44.000000 76.000000 
0.000000 44.000000 77.000000 
0.000000 44.000000 78.000000 
0.000000 44.000000 79.000000 
0.000000 44.000000 80.000000 
0.000000 44.000000 81.000000 
0.000000 44.000000 82.000000 
0.000000 44.000000 83.000000 
0.000000 44.000000 84.000000 
0.000000 44.000000 85.000000 
0.000000 44.000000 86.000000 
0.000000 44.000000 87.000000 
0.000000 44.000000 88.000000 
0.000000 44.000000 89.000000 
0.000000 44.000000 90.000000 
0.000000 44.000000 91.000000 
0.000000 44.000000 92.000000 
0.000000 44.000000 93.000000 
0.000000 44.000000 94.000000 
0.000000 44.000000 95.000000 
0.000000 44.000000 96.000000 
0.000000 44.000000 97.000000 
0.000000 44.000000 98.000000 
0.000000 44.000000 99.000000 
0.000000 44.000000 100.000000 
0.000000 44.000000 101.000000 
0.000000 44.000000 102.000000 
0.000000 44.000000 103.000000 
0.000000 44.000000 104.000000 
0.000000 44.000000 105.000000 
0.000000 44.000000 106.000000 
0.000000 44.000000 107.000000 
0.000000 44.000000 108.000000 
0.000000 44.000000 109.000000 
0.000000 44.000000 110.000000 
0.000000 44.000000 111.000000 
0.000000 44.000000 112.000000 
0.000000 44.000000 113.000000 
0.000000 44.000000 114.000000 
0.000000 44.000000 115.000000 
0.000000 44.000000 116.000000 
0.000000 44.000000 117.000000 
0.000000 44.000000 118.000000 
0.000000 44.000000 119.000000 
0.000000 44.000000 120.000000 
0.000000 44.000000 121.000000 
0.000000 44.000000 122.000000 
0.000000 44.000000 123.000000 
0.000000 44.000000 124.000000 
0.000000 44.000000 125.000000 
0.000000 44.000000 126.000000 
0.000000 44.000000 127.000000 
0.000000 44.000000 128.000000 
0.000000 44.000000 129.000000 
0.000000 44.000000 130.000000 
0.000000 44.000000 131.000000 
0.000000 44.000000 132.000000 
0.000000 44.000000 133.000000 
0.000000 44.000000 134.000000 
0.000000 44.000000 135.000000 
0.000000 44.000000 136.000000 
0.000000 44.000000 137.000000 
0.000000 44.000000 138.000000 
0.000000 44.000000 139.000000 
0.000000 44.000000 140.000000 
0.000000 44.000000 141.000000 
0.000000 44.000000 142.000000 
0.000000 44.000000 143.000000 
0.000000 44.000000 144.000000 
0.000000 44.000000 145.000000 
0.000000 44.000000 146.000000 
0.000000 44.000000 147.000000 
0.000000 44.000000 148.000000 
0.000000 44.000000 149.000000 
0.000000 44.000000 150.000000 
0.000000 44.000000 151.000000 
0.000000 44.000000 152.000000 
0.000000 44.000000 153.000000 
0.000000 44.000000 154.000000 
0.000000 44.000000 155.000000 
0.000000 44.000000 156.000000 
0.000000 44.000000 157.000000 
0.000000 44.000000 158.000000 
0.000000 44.000000 159.000000 
0.000000 44.000000 160.000000 
0.000000 44.000000 161.000000 
0.000000 44.000000 162.000000 
0.000000 44.000000 163.000000 
0.000000 44.000000 164.000000 
0.000000 44.000000 165.000000 
0.000000 44.000000 166.000000 
0.000000 44.000000 167.000000 
0.000000 44.000000 168.000000 
0.000000 44.000000 169.000000 
0.000000 44.000000 170.000000 
0.000000 44.000000 171.000000 
0.000000 44.000000 172.000000 
0.000000 44.000000 173.000000 
0.000000 44.000000 174.000000 
0.000000 44.000000 175.000000 
0.000000 44.000000 176.000000 
0.000000 44.000000 177.000000 
0.000000 44.000000 178.000000 
0.000000 44.000000 179.000000 
0.000000 44.000000 180.000000 
0.000000 44.000000 181.000000 
0.000000 44.000000 182.000000 
0.000000 44.000000 183.000000 
0.000000 44.000000 184.000000 
0.000000 44.000000 185.000000 
0.000000 44.000000 186.000000 
0.000000 44.000000 187.000000 
0.000000 44.000000 188.000000 
0.000000 44.000000 189.000000 
0.000000 44.000000 190.000000 
0.000000 44.000000 191.000000 
0.000000 44.000000 192.000000 
0.000000 44.000000 193.000000 
0.000000 44.000000 194.000000 
0.000000 44.000000 195.000000 
0.000000 44.000000 196.000000 
0.000000 44.000000 197.000000 
0.000000 44.000000 198.000000 
0.000000 44.000000 199.000000 
0.000000 44.000000 200.000000 
0.000000 45.000000 0.000000 
0.000000 45.000000 1.000000 
0.000000 45.000000 2.000000 
0.000000 45.000000 3.000000 
0.000000 45.000000 4.000000 
0.000000 45.000000 5.000000 
0.000000 45.000000 6.000000 
0.000000 45.000000 7.000000 
0.000000 45.000000 8.000000 
0.000000 45.000000 9.000000 
0.000000 45.000000 10.000000 
0.000000 45.000000 11.000000 
0.000000 45.000000 12.000000 
0.000000 45.000000 13.000000 
0.000000 45.000000 14.000000 
0.000000 45.000000 15.000000 
0.000000 45.000000 16.000000 
0.000000 45.000000 17.000000 
0.000000 45.000000 18.000000 
0.000000 45.000000 19.000000 
0.000000 45.000000 20.000000 
0.000000 45.000000 21.000000 
0.000000 45.000000 22.000000 
0.000000 45.000000 23.000000 
0.000000 45.000000 24.000000 
0.000000 45.000000 25.000000 
0.000000 45.000000 26.000000 
0.000000 45.000000 27.000000 
0.000000 45.000000 28.000000 
0.000000 45.000000 29.000000 
0.000000 45.000000 30.000000 
0.000000 45.000000 31.000000 
0.000000 45.000000 32.000000 
0.000000 45.000000 33.000000 
0.000000 45.000000 34.000000 
0.000000 45.000000 35.000000 
0.000000 45.000000 36.000000 
0.000000 45.000000 37.000000 
0.000000 45.000000 38.000000 
0.000000 45.000000 39.000000 
0.000000 45.000000 40.000000 
0.000000 45.000000 41.000000 
0.000000 45.000000 42.000000 
0.000000 45.000000 43.000000 
0.000000 45.000000 44.000000 
0.000000 45.000000 45.000000 
0.000000 45.000000 46.000000 
0.000000 45.000000 47.000000 
0.000000 45.000000 48.000000 
0.000000 45.000000 49.000000 
0.000000 45.000000 50.000000 
0.000000 45.000000 51.000000 
0.000000 45.000000 52.000000 
0.000000 45.000000 53.000000 
0.000000 45.000000 54.000000 
0.000000 45.000000 55.000000 
0.000000 45.000000 56.000000 
0.000000 45.000000 57.000000 
0.000000 45.000000 58.000000 
0.000000 45.000000 59.000000 
0.000000 45.000000 60.000000 
0.000000 45.000000 61.000000 
0.000000 45.000000 62.000000 
0.000000 45.000000 63.000000 
0.000000 45.000000 64.000000 
0.000000 45.000000 65.000000 
0.000000 45.000000 66.000000 
0.000000 45.000000 67.000000 
0.000000 45.000000 68.000000 
0.000000 45.000000 69.000000 
0.000000 45.000000 70.000000 
0.000000 45.000000 71.000000 
0.000000 45.000000 72.000000 
0.000000 45.000000 73.000000 
0.000000 45.000000 74.000000 
0.000000 45.000000 75.000000 
0.000000 45.000000 76.000000 
0.000000 45.000000 77.000000 
0.000000 45.000000 78.000000 
0.000000 45.000000 79.000000 
0.000000 45.000000 80.000000 
0.000000 45.000000 81.000000 
0.000000 45.000000 82.000000 
0.000000 45.000000 83.000000 
0.000000 45.000000 84.000000 
0.000000 45.000000 85.000000 
0.000000 45.000000 86.000000 
0.000000 45.000000 87.000000 
0.000000 45.000000 88.000000 
0.000000 45.000000 89.000000 
0.000000 45.000000 90.000000 
0.000000 45.000000 91.000000 
0.000000 45.000000 92.000000 
0.000000 45.000000 93.000000 
0.000000 45.000000 94.000000 
0.000000 45.000000 95.000000 
0.000000 45.000000 96.000000 
0.000000 45.000000 97.000000 
0.000000 45.000000 98.000000 
0.000000 45.000000 99.000000 
0.000000 45.000000 100.000000 
0.000000 45.000000 101.000000 
0.000000 45.000000 102.000000 
0.000000 45.000000 103.000000 
0.000000 45.000000 104.000000 
0.000000 45.000000 105.000000 
0.000000 45.000000 106.000000 
0.000000 45.000000 107.000000 
0.000000 45.000000 108.000000 
0.000000 45.000000 109.000000 
0.000000 45.000000 110.000000 
0.000000 45.000000 111.000000 
0.000000 45.000000 112.000000 
0.000000 45.000000 113.000000 
0.000000 45.000000 114.000000 
0.000000 45.000000 115.000000 
0.000000 45.000000 116.000000 
0.000000 45.000000 117.000000 
0.000000 45.000000 118.000000 
0.000000 45.000000 119.000000 
0.000000 45.000000 120.000000 
0.000000 45.000000 121.000000 
0.000000 45.000000 122.000000 
0.000000 45.000000 123.000000 
0.000000 45.000000 124.000000 
0.000000 45.000000 125.000000 
0.000000 45.000000 126.000000 
0.000000 45.000000 127.000000 
0.000000 45.000000 128.000000 
0.000000 45.000000 129.000000 
0.000000 45.000000 130.000000 
0.000000 45.000000 131.000000 
0.000000 45.000000 132.000000 
0.000000 45.000000 133.000000 
0.000000 45.000000 134.000000 
0.000000 45.000000 135.000000 
0.000000 45.000000 136.000000 
0.000000 45.000000 137.000000 
0.000000 45.000000 138.000000 
0.000000 45.000000 139.000000 
0.000000 45.000000 140.000000 
0.000000 45.000000 141.000000 
0.000000 45.000000 142.000000 
0.000000 45.000000 143.000000 
0.000000 45.000000 144.000000 
0.000000 45.000000 145.000000 
0.000000 45.000000 146.000000 
0.000000 45.000000 147.000000 
0.000000 45.000000 148.000000 
0.000000 45.000000 149.000000 
0.000000 45.000000 150.000000 
0.000000 45.000000 151.000000 
0.000000 45.000000 152.000000 
0.000000 45.000000 153.000000 
0.000000 45.000000 154.000000 
0.000000 45.000000 155.000000 
0.000000 45.000000 156.000000 
0.000000 45.000000 157.000000 
0.000000 45.000000 158.000000 
0.000000 45.000000 159.000000 
0.000000 45.000000 160.000000 
0.000000 45.000000 161.000000 
0.000000 45.000000 162.000000 
0.000000 45.000000 163.000000 
0.000000 45.000000 164.000000 
0.000000 45.000000 165.000000 
0.000000 45.000000 166.000000 
0.000000 45.000000 167.000000 
0.000000 45.000000 168.000000 
0.000000 45.000000 169.000000 
0.000000 45.000000 170.000000 
0.000000 45.000000 171.000000 
0.000000 45.000000 172.000000 
0.000000 45.000000 173.000000 
0.000000 45.000000 174.000000 
0.000000 45.000000 175.000000 
0.000000 45.000000 176.000000 
0.000000 45.000000 177.000000 
0.000000 45.000000 178.000000 
0.000000 45.000000 179.000000 
0.000000 45.000000 180.000000 
0.000000 45.000000 181.000000 
0.000000 45.000000 182.000000 
0.000000 45.000000 183.000000 
0.000000 45.000000 184.000000 
0.000000 45.000000 185.000000 
0.000000 45.000000 186.000000 
0.000000 45.000000 187.000000 
0.000000 45.000000 188.000000 
0.000000 45.000000 189.000000 
0.000000 45.000000 190.000000 
0.000000 45.000000 191.000000 
0.000000 45.000000 192.000000 
0.000000 45.000000 193.000000 
0.000000 45.000000 194.000000 
0.000000 45.000000 195.000000 
0.000000 45.000000 196.000000 
0.000000 45.000000 197.000000 
0.000000 45.000000 198.000000 
0.000000 45.000000 199.000000 
0.000000 45.000000 200.000000 
0.000000 46.000000 0.000000 
0.000000 46.000000 1.000000 
0.000000 46.000000 2.000000 
0.000000 46.000000 3.000000 
0.000000 46.000000 4.000000 
0.000000 46.000000 5.000000 
0.000000 46.000000 6.000000 
0.000000 46.000000 7.000000 
0.000000 46.000000 8.000000 
0.000000 46.000000 9.000000 
0.000000 46.000000 10.000000 
0.000000 46.000000 11.000000 
0.000000 46.000000 12.000000 
0.000000 46.000000 13.000000 
0.000000 46.000000 14.000000 
0.000000 46.000000 15.000000 
0.000000 46.000000 16.000000 
0.000000 46.000000 17.000000 
0.000000 46.000000 18.000000 
0.000000 46.000000 19.000000 
0.000000 46.000000 20.000000 
0.000000 46.000000 21.000000 
0.000000 46.000000 22.000000 
0.000000 46.000000 23.000000 
0.000000 46.000000 24.000000 
0.000000 46.000000 25.000000 
0.000000 46.000000 26.000000 
0.000000 46.000000 27.000000 
0.000000 46.000000 28.000000 
0.000000 46.000000 29.000000 
0.000000 46.000000 30.000000 
0.000000 46.000000 31.000000 
0.000000 46.000000 32.000000 
0.000000 46.000000 33.000000 
0.000000 46.000000 34.000000 
0.000000 46.000000 35.000000 
0.000000 46.000000 36.000000 
0.000000 46.000000 37.000000 
0.000000 46.000000 38.000000 
0.000000 46.000000 39.000000 
0.000000 46.000000 40.000000 
0.000000 46.000000 41.000000 
0.000000 46.000000 42.000000 
0.000000 46.000000 43.000000 
0.000000 46.000000 44.000000 
0.000000 46.000000 45.000000 
0.000000 46.000000 46.000000 
0.000000 46.000000 47.000000 
0.000000 46.000000 48.000000 
0.000000 46.000000 49.000000 
0.000000 46.000000 50.000000 
0.000000 46.000000 51.000000 
0.000000 46.000000 52.000000 
0.000000 46.000000 53.000000 
0.000000 46.000000 54.000000 
0.000000 46.000000 55.000000 
0.000000 46.000000 56.000000 
0.000000 46.000000 57.000000 
0.000000 46.000000 58.000000 
0.000000 46.000000 59.000000 
0.000000 46.000000 60.000000 
0.000000 46.000000 61.000000 
0.000000 46.000000 62.000000 
0.000000 46.000000 63.000000 
0.000000 46.000000 64.000000 
0.000000 46.000000 65.000000 
0.000000 46.000000 66.000000 
0.000000 46.000000 67.000000 
0.000000 46.000000 68.000000 
0.000000 46.000000 69.000000 
0.000000 46.000000 70.000000 
0.000000 46.000000 71.000000 
0.000000 46.000000 72.000000 
0.000000 46.000000 73.000000 
0.000000 46.000000 74.000000 
0.000000 46.000000 75.000000 
0.000000 46.000000 76.000000 
0.000000 46.000000 77.000000 
0.000000 46.000000 78.000000 
0.000000 46.000000 79.000000 
0.000000 46.000000 80.000000 
0.000000 46.000000 81.000000 
0.000000 46.000000 82.000000 
0.000000 46.000000 83.000000 
0.000000 46.000000 84.000000 
0.000000 46.000000 85.000000 
0.000000 46.000000 86.000000 
0.000000 46.000000 87.000000 
0.000000 46.000000 88.000000 
0.000000 46.000000 89.000000 
0.000000 46.000000 90.000000 
0.000000 46.000000 91.000000 
0.000000 46.000000 92.000000 
0.000000 46.000000 93.000000 
0.000000 46.000000 94.000000 
0.000000 46.000000 95.000000 
0.000000 46.000000 96.000000 
0.000000 46.000000 97.000000 
0.000000 46.000000 98.000000 
0.000000 46.000000 99.000000 
0.000000 46.000000 100.000000 
0.000000 46.000000 101.000000 
0.000000 46.000000 102.000000 
0.000000 46.000000 103.000000 
0.000000 46.000000 104.000000 
0.000000 46.000000 105.000000 
0.000000 46.000000 106.000000 
0.000000 46.000000 107.000000 
0.000000 46.000000 108.000000 
0.000000 46.000000 109.000000 
0.000000 46.000000 110.000000 
0.000000 46.000000 111.000000 
0.000000 46.000000 112.000000 
0.000000 46.000000 113.000000 
0.000000 46.000000 114.000000 
0.000000 46.000000 115.000000 
0.000000 46.000000 116.000000 
0.000000 46.000000 117.000000 
0.000000 46.000000 118.000000 
0.000000 46.000000 119.000000 
0.000000 46.000000 120.000000 
0.000000 46.000000 121.000000 
0.000000 46.000000 122.000000 
0.000000 46.000000 123.000000 
0.000000 46.000000 124.000000 
0.000000 46.000000 125.000000 
0.000000 46.000000 126.000000 
0.000000 46.000000 127.000000 
0.000000 46.000000 128.000000 
0.000000 46.000000 129.000000 
0.000000 46.000000 130.000000 
0.000000 46.000000 131.000000 
0.000000 46.000000 132.000000 
0.000000 46.000000 133.000000 
0.000000 46.000000 134.000000 
0.000000 46.000000 135.000000 
0.000000 46.000000 136.000000 
0.000000 46.000000 137.000000 
0.000000 46.000000 138.000000 
0.000000 46.000000 139.000000 
0.000000 46.000000 140.000000 
0.000000 46.000000 141.000000 
0.000000 46.000000 142.000000 
0.000000 46.000000 143.000000 
0.000000 46.000000 144.000000 
0.000000 46.000000 145.000000 
0.000000 46.000000 146.000000 
0.000000 46.000000 147.000000 
0.000000 46.000000 148.000000 
0.000000 46.000000 149.000000 
0.000000 46.000000 150.000000 
0.000000 46.000000 151.000000 
0.000000 46.000000 152.000000 
0.000000 46.000000 153.000000 
0.000000 46.000000 154.000000 
0.000000 46.000000 155.000000 
0.000000 46.000000 156.000000 
0.000000 46.000000 157.000000 
0.000000 46.000000 158.000000 
0.000000 46.000000 159.000000 
0.000000 46.000000 160.000000 
0.000000 46.000000 161.000000 
0.000000 46.000000 162.000000 
0.000000 46.000000 163.000000 
0.000000 46.000000 164.000000 
0.000000 46.000000 165.000000 
0.000000 46.000000 166.000000 
0.000000 46.000000 167.000000 
0.000000 46.000000 168.000000 
0.000000 46.000000 169.000000 
0.000000 46.000000 170.000000 
0.000000 46.000000 171.000000 
0.000000 46.000000 172.000000 
0.000000 46.000000 173.000000 
0.000000 46.000000 174.000000 
0.000000 46.000000 175.000000 
0.000000 46.000000 176.000000 
0.000000 46.000000 177.000000 
0.000000 46.000000 178.000000 
0.000000 46.000000 179.000000 
0.000000 46.000000 180.000000 
0.000000 46.000000 181.000000 
0.000000 46.000000 182.000000 
0.000000 46.000000 183.000000 
0.000000 46.000000 184.000000 
0.000000 46.000000 185.000000 
0.000000 46.000000 186.000000 
0.000000 46.000000 187.000000 
0.000000 46.000000 188.000000 
0.000000 46.000000 189.000000 
0.000000 46.000000 190.000000 
0.000000 46.000000 191.000000 
0.000000 46.000000 192.000000 
0.000000 46.000000 193.000000 
0.000000 46.000000 194.000000 
0.000000 46.000000 195.000000 
0.000000 46.000000 196.000000 
0.000000 46.000000 197.000000 
0.000000 46.000000 198.000000 
0.000000 46.000000 199.000000 
0.000000 46.000000 200.000000 
0.000000 47.000000 0.000000 
0.000000 47.000000 1.000000 
0.000000 47.000000 2.000000 
0.000000 47.000000 3.000000 
0.000000 47.000000 4.000000 
0.000000 47.000000 5.000000 
0.000000 47.000000 6.000000 
0.000000 47.000000 7.000000 
0.000000 47.000000 8.000000 
0.000000 47.000000 9.000000 
0.000000 47.000000 10.000000 
0.000000 47.000000 11.000000 
0.000000 47.000000 12.000000 
0.000000 47.000000 13.000000 
0.000000 47.000000 14.000000 
0.000000 47.000000 15.000000 
0.000000 47.000000 16.000000 
0.000000 47.000000 17.000000 
0.000000 47.000000 18.000000 
0.000000 47.000000 19.000000 
0.000000 47.000000 20.000000 
0.000000 47.000000 21.000000 
0.000000 47.000000 22.000000 
0.000000 47.000000 23.000000 
0.000000 47.000000 24.000000 
0.000000 47.000000 25.000000 
0.000000 47.000000 26.000000 
0.000000 47.000000 27.000000 
0.000000 47.000000 28.000000 
0.000000 47.000000 29.000000 
0.000000 47.000000 30.000000 
0.000000 47.000000 31.000000 
0.000000 47.000000 32.000000 
0.000000 47.000000 33.000000 
0.000000 47.000000 34.000000 
0.000000 47.000000 35.000000 
0.000000 47.000000 36.000000 
0.000000 47.000000 37.000000 
0.000000 47.000000 38.000000 
0.000000 47.000000 39.000000 
0.000000 47.000000 40.000000 
0.000000 47.000000 41.000000 
0.000000 47.000000 42.000000 
0.000000 47.000000 43.000000 
0.000000 47.000000 44.000000 
0.000000 47.000000 45.000000 
0.000000 47.000000 46.000000 
0.000000 47.000000 47.000000 
0.000000 47.000000 48.000000 
0.000000 47.000000 49.000000 
0.000000 47.000000 50.000000 
0.000000 47.000000 51.000000 
0.000000 47.000000 52.000000 
0.000000 47.000000 53.000000 
0.000000 47.000000 54.000000 
0.000000 47.000000 55.000000 
0.000000 47.000000 56.000000 
0.000000 47.000000 57.000000 
0.000000 47.000000 58.000000 
0.000000 47.000000 59.000000 
0.000000 47.000000 60.000000 
0.000000 47.000000 61.000000 
0.000000 47.000000 62.000000 
0.000000 47.000000 63.000000 
0.000000 47.000000 64.000000 
0.000000 47.000000 65.000000 
0.000000 47.000000 66.000000 
0.000000 47.000000 67.000000 
0.000000 47.000000 68.000000 
0.000000 47.000000 69.000000 
0.000000 47.000000 70.000000 
0.000000 47.000000 71.000000 
0.000000 47.000000 72.000000 
0.000000 47.000000 73.000000 
0.000000 47.000000 74.000000 
0.000000 47.000000 75.000000 
0.000000 47.000000 76.000000 
0.000000 47.000000 77.000000 
0.000000 47.000000 78.000000 
0.000000 47.000000 79.000000 
0.000000 47.000000 80.000000 
0.000000 47.000000 81.000000 
0.000000 47.000000 82.000000 
0.000000 47.000000 83.000000 
0.000000 47.000000 84.000000 
0.000000 47.000000 85.000000 
0.000000 47.000000 86.000000 
0.000000 47.000000 87.000000 
0.000000 47.000000 88.000000 
0.000000 47.000000 89.000000 
0.000000 47.000000 90.000000 
0.000000 47.000000 91.000000 
0.000000 47.000000 92.000000 
0.000000 47.000000 93.000000 
0.000000 47.000000 94.000000 
0.000000 47.000000 95.000000 
0.000000 47.000000 96.000000 
0.000000 47.000000 97.000000 
0.000000 47.000000 98.000000 
0.000000 47.000000 99.000000 
0.000000 47.000000 100.000000 
0.000000 47.000000 101.000000 
0.000000 47.000000 102.000000 
0.000000 47.000000 103.000000 
0.000000 47.000000 104.000000 
0.000000 47.000000 105.000000 
0.000000 47.000000 106.000000 
0.000000 47.000000 107.000000 
0.000000 47.000000 108.000000 
0.000000 47.000000 109.000000 
0.000000 47.000000 110.000000 
0.000000 47.000000 111.000000 
0.000000 47.000000 112.000000 
0.000000 47.000000 113.000000 
0.000000 47.000000 114.000000 
0.000000 47.000000 115.000000 
0.000000 47.000000 116.000000 
0.000000 47.000000 117.000000 
0.000000 47.000000 118.000000 
0.000000 47.000000 119.000000 
0.000000 47.000000 120.000000 
0.000000 47.000000 121.000000 
0.000000 47.000000 122.000000 
0.000000 47.000000 123.000000 
0.000000 47.000000 124.000000 
0.000000 47.000000 125.000000 
0.000000 47.000000 126.000000 
0.000000 47.000000 127.000000 
0.000000 47.000000 128.000000 
0.000000 47.000000 129.000000 
0.000000 47.000000 130.000000 
0.000000 47.000000 131.000000 
0.000000 47.000000 132.000000 
0.000000 47.000000 133.000000 
0.000000 47.000000 134.000000 
0.000000 47.000000 135.000000 
0.000000 47.000000 136.000000 
0.000000 47.000000 137.000000 
0.000000 47.000000 138.000000 
0.000000 47.000000 139.000000 
0.000000 47.000000 140.000000 
0.000000 47.000000 141.000000 
0.000000 47.000000 142.000000 
0.000000 47.000000 143.000000 
0.000000 47.000000 144.000000 
0.000000 47.000000 145.000000 
0.000000 47.000000 146.000000 
0.000000 47.000000 147.000000 
0.000000 47.000000 148.000000 
0.000000 47.000000 149.000000 
0.000000 47.000000 150.000000 
0.000000 47.000000 151.000000 
0.000000 47.000000 152.000000 
0.000000 47.000000 153.000000 
0.000000 47.000000 154.000000 
0.000000 47.000000 155.000000 
0.000000 47.000000 156.000000 
0.000000 47.000000 157.000000 
0.000000 47.000000 158.000000 
0.000000 47.000000 159.000000 
0.000000 47.000000 160.000000 
0.000000 47.000000 161.000000 
0.000000 47.000000 162.000000 
0.000000 47.000000 163.000000 
0.000000 47.000000 164.000000 
0.000000 47.000000 165.000000 
0.000000 47.000000 166.000000 
0.000000 47.000000 167.000000 
0.000000 47.000000 168.000000 
0.000000 47.000000 169.000000 
0.000000 47.000000 170.000000 
0.000000 47.000000 171.000000 
0.000000 47.000000 172.000000 
0.000000 47.000000 173.000000 
0.000000 47.000000 174.000000 
0.000000 47.000000 175.000000 
0.000000 47.000000 176.000000 
0.000000 47.000000 177.000000 
0.000000 47.000000 178.000000 
0.000000 47.000000 179.000000 
0.000000 47.000000 180.000000 
0.000000 47.000000 181.000000 
0.000000 47.000000 182.000000 
0.000000 47.000000 183.000000 
0.000000 47.000000 184.000000 
0.000000 47.000000 185.000000 
0.000000 47.000000 186.000000 
0.000000 47.000000 187.000000 
0.000000 47.000000 188.000000 
0.000000 47.000000 189.000000 
0.000000 47.000000 190.000000 
0.000000 47.000000 191.000000 
0.000000 47.000000 192.000000 
0.000000 47.000000 193.000000 
0.000000 47.000000 194.000000 
0.000000 47.000000 195.000000 
0.000000 47.000000 196.000000 
0.000000 47.000000 197.000000 
0.000000 47.000000 198.000000 
0.000000 47.000000 199.000000 
0.000000 47.000000 200.000000 
0.000000 48.000000 0.000000 
0.000000 48.000000 1.000000 
0.000000 48.000000 2.000000 
0.000000 48.000000 3.000000 
0.000000 48.000000 4.000000 
0.000000 48.000000 5.000000 
0.000000 48.000000 6.000000 
0.000000 48.000000 7.000000 
0.000000 48.000000 8.000000 
0.000000 48.000000 9.000000 
0.000000 48.000000 10.000000 
0.000000 48.000000 11.000000 
0.000000 48.000000 12.000000 
0.000000 48.000000 13.000000 
0.000000 48.000000 14.000000 
0.000000 48.000000 15.000000 
0.000000 48.000000 16.000000 
0.000000 48.000000 17.000000 
0.000000 48.000000 18.000000 
0.000000 48.000000 19.000000 
0.000000 48.000000 20.000000 
0.000000 48.000000 21.000000 
0.000000 48.000000 22.000000 
0.000000 48.000000 23.000000 
0.000000 48.000000 24.000000 
0.000000 48.000000 25.000000 
0.000000 48.000000 26.000000 
0.000000 48.000000 27.000000 
0.000000 48.000000 28.000000 
0.000000 48.000000 29.000000 
0.000000 48.000000 30.000000 
0.000000 48.000000 31.000000 
0.000000 48.000000 32.000000 
0.000000 48.000000 33.000000 
0.000000 48.000000 34.000000 
0.000000 48.000000 35.000000 
0.000000 48.000000 36.000000 
0.000000 48.000000 37.000000 
0.000000 48.000000 38.000000 
0.000000 48.000000 39.000000 
0.000000 48.000000 40.000000 
0.000000 48.000000 41.000000 
0.000000 48.000000 42.000000 
0.000000 48.000000 43.000000 
0.000000 48.000000 44.000000 
0.000000 48.000000 45.000000 
0.000000 48.000000 46.000000 
0.000000 48.000000 47.000000 
0.000000 48.000000 48.000000 
0.000000 48.000000 49.000000 
0.000000 48.000000 50.000000 
0.000000 48.000000 51.000000 
0.000000 48.000000 52.000000 
0.000000 48.000000 53.000000 
0.000000 48.000000 54.000000 
0.000000 48.000000 55.000000 
0.000000 48.000000 56.000000 
0.000000 48.000000 57.000000 
0.000000 48.000000 58.000000 
0.000000 48.000000 59.000000 
0.000000 48.000000 60.000000 
0.000000 48.000000 61.000000 
0.000000 48.000000 62.000000 
0.000000 48.000000 63.000000 
0.000000 48.000000 64.000000 
0.000000 48.000000 65.000000 
0.000000 48.000000 66.000000 
0.000000 48.000000 67.000000 
0.000000 48.000000 68.000000 
0.000000 48.000000 69.000000 
0.000000 48.000000 70.000000 
0.000000 48.000000 71.000000 
0.000000 48.000000 72.000000 
0.000000 48.000000 73.000000 
0.000000 48.000000 74.000000 
0.000000 48.000000 75.000000 
0.000000 48.000000 76.000000 
0.000000 48.000000 77.000000 
0.000000 48.000000 78.000000 
0.000000 48.000000 79.000000 
0.000000 48.000000 80.000000 
0.000000 48.000000 81.000000 
0.000000 48.000000 82.000000 
0.000000 48.000000 83.000000 
0.000000 48.000000 84.000000 
0.000000 48.000000 85.000000 
0.000000 48.000000 86.000000 
0.000000 48.000000 87.000000 
0.000000 48.000000 88.000000 
0.000000 48.000000 89.000000 
0.000000 48.000000 90.000000 
0.000000 48.000000 91.000000 
0.000000 48.000000 92.000000 
0.000000 48.000000 93.000000 
0.000000 48.000000 94.000000 
0.000000 48.000000 95.000000 
0.000000 48.000000 96.000000 
0.000000 48.000000 97.000000 
0.000000 48.000000 98.000000 
0.000000 48.000000 99.000000 
0.000000 48.000000 100.000000 
0.000000 48.000000 101.000000 
0.000000 48.000000 102.000000 
0.000000 48.000000 103.000000 
0.000000 48.000000 104.000000 
0.000000 48.000000 105.000000 
0.000000 48.000000 106.000000 
0.000000 48.000000 107.000000 
0.000000 48.000000 108.000000 
0.000000 48.000000 109.000000 
0.000000 48.000000 110.000000 
0.000000 48.000000 111.000000 
0.000000 48.000000 112.000000 
0.000000 48.000000 113.000000 
0.000000 48.000000 114.000000 
0.000000 48.000000 115.000000 
0.000000 48.000000 116.000000 
0.000000 48.000000 117.000000 
0.000000 48.000000 118.000000 
0.000000 48.000000 119.000000 
0.000000 48.000000 120.000000 
0.000000 48.000000 121.000000 
0.000000 48.000000 122.000000 
0.000000 48.000000 123.000000 
0.000000 48.000000 124.000000 
0.000000 48.000000 125.000000 
0.000000 48.000000 126.000000 
0.000000 48.000000 127.000000 
0.000000 48.000000 128.000000 
0.000000 48.000000 129.000000 
0.000000 48.000000 130.000000 
0.000000 48.000000 131.000000 
0.000000 48.000000 132.000000 
0.000000 48.000000 133.000000 
0.000000 48.000000 134.000000 
0.000000 48.000000 135.000000 
0.000000 48.000000 136.000000 
0.000000 48.000000 137.000000 
0.000000 48.000000 138.000000 
0.000000 48.000000 139.000000 
0.000000 48.000000 140.000000 
0.000000 48.000000 141.000000 
0.000000 48.000000 142.000000 
0.000000 48.000000 143.000000 
0.000000 48.000000 144.000000 
0.000000 48.000000 145.000000 
0.000000 48.000000 146.000000 
0.000000 48.000000 147.000000 
0.000000 48.000000 148.000000 
0.000000 48.000000 149.000000 
0.000000 48.000000 150.000000 
0.000000 48.000000 151.000000 
0.000000 48.000000 152.000000 
0.000000 48.000000 153.000000 
0.000000 48.000000 154.000000 
0.000000 48.000000 155.000000 
0.000000 48.000000 156.000000 
0.000000 48.000000 157.000000 
0.000000 48.000000 158.000000 
0.000000 48.000000 159.000000 
0.000000 48.000000 160.000000 
0.000000 48.000000 161.000000 
0.000000 48.000000 162.000000 
0.000000 48.000000 163.000000 
0.000000 48.000000 164.000000 
0.000000 48.000000 165.000000 
0.000000 48.000000 166.000000 
0.000000 48.000000 167.000000 
0.000000 48.000000 168.000000 
0.000000 48.000000 169.000000 
0.000000 48.000000 170.000000 
0.000000 48.000000 171.000000 
0.000000 48.000000 172.000000 
0.000000 48.000000 173.000000 
0.000000 48.000000 174.000000 
0.000000 48.000000 175.000000 
0.000000 48.000000 176.000000 
0.000000 48.000000 177.000000 
0.000000 48.000000 178.000000 
0.000000 48.000000 179.000000 
0.000000 48.000000 180.000000 
0.000000 48.000000 181.000000 
0.000000 48.000000 182.000000 
0.000000 48.000000 183.000000 
0.000000 48.000000 184.000000 
0.000000 48.000000 185.000000 
0.000000 48.000000 186.000000 
0.000000 48.000000 187.000000 
0.000000 48.000000 188.000000 
0.000000 48.000000 189.000000 
0.000000 48.000000 190.000000 
0.000000 48.000000 191.000000 
0.000000 48.000000 192.000000 
0.000000 48.000000 193.000000 
0.000000 48.000000 194.000000 
0.000000 48.000000 195.000000 
0.000000 48.000000 196.000000 
0.000000 48.000000 197.000000 
0.000000 48.000000 198.000000 
0.000000 48.000000 199.000000 
0.000000 48.000000 200.000000 
0.000000 49.000000 0.000000 
0.000000 49.000000 1.000000 
0.000000 49.000000 2.000000 
0.000000 49.000000 3.000000 
0.000000 49.000000 4.000000 
0.000000 49.000000 5.000000 
0.000000 49.000000 6.000000 
0.000000 49.000000 7.000000 
0.000000 49.000000 8.000000 
0.000000 49.000000 9.000000 
0.000000 49.000000 10.000000 
0.000000 49.000000 11.000000 
0.000000 49.000000 12.000000 
0.000000 49.000000 13.000000 
0.000000 49.000000 14.000000 
0.000000 49.000000 15.000000 
0.000000 49.000000 16.000000 
0.000000 49.000000 17.000000 
0.000000 49.000000 18.000000 
0.000000 49.000000 19.000000 
0.000000 49.000000 20.000000 
0.000000 49.000000 21.000000 
0.000000 49.000000 22.000000 
0.000000 49.000000 23.000000 
0.000000 49.000000 24.000000 
0.000000 49.000000 25.000000 
0.000000 49.000000 26.000000 
0.000000 49.000000 27.000000 
0.000000 49.000000 28.000000 
0.000000 49.000000 29.000000 
0.000000 49.000000 30.000000 
0.000000 49.000000 31.000000 
0.000000 49.000000 32.000000 
0.000000 49.000000 33.000000 
0.000000 49.000000 34.000000 
0.000000 49.000000 35.000000 
0.000000 49.000000 36.000000 
0.000000 49.000000 37.000000 
0.000000 49.000000 38.000000 
0.000000 49.000000 39.000000 
0.000000 49.000000 40.000000 
0.000000 49.000000 41.000000 
0.000000 49.000000 42.000000 
0.000000 49.000000 43.000000 
0.000000 49.000000 44.000000 
0.000000 49.000000 45.000000 
0.000000 49.000000 46.000000 
0.000000 49.000000 47.000000 
0.000000 49.000000 48.000000 
0.000000 49.000000 49.000000 
0.000000 49.000000 50.000000 
0.000000 49.000000 51.000000 
0.000000 49.000000 52.000000 
0.000000 49.000000 53.000000 
0.000000 49.000000 54.000000 
0.000000 49.000000 55.000000 
0.000000 49.000000 56.000000 
0.000000 49.000000 57.000000 
0.000000 49.000000 58.000000 
0.000000 49.000000 59.000000 
0.000000 49.000000 60.000000 
0.000000 49.000000 61.000000 
0.000000 49.000000 62.000000 
0.000000 49.000000 63.000000 
0.000000 49.000000 64.000000 
0.000000 49.000000 65.000000 
0.000000 49.000000 66.000000 
0.000000 49.000000 67.000000 
0.000000 49.000000 68.000000 
0.000000 49.000000 69.000000 
0.000000 49.000000 70.000000 
0.000000 49.000000 71.000000 
0.000000 49.000000 72.000000 
0.000000 49.000000 73.000000 
0.000000 49.000000 74.000000 
0.000000 49.000000 75.000000 
0.000000 49.000000 76.000000 
0.000000 49.000000 77.000000 
0.000000 49.000000 78.000000 
0.000000 49.000000 79.000000 
0.000000 49.000000 80.000000 
0.000000 49.000000 81.000000 
0.000000 49.000000 82.000000 
0.000000 49.000000 83.000000 
0.000000 49.000000 84.000000 
0.000000 49.000000 85.000000 
0.000000 49.000000 86.000000 
0.000000 49.000000 87.000000 
0.000000 49.000000 88.000000 
0.000000 49.000000 89.000000 
0.000000 49.000000 90.000000 
0.000000 49.000000 91.000000 
0.000000 49.000000 92.000000 
0.000000 49.000000 93.000000 
0.000000 49.000000 94.000000 
0.000000 49.000000 95.000000 
0.000000 49.000000 96.000000 
0.000000 49.000000 97.000000 
0.000000 49.000000 98.000000 
0.000000 49.000000 99.000000 
0.000000 49.000000 100.000000 
0.000000 49.000000 101.000000 
0.000000 49.000000 102.000000 
0.000000 49.000000 103.000000 
0.000000 49.000000 104.000000 
0.000000 49.000000 105.000000 
0.000000 49.000000 106.000000 
0.000000 49.000000 107.000000 
0.000000 49.000000 108.000000 
0.000000 49.000000 109.000000 
0.000000 49.000000 110.000000 
0.000000 49.000000 111.000000 
0.000000 49.000000 112.000000 
0.000000 49.000000 113.000000 
0.000000 49.000000 114.000000 
0.000000 49.000000 115.000000 
0.000000 49.000000 116.000000 
0.000000 49.000000 117.000000 
0.000000 49.000000 118.000000 
0.000000 49.000000 119.000000 
0.000000 49.000000 120.000000 
0.000000 49.000000 121.000000 
0.000000 49.000000 122.000000 
0.000000 49.000000 123.000000 
0.000000 49.000000 124.000000 
0.000000 49.000000 125.000000 
0.000000 49.000000 126.000000 
0.000000 49.000000 127.000000 
0.000000 49.000000 128.000000 
0.000000 49.000000 129.000000 
0.000000 49.000000 130.000000 
0.000000 49.000000 131.000000 
0.000000 49.000000 132.000000 
0.000000 49.000000 133.000000 
0.000000 49.000000 134.000000 
0.000000 49.000000 135.000000 
0.000000 49.000000 136.000000 
0.000000 49.000000 137.000000 
0.000000 49.000000 138.000000 
0.000000 49.000000 139.000000 
0.000000 49.000000 140.000000 
0.000000 49.000000 141.000000 
0.000000 49.000000 142.000000 
0.000000 49.000000 143.000000 
0.000000 49.000000 144.000000 
0.000000 49.000000 145.000000 
0.000000 49.000000 146.000000 
0.000000 49.000000 147.000000 
0.000000 49.000000 148.000000 
0.000000 49.000000 149.000000 
0.000000 49.000000 150.000000 
0.000000 49.000000 151.000000 
0.000000 49.000000 152.000000 
0.000000 49.000000 153.000000 
0.000000 49.000000 154.000000 
0.000000 49.000000 155.000000 
0.000000 49.000000 156.000000 
0.000000 49.000000 157.000000 
0.000000 49.000000 158.000000 
0.000000 49.000000 159.000000 
0.000000 49.000000 160.000000 
0.000000 49.000000 161.000000 
0.000000 49.000000 162.000000 
0.000000 49.000000 163.000000 
0.000000 49.000000 164.000000 
0.000000 49.000000 165.000000 
0.000000 49.000000 166.000000 
0.000000 49.000000 167.000000 
0.000000 49.000000 168.000000 
0.000000 49.000000 169.000000 
0.000000 49.000000 170.000000 
0.000000 49.000000 171.000000 
0.000000 49.000000 172.000000 
0.000000 49.000000 173.000000 
0.000000 49.000000 174.000000 
0.000000 49.000000 175.000000 
0.000000 49.000000 176.000000 
0.000000 49.000000 177.000000 
0.000000 49.000000 178.000000 
0.000000 49.000000 179.000000 
0.000000 49.000000 180.000000 
0.000000 49.000000 181.000000 
0.000000 49.000000 182.000000 
0.000000 49.000000 183.000000 
0.000000 49.000000 184.000000 
0.000000 49.000000 185.000000 
0.000000 49.000000 186.000000 
0.000000 49.000000 187.000000 
0.000000 49.000000 188.000000 
0.000000 49.000000 189.000000 
0.000000 49.000000 190.000000 
0.000000 49.000000 191.000000 
0.000000 49.000000 192.000000 
0.000000 49.000000 193.000000 
0.000000 49.000000 194.000000 
0.000000 49.000000 195.000000 
0.000000 49.000000 196.000000 
0.000000 49.000000 197.000000 
0.000000 49.000000 198.000000 
0.000000 49.000000 199.000000 
0.000000 49.000000 200.000000 
0.000000 50.000000 0.000000 
0.000000 50.000000 1.000000 
0.000000 50.000000 2.000000 
0.000000 50.000000 3.000000 
0.000000 50.000000 4.000000 
0.000000 50.000000 5.000000 
0.000000 50.000000 6.000000 
0.000000 50.000000 7.000000 
0.000000 50.000000 8.000000 
0.000000 50.000000 9.000000 
0.000000 50.000000 10.000000 
0.000000 50.000000 11.000000 
0.000000 50.000000 12.000000 
0.000000 50.000000 13.000000 
0.000000 50.000000 14.000000 
0.000000 50.000000 15.000000 
0.000000 50.000000 16.000000 
0.000000 50.000000 17.000000 
0.000000 50.000000 18.000000 
0.000000 50.000000 19.000000 
0.000000 50.000000 20.000000 
0.000000 50.000000 21.000000 
0.000000 50.000000 22.000000 
0.000000 50.000000 23.000000 
0.000000 50.000000 24.000000 
0.000000 50.000000 25.000000 
0.000000 50.000000 26.000000 
0.000000 50.000000 27.000000 
0.000000 50.000000 28.000000 
0.000000 50.000000 29.000000 
0.000000 50.000000 30.000000 
0.000000 50.000000 31.000000 
0.000000 50.000000 32.000000 
0.000000 50.000000 33.000000 
0.000000 50.000000 34.000000 
0.000000 50.000000 35.000000 
0.000000 50.000000 36.000000 
0.000000 50.000000 37.000000 
0.000000 50.000000 38.000000 
0.000000 50.000000 39.000000 
0.000000 50.000000 40.000000 
0.000000 50.000000 41.000000 
0.000000 50.000000 42.000000 
0.000000 50.000000 43.000000 
0.000000 50.000000 44.000000 
0.000000 50.000000 45.000000 
0.000000 50.000000 46.000000 
0.000000 50.000000 47.000000 
0.000000 50.000000 48.000000 
0.000000 50.000000 49.000000 
0.000000 50.000000 50.000000 
0.000000 50.000000 51.000000 
0.000000 50.000000 52.000000 
0.000000 50.000000 53.000000 
0.000000 50.000000 54.000000 
0.000000 50.000000 55.000000 
0.000000 50.000000 56.000000 
0.000000 50.000000 57.000000 
0.000000 50.000000 58.000000 
0.000000 50.000000 59.000000 
0.000000 50.000000 60.000000 
0.000000 50.000000 61.000000 
0.000000 50.000000 62.000000 
0.000000 50.000000 63.000000 
0.000000 50.000000 64.000000 
0.000000 50.000000 65.000000 
0.000000 50.000000 66.000000 
0.000000 50.000000 67.000000 
0.000000 50.000000 68.000000 
0.000000 50.000000 69.000000 
0.000000 50.000000 70.000000 
0.000000 50.000000 71.000000 
0.000000 50.000000 72.000000 
0.000000 50.000000 73.000000 
0.000000 50.000000 74.000000 
0.000000 50.000000 75.000000 
0.000000 50.000000 76.000000 
0.000000 50.000000 77.000000 
0.000000 50.000000 78.000000 
0.000000 50.000000 79.000000 
0.000000 50.000000 80.000000 
0.000000 50.000000 81.000000 
0.000000 50.000000 82.000000 
0.000000 50.000000 83.000000 
0.000000 50.000000 84.000000 
0.000000 50.000000 85.000000 
0.000000 50.000000 86.000000 
0.000000 50.000000 87.000000 
0.000000 50.000000 88.000000 
0.000000 50.000000 89.000000 
0.000000 50.000000 90.000000 
0.000000 50.000000 91.000000 
0.000000 50.000000 92.000000 
0.000000 50.000000 93.000000 
0.000000 50.000000 94.000000 
0.000000 50.000000 95.000000 
0.000000 50.000000 96.000000 
0.000000 50.000000 97.000000 
0.000000 50.000000 98.000000 
0.000000 50.000000 99.000000 
0.000000 50.000000 100.000000 
0.000000 50.000000 101.000000 
0.000000 50.000000 102.000000 
0.000000 50.000000 103.000000 
0.000000 50.000000 104.000000 
0.000000 50.000000 105.000000 
0.000000 50.000000 106.000000 
0.000000 50.000000 107.000000 
0.000000 50.000000 108.000000 
0.000000 50.000000 109.000000 
0.000000 50.000000 110.000000 
0.000000 50.000000 111.000000 
0.000000 50.000000 112.000000 
0.000000 50.000000 113.000000 
0.000000 50.000000 114.000000 
0.000000 50.000000 115.000000 
0.000000 50.000000 116.000000 
0.000000 50.000000 117.000000 
0.000000 50.000000 118.000000 
0.000000 50.000000 119.000000 
0.000000 50.000000 120.000000 
0.000000 50.000000 121.000000 
0.000000 50.000000 122.000000 
0.000000 50.000000 123.000000 
0.000000 50.000000 124.000000 
0.000000 50.000000 125.000000 
0.000000 50.000000 126.000000 
0.000000 50.000000 127.000000 
0.000000 50.000000 128.000000 
0.000000 50.000000 129.000000 
0.000000 50.000000 130.000000 
0.000000 50.000000 131.000000 
0.000000 50.000000 132.000000 
0.000000 50.000000 133.000000 
0.000000 50.000000 134.000000 
0.000000 50.000000 135.000000 
0.000000 50.000000 136.000000 
0.000000 50.000000 137.000000 
0.000000 50.000000 138.000000 
0.000000 50.000000 139.000000 
0.000000 50.000000 140.000000 
0.000000 50.000000 141.000000 
0.000000 50.000000 142.000000 
0.000000 50.000000 143.000000 
0.000000 50.000000 144.000000 
0.000000 50.000000 145.000000 
0.000000 50.000000 146.000000 
0.000000 50.000000 147.000000 
0.000000 50.000000 148.000000 
0.000000 50.000000 149.000000 
0.000000 50.000000 150.000000 
0.000000 50.000000 151.000000 
0.000000 50.000000 152.000000 
0.000000 50.000000 153.000000 
0.000000 50.000000 154.000000 
0.000000 50.000000 155.000000 
0.000000 50.000000 156.000000 
0.000000 50.000000 157.000000 
0.000000 50.000000 158.000000 
0.000000 50.000000 159.000000 
0.000000 50.000000 160.000000 
0.000000 50.000000 161.000000 
0.000000 50.000000 162.000000 
0.000000 50.000000 163.000000 
0.000000 50.000000 164.000000 
0.000000 50.000000 165.000000 
0.000000 50.000000 166.000000 
0.000000 50.000000 167.000000 
0.000000 50.000000 168.000000 
0.000000 50.000000 169.000000 
0.000000 50.000000 170.000000 
0.000000 50.000000 171.000000 
0.000000 50.000000 172.000000 
0.000000 50.000000 173.000000 
0.000000 50.000000 174.000000 
0.000000 50.000000 175.000000 
0.000000 50.000000 176.000000 
0.000000 50.000000 177.000000 
0.000000 50.000000 178.000000 
0.000000 50.000000 179.000000 
0.000000 50.000000 180.000000 
0.000000 50.000000 181.000000 
0.000000 50.000000 182.000000 
0.000000 50.000000 183.000000 
0.000000 50.000000 184.000000 
0.000000 50.000000 185.000000 
0.000000 50.000000 186.000000 
0.000000 50.000000 187.000000 
0.000000 50.000000 188.000000 
0.000000 50.000000 189.000000 
0.000000 50.000000 190.000000 
0.000000 50.000000 191.000000 
0.000000 50.000000 192.000000 
0.000000 50.000000 193.000000 
0.000000 50.000000 194.000000 
0.000000 50.000000 195.000000 
0.000000 50.000000 196.000000 
0.000000 50.000000 197.000000 
0.000000 50.000000 198.000000 
0.000000 50.000000 199.000000 
0.000000 50.000000 200.000000 
0.000000 51.000000 0.000000 
0.000000 51.000000 1.000000 
0.000000 51.000000 2.000000 
0.000000 51.000000 3.000000 
0.000000 51.000000 4.000000 
0.000000 51.000000 5.000000 
0.000000 51.000000 6.000000 
0.000000 51.000000 7.000000 
0.000000 51.000000 8.000000 
0.000000 51.000000 9.000000 
0.000000 51.000000 10.000000 
0.000000 51.000000 11.000000 
0.000000 51.000000 12.000000 
0.000000 51.000000 13.000000 
0.000000 51.000000 14.000000 
0.000000 51.000000 15.000000 
0.000000 51.000000 16.000000 
0.000000 51.000000 17.000000 
0.000000 51.000000 18.000000 
0.000000 51.000000 19.000000 
0.000000 51.000000 20.000000 
0.000000 51.000000 21.000000 
0.000000 51.000000 22.000000 
0.000000 51.000000 23.000000 
0.000000 51.000000 24.000000 
0.000000 51.000000 25.000000 
0.000000 51.000000 26.000000 
0.000000 51.000000 27.000000 
0.000000 51.000000 28.000000 
0.000000 51.000000 29.000000 
0.000000 51.000000 30.000000 
0.000000 51.000000 31.000000 
0.000000 51.000000 32.000000 
0.000000 51.000000 33.000000 
0.000000 51.000000 34.000000 
0.000000 51.000000 35.000000 
0.000000 51.000000 36.000000 
0.000000 51.000000 37.000000 
0.000000 51.000000 38.000000 
0.000000 51.000000 39.000000 
0.000000 51.000000 40.000000 
0.000000 51.000000 41.000000 
0.000000 51.000000 42.000000 
0.000000 51.000000 43.000000 
0.000000 51.000000 44.000000 
0.000000 51.000000 45.000000 
0.000000 51.000000 46.000000 
0.000000 51.000000 47.000000 
0.000000 51.000000 48.000000 
0.000000 51.000000 49.000000 
0.000000 51.000000 50.000000 
0.000000 51.000000 51.000000 
0.000000 51.000000 52.000000 
0.000000 51.000000 53.000000 
0.000000 51.000000 54.000000 
0.000000 51.000000 55.000000 
0.000000 51.000000 56.000000 
0.000000 51.000000 57.000000 
0.000000 51.000000 58.000000 
0.000000 51.000000 59.000000 
0.000000 51.000000 60.000000 
0.000000 51.000000 61.000000 
0.000000 51.000000 62.000000 
0.000000 51.000000 63.000000 
0.000000 51.000000 64.000000 
0.000000 51.000000 65.000000 
0.000000 51.000000 66.000000 
0.000000 51.000000 67.000000 
0.000000 51.000000 68.000000 
0.000000 51.000000 69.000000 
0.000000 51.000000 70.000000 
0.000000 51.000000 71.000000 
0.000000 51.000000 72.000000 
0.000000 51.000000 73.000000 
0.000000 51.000000 74.000000 
0.000000 51.000000 75.000000 
0.000000 51.000000 76.000000 
0.000000 51.000000 77.000000 
0.000000 51.000000 78.000000 
0.000000 51.000000 79.000000 
0.000000 51.000000 80.000000 
0.000000 51.000000 81.000000 
0.000000 51.000000 82.000000 
0.000000 51.000000 83.000000 
0.000000 51.000000 84.000000 
0.000000 51.000000 85.000000 
0.000000 51.000000 86.000000 
0.000000 51.000000 87.000000 
0.000000 51.000000 88.000000 
0.000000 51.000000 89.000000 
0.000000 51.000000 90.000000 
0.000000 51.000000 91.000000 
0.000000 51.000000 92.000000 
0.000000 51.000000 93.000000 
0.000000 51.000000 94.000000 
0.000000 51.000000 95.000000 
0.000000 51.000000 96.000000 
0.000000 51.000000 97.000000 
0.000000 51.000000 98.000000 
0.000000 51.000000 99.000000 
0.000000 51.000000 100.000000 
0.000000 51.000000 101.000000 
0.000000 51.000000 102.000000 
0.000000 51.000000 103.000000 
0.000000 51.000000 104.000000 
0.000000 51.000000 105.000000 
0.000000 51.000000 106.000000 
0.000000 51.000000 107.000000 
0.000000 51.000000 108.000000 
0.000000 51.000000 109.000000 
0.000000 51.000000 110.000000 
0.000000 51.000000 111.000000 
0.000000 51.000000 112.000000 
0.000000 51.000000 113.000000 
0.000000 51.000000 114.000000 
0.000000 51.000000 115.000000 
0.000000 51.000000 116.000000 
0.000000 51.000000 117.000000 
0.000000 51.000000 118.000000 
0.000000 51.000000 119.000000 
0.000000 51.000000 120.000000 
0.000000 51.000000 121.000000 
0.000000 51.000000 122.000000 
0.000000 51.000000 123.000000 
0.000000 51.000000 124.000000 
0.000000 51.000000 125.000000 
0.000000 51.000000 126.000000 
0.000000 51.000000 127.000000 
0.000000 51.000000 128.000000 
0.000000 51.000000 129.000000 
0.000000 51.000000 130.000000 
0.000000 51.000000 131.000000 
0.000000 51.000000 132.000000 
0.000000 51.000000 133.000000 
0.000000 51.000000 134.000000 
0.000000 51.000000 135.000000 
0.000000 51.000000 136.000000 
0.000000 51.000000 137.000000 
0.000000 51.000000 138.000000 
0.000000 51.000000 139.000000 
0.000000 51.000000 140.000000 
0.000000 51.000000 141.000000 
0.000000 51.000000 142.000000 
0.000000 51.000000 143.000000 
0.000000 51.000000 144.000000 
0.000000 51.000000 145.000000 
0.000000 51.000000 146.000000 
0.000000 51.000000 147.000000 
0.000000 51.000000 148.000000 
0.000000 51.000000 149.000000 
0.000000 51.000000 150.000000 
0.000000 51.000000 151.000000 
0.000000 51.000000 152.000000 
0.000000 51.000000 153.000000 
0.000000 51.000000 154.000000 
0.000000 51.000000 155.000000 
0.000000 51.000000 156.000000 
0.000000 51.000000 157.000000 
0.000000 51.000000 158.000000 
0.000000 51.000000 159.000000 
0.000000 51.000000 160.000000 
0.000000 51.000000 161.000000 
0.000000 51.000000 162.000000 
0.000000 51.000000 163.000000 
0.000000 51.000000 164.000000 
0.000000 51.000000 165.000000 
0.000000 51.000000 166.000000 
0.000000 51.000000 167.000000 
0.000000 51.000000 168.000000 
0.000000 51.000000 169.000000 
0.000000 51.000000 170.000000 
0.000000 51.000000 171.000000 
0.000000 51.000000 172.000000 
0.000000 51.000000 173.000000 
0.000000 51.000000 174.000000 
0.000000 51.000000 175.000000 
0.000000 51.000000 176.000000 
0.000000 51.000000 177.000000 
0.000000 51.000000 178.000000 
0.000000 51.000000 179.000000 
0.000000 51.000000 180.000000 
0.000000 51.000000 181.000000 
0.000000 51.000000 182.000000 
0.000000 51.000000 183.000000 
0.000000 51.000000 184.000000 
0.000000 51.000000 185.000000 
0.000000 51.000000 186.000000 
0.000000 51.000000 187.000000 
0.000000 51.000000 188.000000 
0.000000 51.000000 189.000000 
0.000000 51.000000 190.000000 
0.000000 51.000000 191.000000 
0.000000 51.000000 192.000000 
0.000000 51.000000 193.000000 
0.000000 51.000000 194.000000 
0.000000 51.000000 195.000000 
0.000000 51.000000 196.000000 
0.000000 51.000000 197.000000 
0.000000 51.000000 198.000000 
0.000000 51.000000 199.000000 
0.000000 51.000000 200.000000 
0.000000 52.000000 0.000000 
0.000000 52.000000 1.000000 
0.000000 52.000000 2.000000 
0.000000 52.000000 3.000000 
0.000000 52.000000 4.000000 
0.000000 52.000000 5.000000 
0.000000 52.000000 6.000000 
0.000000 52.000000 7.000000 
0.000000 52.000000 8.000000 
0.000000 52.000000 9.000000 
0.000000 52.000000 10.000000 
0.000000 52.000000 11.000000 
0.000000 52.000000 12.000000 
0.000000 52.000000 13.000000 
0.000000 52.000000 14.000000 
0.000000 52.000000 15.000000 
0.000000 52.000000 16.000000 
0.000000 52.000000 17.000000 
0.000000 52.000000 18.000000 
0.000000 52.000000 19.000000 
0.000000 52.000000 20.000000 
0.000000 52.000000 21.000000 
0.000000 52.000000 22.000000 
0.000000 52.000000 23.000000 
0.000000 52.000000 24.000000 
0.000000 52.000000 25.000000 
0.000000 52.000000 26.000000 
0.000000 52.000000 27.000000 
0.000000 52.000000 28.000000 
0.000000 52.000000 29.000000 
0.000000 52.000000 30.000000 
0.000000 52.000000 31.000000 
0.000000 52.000000 32.000000 
0.000000 52.000000 33.000000 
0.000000 52.000000 34.000000 
0.000000 52.000000 35.000000 
0.000000 52.000000 36.000000 
0.000000 52.000000 37.000000 
0.000000 52.000000 38.000000 
0.000000 52.000000 39.000000 
0.000000 52.000000 40.000000 
0.000000 52.000000 41.000000 
0.000000 52.000000 42.000000 
0.000000 52.000000 43.000000 
0.000000 52.000000 44.000000 
0.000000 52.000000 45.000000 
0.000000 52.000000 46.000000 
0.000000 52.000000 47.000000 
0.000000 52.000000 48.000000 
0.000000 52.000000 49.000000 
0.000000 52.000000 50.000000 
0.000000 52.000000 51.000000 
0.000000 52.000000 52.000000 
0.000000 52.000000 53.000000 
0.000000 52.000000 54.000000 
0.000000 52.000000 55.000000 
0.000000 52.000000 56.000000 
0.000000 52.000000 57.000000 
0.000000 52.000000 58.000000 
0.000000 52.000000 59.000000 
0.000000 52.000000 60.000000 
0.000000 52.000000 61.000000 
0.000000 52.000000 62.000000 
0.000000 52.000000 63.000000 
0.000000 52.000000 64.000000 
0.000000 52.000000 65.000000 
0.000000 52.000000 66.000000 
0.000000 52.000000 67.000000 
0.000000 52.000000 68.000000 
0.000000 52.000000 69.000000 
0.000000 52.000000 70.000000 
0.000000 52.000000 71.000000 
0.000000 52.000000 72.000000 
0.000000 52.000000 73.000000 
0.000000 52.000000 74.000000 
0.000000 52.000000 75.000000 
0.000000 52.000000 76.000000 
0.000000 52.000000 77.000000 
0.000000 52.000000 78.000000 
0.000000 52.000000 79.000000 
0.000000 52.000000 80.000000 
0.000000 52.000000 81.000000 
0.000000 52.000000 82.000000 
0.000000 52.000000 83.000000 
0.000000 52.000000 84.000000 
0.000000 52.000000 85.000000 
0.000000 52.000000 86.000000 
0.000000 52.000000 87.000000 
0.000000 52.000000 88.000000 
0.000000 52.000000 89.000000 
0.000000 52.000000 90.000000 
0.000000 52.000000 91.000000 
0.000000 52.000000 92.000000 
0.000000 52.000000 93.000000 
0.000000 52.000000 94.000000 
0.000000 52.000000 95.000000 
0.000000 52.000000 96.000000 
0.000000 52.000000 97.000000 
0.000000 52.000000 98.000000 
0.000000 52.000000 99.000000 
0.000000 52.000000 100.000000 
0.000000 52.000000 101.000000 
0.000000 52.000000 102.000000 
0.000000 52.000000 103.000000 
0.000000 52.000000 104.000000 
0.000000 52.000000 105.000000 
0.000000 52.000000 106.000000 
0.000000 52.000000 107.000000 
0.000000 52.000000 108.000000 
0.000000 52.000000 109.000000 
0.000000 52.000000 110.000000 
0.000000 52.000000 111.000000 
0.000000 52.000000 112.000000 
0.000000 52.000000 113.000000 
0.000000 52.000000 114.000000 
0.000000 52.000000 115.000000 
0.000000 52.000000 116.000000 
0.000000 52.000000 117.000000 
0.000000 52.000000 118.000000 
0.000000 52.000000 119.000000 
0.000000 52.000000 120.000000 
0.000000 52.000000 121.000000 
0.000000 52.000000 122.000000 
0.000000 52.000000 123.000000 
0.000000 52.000000 124.000000 
0.000000 52.000000 125.000000 
0.000000 52.000000 126.000000 
0.000000 52.000000 127.000000 
0.000000 52.000000 128.000000 
0.000000 52.000000 129.000000 
0.000000 52.000000 130.000000 
0.000000 52.000000 131.000000 
0.000000 52.000000 132.000000 
0.000000 52.000000 133.000000 
0.000000 52.000000 134.000000 
0.000000 52.000000 135.000000 
0.000000 52.000000 136.000000 
0.000000 52.000000 137.000000 
0.000000 52.000000 138.000000 
0.000000 52.000000 139.000000 
0.000000 52.000000 140.000000 
0.000000 52.000000 141.000000 
0.000000 52.000000 142.000000 
0.000000 52.000000 143.000000 
0.000000 52.000000 144.000000 
0.000000 52.000000 145.000000 
0.000000 52.000000 146.000000 
0.000000 52.000000 147.000000 
0.000000 52.000000 148.000000 
0.000000 52.000000 149.000000 
0.000000 52.000000 150.000000 
0.000000 52.000000 151.000000 
0.000000 52.000000 152.000000 
0.000000 52.000000 153.000000 
0.000000 52.000000 154.000000 
0.000000 52.000000 155.000000 
0.000000 52.000000 156.000000 
0.000000 52.000000 157.000000 
0.000000 52.000000 158.000000 
0.000000 52.000000 159.000000 
0.000000 52.000000 160.000000 
0.000000 52.000000 161.000000 
0.000000 52.000000 162.000000 
0.000000 52.000000 163.000000 
0.000000 52.000000 164.000000 
0.000000 52.000000 165.000000 
0.000000 52.000000 166.000000 
0.000000 52.000000 167.000000 
0.000000 52.000000 168.000000 
0.000000 52.000000 169.000000 
0.000000 52.000000 170.000000 
0.000000 52.000000 171.000000 
0.000000 52.000000 172.000000 
0.000000 52.000000 173.000000 
0.000000 52.000000 174.000000 
0.000000 52.000000 175.000000 
0.000000 52.000000 176.000000 
0.000000 52.000000 177.000000 
0.000000 52.000000 178.000000 
0.000000 52.000000 179.000000 
0.000000 52.000000 180.000000 
0.000000 52.000000 181.000000 
0.000000 52.000000 182.000000 
0.000000 52.000000 183.000000 
0.000000 52.000000 184.000000 
0.000000 52.000000 185.000000 
0.000000 52.000000 186.000000 
0.000000 52.000000 187.000000 
0.000000 52.000000 188.000000 
0.000000 52.000000 189.000000 
0.000000 52.000000 190.000000 
0.000000 52.000000 191.000000 
0.000000 52.000000 192.000000 
0.000000 52.000000 193.000000 
0.000000 52.000000 194.000000 
0.000000 52.000000 195.000000 
0.000000 52.000000 196.000000 
0.000000 52.000000 197.000000 
0.000000 52.000000 198.000000 
0.000000 52.000000 199.000000 
0.000000 52.000000 200.000000 
0.000000 53.000000 0.000000 
0.000000 53.000000 1.000000 
0.000000 53.000000 2.000000 
0.000000 53.000000 3.000000 
0.000000 53.000000 4.000000 
0.000000 53.000000 5.000000 
0.000000 53.000000 6.000000 
0.000000 53.000000 7.000000 
0.000000 53.000000 8.000000 
0.000000 53.000000 9.000000 
0.000000 53.000000 10.000000 
0.000000 53.000000 11.000000 
0.000000 53.000000 12.000000 
0.000000 53.000000 13.000000 
0.000000 53.000000 14.000000 
0.000000 53.000000 15.000000 
0.000000 53.000000 16.000000 
0.000000 53.000000 17.000000 
0.000000 53.000000 18.000000 
0.000000 53.000000 19.000000 
0.000000 53.000000 20.000000 
0.000000 53.000000 21.000000 
0.000000 53.000000 22.000000 
0.000000 53.000000 23.000000 
0.000000 53.000000 24.000000 
0.000000 53.000000 25.000000 
0.000000 53.000000 26.000000 
0.000000 53.000000 27.000000 
0.000000 53.000000 28.000000 
0.000000 53.000000 29.000000 
0.000000 53.000000 30.000000 
0.000000 53.000000 31.000000 
0.000000 53.000000 32.000000 
0.000000 53.000000 33.000000 
0.000000 53.000000 34.000000 
0.000000 53.000000 35.000000 
0.000000 53.000000 36.000000 
0.000000 53.000000 37.000000 
0.000000 53.000000 38.000000 
0.000000 53.000000 39.000000 
0.000000 53.000000 40.000000 
0.000000 53.000000 41.000000 
0.000000 53.000000 42.000000 
0.000000 53.000000 43.000000 
0.000000 53.000000 44.000000 
0.000000 53.000000 45.000000 
0.000000 53.000000 46.000000 
0.000000 53.000000 47.000000 
0.000000 53.000000 48.000000 
0.000000 53.000000 49.000000 
0.000000 53.000000 50.000000 
0.000000 53.000000 51.000000 
0.000000 53.000000 52.000000 
0.000000 53.000000 53.000000 
0.000000 53.000000 54.000000 
0.000000 53.000000 55.000000 
0.000000 53.000000 56.000000 
0.000000 53.000000 57.000000 
0.000000 53.000000 58.000000 
0.000000 53.000000 59.000000 
0.000000 53.000000 60.000000 
0.000000 53.000000 61.000000 
0.000000 53.000000 62.000000 
0.000000 53.000000 63.000000 
0.000000 53.000000 64.000000 
0.000000 53.000000 65.000000 
0.000000 53.000000 66.000000 
0.000000 53.000000 67.000000 
0.000000 53.000000 68.000000 
0.000000 53.000000 69.000000 
0.000000 53.000000 70.000000 
0.000000 53.000000 71.000000 
0.000000 53.000000 72.000000 
0.000000 53.000000 73.000000 
0.000000 53.000000 74.000000 
0.000000 53.000000 75.000000 
0.000000 53.000000 76.000000 
0.000000 53.000000 77.000000 
0.000000 53.000000 78.000000 
0.000000 53.000000 79.000000 
0.000000 53.000000 80.000000 
0.000000 53.000000 81.000000 
0.000000 53.000000 82.000000 
0.000000 53.000000 83.000000 
0.000000 53.000000 84.000000 
0.000000 53.000000 85.000000 
0.000000 53.000000 86.000000 
0.000000 53.000000 87.000000 
0.000000 53.000000 88.000000 
0.000000 53.000000 89.000000 
0.000000 53.000000 90.000000 
0.000000 53.000000 91.000000 
0.000000 53.000000 92.000000 
0.000000 53.000000 93.000000 
0.000000 53.000000 94.000000 
0.000000 53.000000 95.000000 
0.000000 53.000000 96.000000 
0.000000 53.000000 97.000000 
0.000000 53.000000 98.000000 
0.000000 53.000000 99.000000 
0.000000 53.000000 100.000000 
0.000000 53.000000 101.000000 
0.000000 53.000000 102.000000 
0.000000 53.000000 103.000000 
0.000000 53.000000 104.000000 
0.000000 53.000000 105.000000 
0.000000 53.000000 106.000000 
0.000000 53.000000 107.000000 
0.000000 53.000000 108.000000 
0.000000 53.000000 109.000000 
0.000000 53.000000 110.000000 
0.000000 53.000000 111.000000 
0.000000 53.000000 112.000000 
0.000000 53.000000 113.000000 
0.000000 53.000000 114.000000 
0.000000 53.000000 115.000000 
0.000000 53.000000 116.000000 
0.000000 53.000000 117.000000 
0.000000 53.000000 118.000000 
0.000000 53.000000 119.000000 
0.000000 53.000000 120.000000 
0.000000 53.000000 121.000000 
0.000000 53.000000 122.000000 
0.000000 53.000000 123.000000 
0.000000 53.000000 124.000000 
0.000000 53.000000 125.000000 
0.000000 53.000000 126.000000 
0.000000 53.000000 127.000000 
0.000000 53.000000 128.000000 
0.000000 53.000000 129.000000 
0.000000 53.000000 130.000000 
0.000000 53.000000 131.000000 
0.000000 53.000000 132.000000 
0.000000 53.000000 133.000000 
0.000000 53.000000 134.000000 
0.000000 53.000000 135.000000 
0.000000 53.000000 136.000000 
0.000000 53.000000 137.000000 
0.000000 53.000000 138.000000 
0.000000 53.000000 139.000000 
0.000000 53.000000 140.000000 
0.000000 53.000000 141.000000 
0.000000 53.000000 142.000000 
0.000000 53.000000 143.000000 
0.000000 53.000000 144.000000 
0.000000 53.000000 145.000000 
0.000000 53.000000 146.000000 
0.000000 53.000000 147.000000 
0.000000 53.000000 148.000000 
0.000000 53.000000 149.000000 
0.000000 53.000000 150.000000 
0.000000 53.000000 151.000000 
0.000000 53.000000 152.000000 
0.000000 53.000000 153.000000 
0.000000 53.000000 154.000000 
0.000000 53.000000 155.000000 
0.000000 53.000000 156.000000 
0.000000 53.000000 157.000000 
0.000000 53.000000 158.000000 
0.000000 53.000000 159.000000 
0.000000 53.000000 160.000000 
0.000000 53.000000 161.000000 
0.000000 53.000000 162.000000 
0.000000 53.000000 163.000000 
0.000000 53.000000 164.000000 
0.000000 53.000000 165.000000 
0.000000 53.000000 166.000000 
0.000000 53.000000 167.000000 
0.000000 53.000000 168.000000 
0.000000 53.000000 169.000000 
0.000000 53.000000 170.000000 
0.000000 53.000000 171.000000 
0.000000 53.000000 172.000000 
0.000000 53.000000 173.000000 
0.000000 53.000000 174.000000 
0.000000 53.000000 175.000000 
0.000000 53.000000 176.000000 
0.000000 53.000000 177.000000 
0.000000 53.000000 178.000000 
0.000000 53.000000 179.000000 
0.000000 53.000000 180.000000 
0.000000 53.000000 181.000000 
0.000000 53.000000 182.000000 
0.000000 53.000000 183.000000 
0.000000 53.000000 184.000000 
0.000000 53.000000 185.000000 
0.000000 53.000000 186.000000 
0.000000 53.000000 187.000000 
0.000000 53.000000 188.000000 
0.000000 53.000000 189.000000 
0.000000 53.000000 190.000000 
0.000000 53.000000 191.000000 
0.000000 53.000000 192.000000 
0.000000 53.000000 193.000000 
0.000000 53.000000 194.000000 
0.000000 53.000000 195.000000 
0.000000 53.000000 196.000000 
0.000000 53.000000 197.000000 
0.000000 53.000000 198.000000 
0.000000 53.000000 199.000000 
0.000000 53.000000 200.000000 
0.000000 54.000000 0.000000 
0.000000 54.000000 1.000000 
0.000000 54.000000 2.000000 
0.000000 54.000000 3.000000 
0.000000 54.000000 4.000000 
0.000000 54.000000 5.000000 
0.000000 54.000000 6.000000 
0.000000 54.000000 7.000000 
0.000000 54.000000 8.000000 
0.000000 54.000000 9.000000 
0.000000 54.000000 10.000000 
0.000000 54.000000 11.000000 
0.000000 54.000000 12.000000 
0.000000 54.000000 13.000000 
0.000000 54.000000 14.000000 
0.000000 54.000000 15.000000 
0.000000 54.000000 16.000000 
0.000000 54.000000 17.000000 
0.000000 54.000000 18.000000 
0.000000 54.000000 19.000000 
0.000000 54.000000 20.000000 
0.000000 54.000000 21.000000 
0.000000 54.000000 22.000000 
0.000000 54.000000 23.000000 
0.000000 54.000000 24.000000 
0.000000 54.000000 25.000000 
0.000000 54.000000 26.000000 
0.000000 54.000000 27.000000 
0.000000 54.000000 28.000000 
0.000000 54.000000 29.000000 
0.000000 54.000000 30.000000 
0.000000 54.000000 31.000000 
0.000000 54.000000 32.000000 
0.000000 54.000000 33.000000 
0.000000 54.000000 34.000000 
0.000000 54.000000 35.000000 
0.000000 54.000000 36.000000 
0.000000 54.000000 37.000000 
0.000000 54.000000 38.000000 
0.000000 54.000000 39.000000 
0.000000 54.000000 40.000000 
0.000000 54.000000 41.000000 
0.000000 54.000000 42.000000 
0.000000 54.000000 43.000000 
0.000000 54.000000 44.000000 
0.000000 54.000000 45.000000 
0.000000 54.000000 46.000000 
0.000000 54.000000 47.000000 
0.000000 54.000000 48.000000 
0.000000 54.000000 49.000000 
0.000000 54.000000 50.000000 
0.000000 54.000000 51.000000 
0.000000 54.000000 52.000000 
0.000000 54.000000 53.000000 
0.000000 54.000000 54.000000 
0.000000 54.000000 55.000000 
0.000000 54.000000 56.000000 
0.000000 54.000000 57.000000 
0.000000 54.000000 58.000000 
0.000000 54.000000 59.000000 
0.000000 54.000000 60.000000 
0.000000 54.000000 61.000000 
0.000000 54.000000 62.000000 
0.000000 54.000000 63.000000 
0.000000 54.000000 64.000000 
0.000000 54.000000 65.000000 
0.000000 54.000000 66.000000 
0.000000 54.000000 67.000000 
0.000000 54.000000 68.000000 
0.000000 54.000000 69.000000 
0.000000 54.000000 70.000000 
0.000000 54.000000 71.000000 
0.000000 54.000000 72.000000 
0.000000 54.000000 73.000000 
0.000000 54.000000 74.000000 
0.000000 54.000000 75.000000 
0.000000 54.000000 76.000000 
0.000000 54.000000 77.000000 
0.000000 54.000000 78.000000 
0.000000 54.000000 79.000000 
0.000000 54.000000 80.000000 
0.000000 54.000000 81.000000 
0.000000 54.000000 82.000000 
0.000000 54.000000 83.000000 
0.000000 54.000000 84.000000 
0.000000 54.000000 85.000000 
0.000000 54.000000 86.000000 
0.000000 54.000000 87.000000 
0.000000 54.000000 88.000000 
0.000000 54.000000 89.000000 
0.000000 54.000000 90.000000 
0.000000 54.000000 91.000000 
0.000000 54.000000 92.000000 
0.000000 54.000000 93.000000 
0.000000 54.000000 94.000000 
0.000000 54.000000 95.000000 
0.000000 54.000000 96.000000 
0.000000 54.000000 97.000000 
0.000000 54.000000 98.000000 
0.000000 54.000000 99.000000 
0.000000 54.000000 100.000000 
0.000000 54.000000 101.000000 
0.000000 54.000000 102.000000 
0.000000 54.000000 103.000000 
0.000000 54.000000 104.000000 
0.000000 54.000000 105.000000 
0.000000 54.000000 106.000000 
0.000000 54.000000 107.000000 
0.000000 54.000000 108.000000 
0.000000 54.000000 109.000000 
0.000000 54.000000 110.000000 
0.000000 54.000000 111.000000 
0.000000 54.000000 112.000000 
0.000000 54.000000 113.000000 
0.000000 54.000000 114.000000 
0.000000 54.000000 115.000000 
0.000000 54.000000 116.000000 
0.000000 54.000000 117.000000 
0.000000 54.000000 118.000000 
0.000000 54.000000 119.000000 
0.000000 54.000000 120.000000 
0.000000 54.000000 121.000000 
0.000000 54.000000 122.000000 
0.000000 54.000000 123.000000 
0.000000 54.000000 124.000000 
0.000000 54.000000 125.000000 
0.000000 54.000000 126.000000 
0.000000 54.000000 127.000000 
0.000000 54.000000 128.000000 
0.000000 54.000000 129.000000 
0.000000 54.000000 130.000000 
0.000000 54.000000 131.000000 
0.000000 54.000000 132.000000 
0.000000 54.000000 133.000000 
0.000000 54.000000 134.000000 
0.000000 54.000000 135.000000 
0.000000 54.000000 136.000000 
0.000000 54.000000 137.000000 
0.000000 54.000000 138.000000 
0.000000 54.000000 139.000000 
0.000000 54.000000 140.000000 
0.000000 54.000000 141.000000 
0.000000 54.000000 142.000000 
0.000000 54.000000 143.000000 
0.000000 54.000000 144.000000 
0.000000 54.000000 145.000000 
0.000000 54.000000 146.000000 
0.000000 54.000000 147.000000 
0.000000 54.000000 148.000000 
0.000000 54.000000 149.000000 
0.000000 54.000000 150.000000 
0.000000 54.000000 151.000000 
0.000000 54.000000 152.000000 
0.000000 54.000000 153.000000 
0.000000 54.000000 154.000000 
0.000000 54.000000 155.000000 
0.000000 54.000000 156.000000 
0.000000 54.000000 157.000000 
0.000000 54.000000 158.000000 
0.000000 54.000000 159.000000 
0.000000 54.000000 160.000000 
0.000000 54.000000 161.000000 
0.000000 54.000000 162.000000 
0.000000 54.000000 163.000000 
0.000000 54.000000 164.000000 
0.000000 54.000000 165.000000 
0.000000 54.000000 166.000000 
0.000000 54.000000 167.000000 
0.000000 54.000000 168.000000 
0.000000 54.000000 169.000000 
0.000000 54.000000 170.000000 
0.000000 54.000000 171.000000 
0.000000 54.000000 172.000000 
0.000000 54.000000 173.000000 
0.000000 54.000000 174.000000 
0.000000 54.000000 175.000000 
0.000000 54.000000 176.000000 
0.000000 54.000000 177.000000 
0.000000 54.000000 178.000000 
0.000000 54.000000 179.000000 
0.000000 54.000000 180.000000 
0.000000 54.000000 181.000000 
0.000000 54.000000 182.000000 
0.000000 54.000000 183.000000 
0.000000 54.000000 184.000000 
0.000000 54.000000 185.000000 
0.000000 54.000000 186.000000 
0.000000 54.000000 187.000000 
0.000000 54.000000 188.000000 
0.000000 54.000000 189.000000 
0.000000 54.000000 190.000000 
0.000000 54.000000 191.000000 
0.000000 54.000000 192.000000 
0.000000 54.000000 193.000000 
0.000000 54.000000 194.000000 
0.000000 54.000000 195.000000 
0.000000 54.000000 196.000000 
0.000000 54.000000 197.000000 
0.000000 54.000000 198.000000 
0.000000 54.000000 199.000000 
0.000000 54.000000 200.000000 
0.000000 55.000000 0.000000 
0.000000 55.000000 1.000000 
0.000000 55.000000 2.000000 
0.000000 55.000000 3.000000 
0.000000 55.000000 4.000000 
0.000000 55.000000 5.000000 
0.000000 55.000000 6.000000 
0.000000 55.000000 7.000000 
0.000000 55.000000 8.000000 
0.000000 55.000000 9.000000 
0.000000 55.000000 10.000000 
0.000000 55.000000 11.000000 
0.000000 55.000000 12.000000 
0.000000 55.000000 13.000000 
0.000000 55.000000 14.000000 
0.000000 55.000000 15.000000 
0.000000 55.000000 16.000000 
0.000000 55.000000 17.000000 
0.000000 55.000000 18.000000 
0.000000 55.000000 19.000000 
0.000000 55.000000 20.000000 
0.000000 55.000000 21.000000 
0.000000 55.000000 22.000000 
0.000000 55.000000 23.000000 
0.000000 55.000000 24.000000 
0.000000 55.000000 25.000000 
0.000000 55.000000 26.000000 
0.000000 55.000000 27.000000 
0.000000 55.000000 28.000000 
0.000000 55.000000 29.000000 
0.000000 55.000000 30.000000 
0.000000 55.000000 31.000000 
0.000000 55.000000 32.000000 
0.000000 55.000000 33.000000 
0.000000 55.000000 34.000000 
0.000000 55.000000 35.000000 
0.000000 55.000000 36.000000 
0.000000 55.000000 37.000000 
0.000000 55.000000 38.000000 
0.000000 55.000000 39.000000 
0.000000 55.000000 40.000000 
0.000000 55.000000 41.000000 
0.000000 55.000000 42.000000 
0.000000 55.000000 43.000000 
0.000000 55.000000 44.000000 
0.000000 55.000000 45.000000 
0.000000 55.000000 46.000000 
0.000000 55.000000 47.000000 
0.000000 55.000000 48.000000 
0.000000 55.000000 49.000000 
0.000000 55.000000 50.000000 
0.000000 55.000000 51.000000 
0.000000 55.000000 52.000000 
0.000000 55.000000 53.000000 
0.000000 55.000000 54.000000 
0.000000 55.000000 55.000000 
0.000000 55.000000 56.000000 
0.000000 55.000000 57.000000 
0.000000 55.000000 58.000000 
0.000000 55.000000 59.000000 
0.000000 55.000000 60.000000 
0.000000 55.000000 61.000000 
0.000000 55.000000 62.000000 
0.000000 55.000000 63.000000 
0.000000 55.000000 64.000000 
0.000000 55.000000 65.000000 
0.000000 55.000000 66.000000 
0.000000 55.000000 67.000000 
0.000000 55.000000 68.000000 
0.000000 55.000000 69.000000 
0.000000 55.000000 70.000000 
0.000000 55.000000 71.000000 
0.000000 55.000000 72.000000 
0.000000 55.000000 73.000000 
0.000000 55.000000 74.000000 
0.000000 55.000000 75.000000 
0.000000 55.000000 76.000000 
0.000000 55.000000 77.000000 
0.000000 55.000000 78.000000 
0.000000 55.000000 79.000000 
0.000000 55.000000 80.000000 
0.000000 55.000000 81.000000 
0.000000 55.000000 82.000000 
0.000000 55.000000 83.000000 
0.000000 55.000000 84.000000 
0.000000 55.000000 85.000000 
0.000000 55.000000 86.000000 
0.000000 55.000000 87.000000 
0.000000 55.000000 88.000000 
0.000000 55.000000 89.000000 
0.000000 55.000000 90.000000 
0.000000 55.000000 91.000000 
0.000000 55.000000 92.000000 
0.000000 55.000000 93.000000 
0.000000 55.000000 94.000000 
0.000000 55.000000 95.000000 
0.000000 55.000000 96.000000 
0.000000 55.000000 97.000000 
0.000000 55.000000 98.000000 
0.000000 55.000000 99.000000 
0.000000 55.000000 100.000000 
0.000000 55.000000 101.000000 
0.000000 55.000000 102.000000 
0.000000 55.000000 103.000000 
0.000000 55.000000 104.000000 
0.000000 55.000000 105.000000 
0.000000 55.000000 106.000000 
0.000000 55.000000 107.000000 
0.000000 55.000000 108.000000 
0.000000 55.000000 109.000000 
0.000000 55.000000 110.000000 
0.000000 55.000000 111.000000 
0.000000 55.000000 112.000000 
0.000000 55.000000 113.000000 
0.000000 55.000000 114.000000 
0.000000 55.000000 115.000000 
0.000000 55.000000 116.000000 
0.000000 55.000000 117.000000 
0.000000 55.000000 118.000000 
0.000000 55.000000 119.000000 
0.000000 55.000000 120.000000 
0.000000 55.000000 121.000000 
0.000000 55.000000 122.000000 
0.000000 55.000000 123.000000 
0.000000 55.000000 124.000000 
0.000000 55.000000 125.000000 
0.000000 55.000000 126.000000 
0.000000 55.000000 127.000000 
0.000000 55.000000 128.000000 
0.000000 55.000000 129.000000 
0.000000 55.000000 130.000000 
0.000000 55.000000 131.000000 
0.000000 55.000000 132.000000 
0.000000 55.000000 133.000000 
0.000000 55.000000 134.000000 
0.000000 55.000000 135.000000 
0.000000 55.000000 136.000000 
0.000000 55.000000 137.000000 
0.000000 55.000000 138.000000 
0.000000 55.000000 139.000000 
0.000000 55.000000 140.000000 
0.000000 55.000000 141.000000 
0.000000 55.000000 142.000000 
0.000000 55.000000 143.000000 
0.000000 55.000000 144.000000 
0.000000 55.000000 145.000000 
0.000000 55.000000 146.000000 
0.000000 55.000000 147.000000 
0.000000 55.000000 148.000000 
0.000000 55.000000 149.000000 
0.000000 55.000000 150.000000 
0.000000 55.000000 151.000000 
0.000000 55.000000 152.000000 
0.000000 55.000000 153.000000 
0.000000 55.000000 154.000000 
0.000000 55.000000 155.000000 
0.000000 55.000000 156.000000 
0.000000 55.000000 157.000000 
0.000000 55.000000 158.000000 
0.000000 55.000000 159.000000 
0.000000 55.000000 160.000000 
0.000000 55.000000 161.000000 
0.000000 55.000000 162.000000 
0.000000 55.000000 163.000000 
0.000000 55.000000 164.000000 
0.000000 55.000000 165.000000 
0.000000 55.000000 166.000000 
0.000000 55.000000 167.000000 
0.000000 55.000000 168.000000 
0.000000 55.000000 169.000000 
0.000000 55.000000 170.000000 
0.000000 55.000000 171.000000 
0.000000 55.000000 172.000000 
0.000000 55.000000 173.000000 
0.000000 55.000000 174.000000 
0.000000 55.000000 175.000000 
0.000000 55.000000 176.000000 
0.000000 55.000000 177.000000 
0.000000 55.000000 178.000000 
0.000000 55.000000 179.000000 
0.000000 55.000000 180.000000 
0.000000 55.000000 181.000000 
0.000000 55.000000 182.000000 
0.000000 55.000000 183.000000 
0.000000 55.000000 184.000000 
0.000000 55.000000 185.000000 
0.000000 55.000000 186.000000 
0.000000 55.000000 187.000000 
0.000000 55.000000 188.000000 
0.000000 55.000000 189.000000 
0.000000 55.000000 190.000000 
0.000000 55.000000 191.000000 
0.000000 55.000000 192.000000 
0.000000 55.000000 193.000000 
0.000000 55.000000 194.000000 
0.000000 55.000000 195.000000 
0.000000 55.000000 196.000000 
0.000000 55.000000 197.000000 
0.000000 55.000000 198.000000 
0.000000 55.000000 199.000000 
0.000000 55.000000 200.000000 
0.000000 56.000000 0.000000 
0.000000 56.000000 1.000000 
0.000000 56.000000 2.000000 
0.000000 56.000000 3.000000 
0.000000 56.000000 4.000000 
0.000000 56.000000 5.000000 
0.000000 56.000000 6.000000 
0.000000 56.000000 7.000000 
0.000000 56.000000 8.000000 
0.000000 56.000000 9.000000 
0.000000 56.000000 10.000000 
0.000000 56.000000 11.000000 
0.000000 56.000000 12.000000 
0.000000 56.000000 13.000000 
0.000000 56.000000 14.000000 
0.000000 56.000000 15.000000 
0.000000 56.000000 16.000000 
0.000000 56.000000 17.000000 
0.000000 56.000000 18.000000 
0.000000 56.000000 19.000000 
0.000000 56.000000 20.000000 
0.000000 56.000000 21.000000 
0.000000 56.000000 22.000000 
0.000000 56.000000 23.000000 
0.000000 56.000000 24.000000 
0.000000 56.000000 25.000000 
0.000000 56.000000 26.000000 
0.000000 56.000000 27.000000 
0.000000 56.000000 28.000000 
0.000000 56.000000 29.000000 
0.000000 56.000000 30.000000 
0.000000 56.000000 31.000000 
0.000000 56.000000 32.000000 
0.000000 56.000000 33.000000 
0.000000 56.000000 34.000000 
0.000000 56.000000 35.000000 
0.000000 56.000000 36.000000 
0.000000 56.000000 37.000000 
0.000000 56.000000 38.000000 
0.000000 56.000000 39.000000 
0.000000 56.000000 40.000000 
0.000000 56.000000 41.000000 
0.000000 56.000000 42.000000 
0.000000 56.000000 43.000000 
0.000000 56.000000 44.000000 
0.000000 56.000000 45.000000 
0.000000 56.000000 46.000000 
0.000000 56.000000 47.000000 
0.000000 56.000000 48.000000 
0.000000 56.000000 49.000000 
0.000000 56.000000 50.000000 
0.000000 56.000000 51.000000 
0.000000 56.000000 52.000000 
0.000000 56.000000 53.000000 
0.000000 56.000000 54.000000 
0.000000 56.000000 55.000000 
0.000000 56.000000 56.000000 
0.000000 56.000000 57.000000 
0.000000 56.000000 58.000000 
0.000000 56.000000 59.000000 
0.000000 56.000000 60.000000 
0.000000 56.000000 61.000000 
0.000000 56.000000 62.000000 
0.000000 56.000000 63.000000 
0.000000 56.000000 64.000000 
0.000000 56.000000 65.000000 
0.000000 56.000000 66.000000 
0.000000 56.000000 67.000000 
0.000000 56.000000 68.000000 
0.000000 56.000000 69.000000 
0.000000 56.000000 70.000000 
0.000000 56.000000 71.000000 
0.000000 56.000000 72.000000 
0.000000 56.000000 73.000000 
0.000000 56.000000 74.000000 
0.000000 56.000000 75.000000 
0.000000 56.000000 76.000000 
0.000000 56.000000 77.000000 
0.000000 56.000000 78.000000 
0.000000 56.000000 79.000000 
0.000000 56.000000 80.000000 
0.000000 56.000000 81.000000 
0.000000 56.000000 82.000000 
0.000000 56.000000 83.000000 
0.000000 56.000000 84.000000 
0.000000 56.000000 85.000000 
0.000000 56.000000 86.000000 
0.000000 56.000000 87.000000 
0.000000 56.000000 88.000000 
0.000000 56.000000 89.000000 
0.000000 56.000000 90.000000 
0.000000 56.000000 91.000000 
0.000000 56.000000 92.000000 
0.000000 56.000000 93.000000 
0.000000 56.000000 94.000000 
0.000000 56.000000 95.000000 
0.000000 56.000000 96.000000 
0.000000 56.000000 97.000000 
0.000000 56.000000 98.000000 
0.000000 56.000000 99.000000 
0.000000 56.000000 100.000000 
0.000000 56.000000 101.000000 
0.000000 56.000000 102.000000 
0.000000 56.000000 103.000000 
0.000000 56.000000 104.000000 
0.000000 56.000000 105.000000 
0.000000 56.000000 106.000000 
0.000000 56.000000 107.000000 
0.000000 56.000000 108.000000 
0.000000 56.000000 109.000000 
0.000000 56.000000 110.000000 
0.000000 56.000000 111.000000 
0.000000 56.000000 112.000000 
0.000000 56.000000 113.000000 
0.000000 56.000000 114.000000 
0.000000 56.000000 115.000000 
0.000000 56.000000 116.000000 
0.000000 56.000000 117.000000 
0.000000 56.000000 118.000000 
0.000000 56.000000 119.000000 
0.000000 56.000000 120.000000 
0.000000 56.000000 121.000000 
0.000000 56.000000 122.000000 
0.000000 56.000000 123.000000 
0.000000 56.000000 124.000000 
0.000000 56.000000 125.000000 
0.000000 56.000000 126.000000 
0.000000 56.000000 127.000000 
0.000000 56.000000 128.000000 
0.000000 56.000000 129.000000 
0.000000 56.000000 130.000000 
0.000000 56.000000 131.000000 
0.000000 56.000000 132.000000 
0.000000 56.000000 133.000000 
0.000000 56.000000 134.000000 
0.000000 56.000000 135.000000 
0.000000 56.000000 136.000000 
0.000000 56.000000 137.000000 
0.000000 56.000000 138.000000 
0.000000 56.000000 139.000000 
0.000000 56.000000 140.000000 
0.000000 56.000000 141.000000 
0.000000 56.000000 142.000000 
0.000000 56.000000 143.000000 
0.000000 56.000000 144.000000 
0.000000 56.000000 145.000000 
0.000000 56.000000 146.000000 
0.000000 56.000000 147.000000 
0.000000 56.000000 148.000000 
0.000000 56.000000 149.000000 
0.000000 56.000000 150.000000 
0.000000 56.000000 151.000000 
0.000000 56.000000 152.000000 
0.000000 56.000000 153.000000 
0.000000 56.000000 154.000000 
0.000000 56.000000 155.000000 
0.000000 56.000000 156.000000 
0.000000 56.000000 157.000000 
0.000000 56.000000 158.000000 
0.000000 56.000000 159.000000 
0.000000 56.000000 160.000000 
0.000000 56.000000 161.000000 
0.000000 56.000000 162.000000 
0.000000 56.000000 163.000000 
0.000000 56.000000 164.000000 
0.000000 56.000000 165.000000 
0.000000 56.000000 166.000000 
0.000000 56.000000 167.000000 
0.000000 56.000000 168.000000 
0.000000 56.000000 169.000000 
0.000000 56.000000 170.000000 
0.000000 56.000000 171.000000 
0.000000 56.000000 172.000000 
0.000000 56.000000 173.000000 
0.000000 56.000000 174.000000 
0.000000 56.000000 175.000000 
0.000000 56.000000 176.000000 
0.000000 56.000000 177.000000 
0.000000 56.000000 178.000000 
0.000000 56.000000 179.000000 
0.000000 56.000000 180.000000 
0.000000 56.000000 181.000000 
0.000000 56.000000 182.000000 
0.000000 56.000000 183.000000 
0.000000 56.000000 184.000000 
0.000000 56.000000 185.000000 
0.000000 56.000000 186.000000 
0.000000 56.000000 187.000000 
0.000000 56.000000 188.000000 
0.000000 56.000000 189.000000 
0.000000 56.000000 190.000000 
0.000000 56.000000 191.000000 
0.000000 56.000000 192.000000 
0.000000 56.000000 193.000000 
0.000000 56.000000 194.000000 
0.000000 56.000000 195.000000 
0.000000 56.000000 196.000000 
0.000000 56.000000 197.000000 
0.000000 56.000000 198.000000 
0.000000 56.000000 199.000000 
0.000000 56.000000 200.000000 
0.000000 57.000000 0.000000 
0.000000 57.000000 1.000000 
0.000000 57.000000 2.000000 
0.000000 57.000000 3.000000 
0.000000 57.000000 4.000000 
0.000000 57.000000 5.000000 
0.000000 57.000000 6.000000 
0.000000 57.000000 7.000000 
0.000000 57.000000 8.000000 
0.000000 57.000000 9.000000 
0.000000 57.000000 10.000000 
0.000000 57.000000 11.000000 
0.000000 57.000000 12.000000 
0.000000 57.000000 13.000000 
0.000000 57.000000 14.000000 
0.000000 57.000000 15.000000 
0.000000 57.000000 16.000000 
0.000000 57.000000 17.000000 
0.000000 57.000000 18.000000 
0.000000 57.000000 19.000000 
0.000000 57.000000 20.000000 
0.000000 57.000000 21.000000 
0.000000 57.000000 22.000000 
0.000000 57.000000 23.000000 
0.000000 57.000000 24.000000 
0.000000 57.000000 25.000000 
0.000000 57.000000 26.000000 
0.000000 57.000000 27.000000 
0.000000 57.000000 28.000000 
0.000000 57.000000 29.000000 
0.000000 57.000000 30.000000 
0.000000 57.000000 31.000000 
0.000000 57.000000 32.000000 
0.000000 57.000000 33.000000 
0.000000 57.000000 34.000000 
0.000000 57.000000 35.000000 
0.000000 57.000000 36.000000 
0.000000 57.000000 37.000000 
0.000000 57.000000 38.000000 
0.000000 57.000000 39.000000 
0.000000 57.000000 40.000000 
0.000000 57.000000 41.000000 
0.000000 57.000000 42.000000 
0.000000 57.000000 43.000000 
0.000000 57.000000 44.000000 
0.000000 57.000000 45.000000 
0.000000 57.000000 46.000000 
0.000000 57.000000 47.000000 
0.000000 57.000000 48.000000 
0.000000 57.000000 49.000000 
0.000000 57.000000 50.000000 
0.000000 57.000000 51.000000 
0.000000 57.000000 52.000000 
0.000000 57.000000 53.000000 
0.000000 57.000000 54.000000 
0.000000 57.000000 55.000000 
0.000000 57.000000 56.000000 
0.000000 57.000000 57.000000 
0.000000 57.000000 58.000000 
0.000000 57.000000 59.000000 
0.000000 57.000000 60.000000 
0.000000 57.000000 61.000000 
0.000000 57.000000 62.000000 
0.000000 57.000000 63.000000 
0.000000 57.000000 64.000000 
0.000000 57.000000 65.000000 
0.000000 57.000000 66.000000 
0.000000 57.000000 67.000000 
0.000000 57.000000 68.000000 
0.000000 57.000000 69.000000 
0.000000 57.000000 70.000000 
0.000000 57.000000 71.000000 
0.000000 57.000000 72.000000 
0.000000 57.000000 73.000000 
0.000000 57.000000 74.000000 
0.000000 57.000000 75.000000 
0.000000 57.000000 76.000000 
0.000000 57.000000 77.000000 
0.000000 57.000000 78.000000 
0.000000 57.000000 79.000000 
0.000000 57.000000 80.000000 
0.000000 57.000000 81.000000 
0.000000 57.000000 82.000000 
0.000000 57.000000 83.000000 
0.000000 57.000000 84.000000 
0.000000 57.000000 85.000000 
0.000000 57.000000 86.000000 
0.000000 57.000000 87.000000 
0.000000 57.000000 88.000000 
0.000000 57.000000 89.000000 
0.000000 57.000000 90.000000 
0.000000 57.000000 91.000000 
0.000000 57.000000 92.000000 
0.000000 57.000000 93.000000 
0.000000 57.000000 94.000000 
0.000000 57.000000 95.000000 
0.000000 57.000000 96.000000 
0.000000 57.000000 97.000000 
0.000000 57.000000 98.000000 
0.000000 57.000000 99.000000 
0.000000 57.000000 100.000000 
0.000000 57.000000 101.000000 
0.000000 57.000000 102.000000 
0.000000 57.000000 103.000000 
0.000000 57.000000 104.000000 
0.000000 57.000000 105.000000 
0.000000 57.000000 106.000000 
0.000000 57.000000 107.000000 
0.000000 57.000000 108.000000 
0.000000 57.000000 109.000000 
0.000000 57.000000 110.000000 
0.000000 57.000000 111.000000 
0.000000 57.000000 112.000000 
0.000000 57.000000 113.000000 
0.000000 57.000000 114.000000 
0.000000 57.000000 115.000000 
0.000000 57.000000 116.000000 
0.000000 57.000000 117.000000 
0.000000 57.000000 118.000000 
0.000000 57.000000 119.000000 
0.000000 57.000000 120.000000 
0.000000 57.000000 121.000000 
0.000000 57.000000 122.000000 
0.000000 57.000000 123.000000 
0.000000 57.000000 124.000000 
0.000000 57.000000 125.000000 
0.000000 57.000000 126.000000 
0.000000 57.000000 127.000000 
0.000000 57.000000 128.000000 
0.000000 57.000000 129.000000 
0.000000 57.000000 130.000000 
0.000000 57.000000 131.000000 
0.000000 57.000000 132.000000 
0.000000 57.000000 133.000000 
0.000000 57.000000 134.000000 
0.000000 57.000000 135.000000 
0.000000 57.000000 136.000000 
0.000000 57.000000 137.000000 
0.000000 57.000000 138.000000 
0.000000 57.000000 139.000000 
0.000000 57.000000 140.000000 
0.000000 57.000000 141.000000 
0.000000 57.000000 142.000000 
0.000000 57.000000 143.000000 
0.000000 57.000000 144.000000 
0.000000 57.000000 145.000000 
0.000000 57.000000 146.000000 
0.000000 57.000000 147.000000 
0.000000 57.000000 148.000000 
0.000000 57.000000 149.000000 
0.000000 57.000000 150.000000 
0.000000 57.000000 151.000000 
0.000000 57.000000 152.000000 
0.000000 57.000000 153.000000 
0.000000 57.000000 154.000000 
0.000000 57.000000 155.000000 
0.000000 57.000000 156.000000 
0.000000 57.000000 157.000000 
0.000000 57.000000 158.000000 
0.000000 57.000000 159.000000 
0.000000 57.000000 160.000000 
0.000000 57.000000 161.000000 
0.000000 57.000000 162.000000 
0.000000 57.000000 163.000000 
0.000000 57.000000 164.000000 
0.000000 57.000000 165.000000 
0.000000 57.000000 166.000000 
0.000000 57.000000 167.000000 
0.000000 57.000000 168.000000 
0.000000 57.000000 169.000000 
0.000000 57.000000 170.000000 
0.000000 57.000000 171.000000 
0.000000 57.000000 172.000000 
0.000000 57.000000 173.000000 
0.000000 57.000000 174.000000 
0.000000 57.000000 175.000000 
0.000000 57.000000 176.000000 
0.000000 57.000000 177.000000 
0.000000 57.000000 178.000000 
0.000000 57.000000 179.000000 
0.000000 57.000000 180.000000 
0.000000 57.000000 181.000000 
0.000000 57.000000 182.000000 
0.000000 57.000000 183.000000 
0.000000 57.000000 184.000000 
0.000000 57.000000 185.000000 
0.000000 57.000000 186.000000 
0.000000 57.000000 187.000000 
0.000000 57.000000 188.000000 
0.000000 57.000000 189.000000 
0.000000 57.000000 190.000000 
0.000000 57.000000 191.000000 
0.000000 57.000000 192.000000 
0.000000 57.000000 193.000000 
0.000000 57.000000 194.000000 
0.000000 57.000000 195.000000 
0.000000 57.000000 196.000000 
0.000000 57.000000 197.000000 
0.000000 57.000000 198.000000 
0.000000 57.000000 199.000000 
0.000000 57.000000 200.000000 
0.000000 58.000000 0.000000 
0.000000 58.000000 1.000000 
0.000000 58.000000 2.000000 
0.000000 58.000000 3.000000 
0.000000 58.000000 4.000000 
0.000000 58.000000 5.000000 
0.000000 58.000000 6.000000 
0.000000 58.000000 7.000000 
0.000000 58.000000 8.000000 
0.000000 58.000000 9.000000 
0.000000 58.000000 10.000000 
0.000000 58.000000 11.000000 
0.000000 58.000000 12.000000 
0.000000 58.000000 13.000000 
0.000000 58.000000 14.000000 
0.000000 58.000000 15.000000 
0.000000 58.000000 16.000000 
0.000000 58.000000 17.000000 
0.000000 58.000000 18.000000 
0.000000 58.000000 19.000000 
0.000000 58.000000 20.000000 
0.000000 58.000000 21.000000 
0.000000 58.000000 22.000000 
0.000000 58.000000 23.000000 
0.000000 58.000000 24.000000 
0.000000 58.000000 25.000000 
0.000000 58.000000 26.000000 
0.000000 58.000000 27.000000 
0.000000 58.000000 28.000000 
0.000000 58.000000 29.000000 
0.000000 58.000000 30.000000 
0.000000 58.000000 31.000000 
0.000000 58.000000 32.000000 
0.000000 58.000000 33.000000 
0.000000 58.000000 34.000000 
0.000000 58.000000 35.000000 
0.000000 58.000000 36.000000 
0.000000 58.000000 37.000000 
0.000000 58.000000 38.000000 
0.000000 58.000000 39.000000 
0.000000 58.000000 40.000000 
0.000000 58.000000 41.000000 
0.000000 58.000000 42.000000 
0.000000 58.000000 43.000000 
0.000000 58.000000 44.000000 
0.000000 58.000000 45.000000 
0.000000 58.000000 46.000000 
0.000000 58.000000 47.000000 
0.000000 58.000000 48.000000 
0.000000 58.000000 49.000000 
0.000000 58.000000 50.000000 
0.000000 58.000000 51.000000 
0.000000 58.000000 52.000000 
0.000000 58.000000 53.000000 
0.000000 58.000000 54.000000 
0.000000 58.000000 55.000000 
0.000000 58.000000 56.000000 
0.000000 58.000000 57.000000 
0.000000 58.000000 58.000000 
0.000000 58.000000 59.000000 
0.000000 58.000000 60.000000 
0.000000 58.000000 61.000000 
0.000000 58.000000 62.000000 
0.000000 58.000000 63.000000 
0.000000 58.000000 64.000000 
0.000000 58.000000 65.000000 
0.000000 58.000000 66.000000 
0.000000 58.000000 67.000000 
0.000000 58.000000 68.000000 
0.000000 58.000000 69.000000 
0.000000 58.000000 70.000000 
0.000000 58.000000 71.000000 
0.000000 58.000000 72.000000 
0.000000 58.000000 73.000000 
0.000000 58.000000 74.000000 
0.000000 58.000000 75.000000 
0.000000 58.000000 76.000000 
0.000000 58.000000 77.000000 
0.000000 58.000000 78.000000 
0.000000 58.000000 79.000000 
0.000000 58.000000 80.000000 
0.000000 58.000000 81.000000 
0.000000 58.000000 82.000000 
0.000000 58.000000 83.000000 
0.000000 58.000000 84.000000 
0.000000 58.000000 85.000000 
0.000000 58.000000 86.000000 
0.000000 58.000000 87.000000 
0.000000 58.000000 88.000000 
0.000000 58.000000 89.000000 
0.000000 58.000000 90.000000 
0.000000 58.000000 91.000000 
0.000000 58.000000 92.000000 
0.000000 58.000000 93.000000 
0.000000 58.000000 94.000000 
0.000000 58.000000 95.000000 
0.000000 58.000000 96.000000 
0.000000 58.000000 97.000000 
0.000000 58.000000 98.000000 
0.000000 58.000000 99.000000 
0.000000 58.000000 100.000000 
0.000000 58.000000 101.000000 
0.000000 58.000000 102.000000 
0.000000 58.000000 103.000000 
0.000000 58.000000 104.000000 
0.000000 58.000000 105.000000 
0.000000 58.000000 106.000000 
0.000000 58.000000 107.000000 
0.000000 58.000000 108.000000 
0.000000 58.000000 109.000000 
0.000000 58.000000 110.000000 
0.000000 58.000000 111.000000 
0.000000 58.000000 112.000000 
0.000000 58.000000 113.000000 
0.000000 58.000000 114.000000 
0.000000 58.000000 115.000000 
0.000000 58.000000 116.000000 
0.000000 58.000000 117.000000 
0.000000 58.000000 118.000000 
0.000000 58.000000 119.000000 
0.000000 58.000000 120.000000 
0.000000 58.000000 121.000000 
0.000000 58.000000 122.000000 
0.000000 58.000000 123.000000 
0.000000 58.000000 124.000000 
0.000000 58.000000 125.000000 
0.000000 58.000000 126.000000 
0.000000 58.000000 127.000000 
0.000000 58.000000 128.000000 
0.000000 58.000000 129.000000 
0.000000 58.000000 130.000000 
0.000000 58.000000 131.000000 
0.000000 58.000000 132.000000 
0.000000 58.000000 133.000000 
0.000000 58.000000 134.000000 
0.000000 58.000000 135.000000 
0.000000 58.000000 136.000000 
0.000000 58.000000 137.000000 
0.000000 58.000000 138.000000 
0.000000 58.000000 139.000000 
0.000000 58.000000 140.000000 
0.000000 58.000000 141.000000 
0.000000 58.000000 142.000000 
0.000000 58.000000 143.000000 
0.000000 58.000000 144.000000 
0.000000 58.000000 145.000000 
0.000000 58.000000 146.000000 
0.000000 58.000000 147.000000 
0.000000 58.000000 148.000000 
0.000000 58.000000 149.000000 
0.000000 58.000000 150.000000 
0.000000 58.000000 151.000000 
0.000000 58.000000 152.000000 
0.000000 58.000000 153.000000 
0.000000 58.000000 154.000000 
0.000000 58.000000 155.000000 
0.000000 58.000000 156.000000 
0.000000 58.000000 157.000000 
0.000000 58.000000 158.000000 
0.000000 58.000000 159.000000 
0.000000 58.000000 160.000000 
0.000000 58.000000 161.000000 
0.000000 58.000000 162.000000 
0.000000 58.000000 163.000000 
0.000000 58.000000 164.000000 
0.000000 58.000000 165.000000 
0.000000 58.000000 166.000000 
0.000000 58.000000 167.000000 
0.000000 58.000000 168.000000 
0.000000 58.000000 169.000000 
0.000000 58.000000 170.000000 
0.000000 58.000000 171.000000 
0.000000 58.000000 172.000000 
0.000000 58.000000 173.000000 
0.000000 58.000000 174.000000 
0.000000 58.000000 175.000000 
0.000000 58.000000 176.000000 
0.000000 58.000000 177.000000 
0.000000 58.000000 178.000000 
0.000000 58.000000 179.000000 
0.000000 58.000000 180.000000 
0.000000 58.000000 181.000000 
0.000000 58.000000 182.000000 
0.000000 58.000000 183.000000 
0.000000 58.000000 184.000000 
0.000000 58.000000 185.000000 
0.000000 58.000000 186.000000 
0.000000 58.000000 187.000000 
0.000000 58.000000 188.000000 
0.000000 58.000000 189.000000 
0.000000 58.000000 190.000000 
0.000000 58.000000 191.000000 
0.000000 58.000000 192.000000 
0.000000 58.000000 193.000000 
0.000000 58.000000 194.000000 
0.000000 58.000000 195.000000 
0.000000 58.000000 196.000000 
0.000000 58.000000 197.000000 
0.000000 58.000000 198.000000 
0.000000 58.000000 199.000000 
0.000000 58.000000 200.000000 
0.000000 59.000000 0.000000 
0.000000 59.000000 1.000000 
0.000000 59.000000 2.000000 
0.000000 59.000000 3.000000 
0.000000 59.000000 4.000000 
0.000000 59.000000 5.000000 
0.000000 59.000000 6.000000 
0.000000 59.000000 7.000000 
0.000000 59.000000 8.000000 
0.000000 59.000000 9.000000 
0.000000 59.000000 10.000000 
0.000000 59.000000 11.000000 
0.000000 59.000000 12.000000 
0.000000 59.000000 13.000000 
0.000000 59.000000 14.000000 
0.000000 59.000000 15.000000 
0.000000 59.000000 16.000000 
0.000000 59.000000 17.000000 
0.000000 59.000000 18.000000 
0.000000 59.000000 19.000000 
0.000000 59.000000 20.000000 
0.000000 59.000000 21.000000 
0.000000 59.000000 22.000000 
0.000000 59.000000 23.000000 
0.000000 59.000000 24.000000 
0.000000 59.000000 25.000000 
0.000000 59.000000 26.000000 
0.000000 59.000000 27.000000 
0.000000 59.000000 28.000000 
0.000000 59.000000 29.000000 
0.000000 59.000000 30.000000 
0.000000 59.000000 31.000000 
0.000000 59.000000 32.000000 
0.000000 59.000000 33.000000 
0.000000 59.000000 34.000000 
0.000000 59.000000 35.000000 
0.000000 59.000000 36.000000 
0.000000 59.000000 37.000000 
0.000000 59.000000 38.000000 
0.000000 59.000000 39.000000 
0.000000 59.000000 40.000000 
0.000000 59.000000 41.000000 
0.000000 59.000000 42.000000 
0.000000 59.000000 43.000000 
0.000000 59.000000 44.000000 
0.000000 59.000000 45.000000 
0.000000 59.000000 46.000000 
0.000000 59.000000 47.000000 
0.000000 59.000000 48.000000 
0.000000 59.000000 49.000000 
0.000000 59.000000 50.000000 
0.000000 59.000000 51.000000 
0.000000 59.000000 52.000000 
0.000000 59.000000 53.000000 
0.000000 59.000000 54.000000 
0.000000 59.000000 55.000000 
0.000000 59.000000 56.000000 
0.000000 59.000000 57.000000 
0.000000 59.000000 58.000000 
0.000000 59.000000 59.000000 
0.000000 59.000000 60.000000 
0.000000 59.000000 61.000000 
0.000000 59.000000 62.000000 
0.000000 59.000000 63.000000 
0.000000 59.000000 64.000000 
0.000000 59.000000 65.000000 
0.000000 59.000000 66.000000 
0.000000 59.000000 67.000000 
0.000000 59.000000 68.000000 
0.000000 59.000000 69.000000 
0.000000 59.000000 70.000000 
0.000000 59.000000 71.000000 
0.000000 59.000000 72.000000 
0.000000 59.000000 73.000000 
0.000000 59.000000 74.000000 
0.000000 59.000000 75.000000 
0.000000 59.000000 76.000000 
0.000000 59.000000 77.000000 
0.000000 59.000000 78.000000 
0.000000 59.000000 79.000000 
0.000000 59.000000 80.000000 
0.000000 59.000000 81.000000 
0.000000 59.000000 82.000000 
0.000000 59.000000 83.000000 
0.000000 59.000000 84.000000 
0.000000 59.000000 85.000000 
0.000000 59.000000 86.000000 
0.000000 59.000000 87.000000 
0.000000 59.000000 88.000000 
0.000000 59.000000 89.000000 
0.000000 59.000000 90.000000 
0.000000 59.000000 91.000000 
0.000000 59.000000 92.000000 
0.000000 59.000000 93.000000 
0.000000 59.000000 94.000000 
0.000000 59.000000 95.000000 
0.000000 59.000000 96.000000 
0.000000 59.000000 97.000000 
0.000000 59.000000 98.000000 
0.000000 59.000000 99.000000 
0.000000 59.000000 100.000000 
0.000000 59.000000 101.000000 
0.000000 59.000000 102.000000 
0.000000 59.000000 103.000000 
0.000000 59.000000 104.000000 
0.000000 59.000000 105.000000 
0.000000 59.000000 106.000000 
0.000000 59.000000 107.000000 
0.000000 59.000000 108.000000 
0.000000 59.000000 109.000000 
0.000000 59.000000 110.000000 
0.000000 59.000000 111.000000 
0.000000 59.000000 112.000000 
0.000000 59.000000 113.000000 
0.000000 59.000000 114.000000 
0.000000 59.000000 115.000000 
0.000000 59.000000 116.000000 
0.000000 59.000000 117.000000 
0.000000 59.000000 118.000000 
0.000000 59.000000 119.000000 
0.000000 59.000000 120.000000 
0.000000 59.000000 121.000000 
0.000000 59.000000 122.000000 
0.000000 59.000000 123.000000 
0.000000 59.000000 124.000000 
0.000000 59.000000 125.000000 
0.000000 59.000000 126.000000 
0.000000 59.000000 127.000000 
0.000000 59.000000 128.000000 
0.000000 59.000000 129.000000 
0.000000 59.000000 130.000000 
0.000000 59.000000 131.000000 
0.000000 59.000000 132.000000 
0.000000 59.000000 133.000000 
0.000000 59.000000 134.000000 
0.000000 59.000000 135.000000 
0.000000 59.000000 136.000000 
0.000000 59.000000 137.000000 
0.000000 59.000000 138.000000 
0.000000 59.000000 139.000000 
0.000000 59.000000 140.000000 
0.000000 59.000000 141.000000 
0.000000 59.000000 142.000000 
0.000000 59.000000 143.000000 
0.000000 59.000000 144.000000 
0.000000 59.000000 145.000000 
0.000000 59.000000 146.000000 
0.000000 59.000000 147.000000 
0.000000 59.000000 148.000000 
0.000000 59.000000 149.000000 
0.000000 59.000000 150.000000 
0.000000 59.000000 151.000000 
0.000000 59.000000 152.000000 
0.000000 59.000000 153.000000 
0.000000 59.000000 154.000000 
0.000000 59.000000 155.000000 
0.000000 59.000000 156.000000 
0.000000 59.000000 157.000000 
0.000000 59.000000 158.000000 
0.000000 59.000000 159.000000 
0.000000 59.000000 160.000000 
0.000000 59.000000 161.000000 
0.000000 59.000000 162.000000 
0.000000 59.000000 163.000000 
0.000000 59.000000 164.000000 
0.000000 59.000000 165.000000 
0.000000 59.000000 166.000000 
0.000000 59.000000 167.000000 
0.000000 59.000000 168.000000 
0.000000 59.000000 169.000000 
0.000000 59.000000 170.000000 
0.000000 59.000000 171.000000 
0.000000 59.000000 172.000000 
0.000000 59.000000 173.000000 
0.000000 59.000000 174.000000 
0.000000 59.000000 175.000000 
0.000000 59.000000 176.000000 
0.000000 59.000000 177.000000 
0.000000 59.000000 178.000000 
0.000000 59.000000 179.000000 
0.000000 59.000000 180.000000 
0.000000 59.000000 181.000000 
0.000000 59.000000 182.000000 
0.000000 59.000000 183.000000 
0.000000 59.000000 184.000000 
0.000000 59.000000 185.000000 
0.000000 59.000000 186.000000 
0.000000 59.000000 187.000000 
0.000000 59.000000 188.000000 
0.000000 59.000000 189.000000 
0.000000 59.000000 190.000000 
0.000000 59.000000 191.000000 
0.000000 59.000000 192.000000 
0.000000 59.000000 193.000000 
0.000000 59.000000 194.000000 
0.000000 59.000000 195.000000 
0.000000 59.000000 196.000000 
0.000000 59.000000 197.000000 
0.000000 59.000000 198.000000 
0.000000 59.000000 199.000000 
0.000000 59.000000 200.000000 
0.000000 60.000000 0.000000 
0.000000 60.000000 1.000000 
0.000000 60.000000 2.000000 
0.000000 60.000000 3.000000 
0.000000 60.000000 4.000000 
0.000000 60.000000 5.000000 
0.000000 60.000000 6.000000 
0.000000 60.000000 7.000000 
0.000000 60.000000 8.000000 
0.000000 60.000000 9.000000 
0.000000 60.000000 10.000000 
0.000000 60.000000 11.000000 
0.000000 60.000000 12.000000 
0.000000 60.000000 13.000000 
0.000000 60.000000 14.000000 
0.000000 60.000000 15.000000 
0.000000 60.000000 16.000000 
0.000000 60.000000 17.000000 
0.000000 60.000000 18.000000 
0.000000 60.000000 19.000000 
0.000000 60.000000 20.000000 
0.000000 60.000000 21.000000 
0.000000 60.000000 22.000000 
0.000000 60.000000 23.000000 
0.000000 60.000000 24.000000 
0.000000 60.000000 25.000000 
0.000000 60.000000 26.000000 
0.000000 60.000000 27.000000 
0.000000 60.000000 28.000000 
0.000000 60.000000 29.000000 
0.000000 60.000000 30.000000 
0.000000 60.000000 31.000000 
0.000000 60.000000 32.000000 
0.000000 60.000000 33.000000 
0.000000 60.000000 34.000000 
0.000000 60.000000 35.000000 
0.000000 60.000000 36.000000 
0.000000 60.000000 37.000000 
0.000000 60.000000 38.000000 
0.000000 60.000000 39.000000 
0.000000 60.000000 40.000000 
0.000000 60.000000 41.000000 
0.000000 60.000000 42.000000 
0.000000 60.000000 43.000000 
0.000000 60.000000 44.000000 
0.000000 60.000000 45.000000 
0.000000 60.000000 46.000000 
0.000000 60.000000 47.000000 
0.000000 60.000000 48.000000 
0.000000 60.000000 49.000000 
0.000000 60.000000 50.000000 
0.000000 60.000000 51.000000 
0.000000 60.000000 52.000000 
0.000000 60.000000 53.000000 
0.000000 60.000000 54.000000 
0.000000 60.000000 55.000000 
0.000000 60.000000 56.000000 
0.000000 60.000000 57.000000 
0.000000 60.000000 58.000000 
0.000000 60.000000 59.000000 
0.000000 60.000000 60.000000 
0.000000 60.000000 61.000000 
0.000000 60.000000 62.000000 
0.000000 60.000000 63.000000 
0.000000 60.000000 64.000000 
0.000000 60.000000 65.000000 
0.000000 60.000000 66.000000 
0.000000 60.000000 67.000000 
0.000000 60.000000 68.000000 
0.000000 60.000000 69.000000 
0.000000 60.000000 70.000000 
0.000000 60.000000 71.000000 
0.000000 60.000000 72.000000 
0.000000 60.000000 73.000000 
0.000000 60.000000 74.000000 
0.000000 60.000000 75.000000 
0.000000 60.000000 76.000000 
0.000000 60.000000 77.000000 
0.000000 60.000000 78.000000 
0.000000 60.000000 79.000000 
0.000000 60.000000 80.000000 
0.000000 60.000000 81.000000 
0.000000 60.000000 82.000000 
0.000000 60.000000 83.000000 
0.000000 60.000000 84.000000 
0.000000 60.000000 85.000000 
0.000000 60.000000 86.000000 
0.000000 60.000000 87.000000 
0.000000 60.000000 88.000000 
0.000000 60.000000 89.000000 
0.000000 60.000000 90.000000 
0.000000 60.000000 91.000000 
0.000000 60.000000 92.000000 
0.000000 60.000000 93.000000 
0.000000 60.000000 94.000000 
0.000000 60.000000 95.000000 
0.000000 60.000000 96.000000 
0.000000 60.000000 97.000000 
0.000000 60.000000 98.000000 
0.000000 60.000000 99.000000 
0.000000 60.000000 100.000000 
0.000000 60.000000 101.000000 
0.000000 60.000000 102.000000 
0.000000 60.000000 103.000000 
0.000000 60.000000 104.000000 
0.000000 60.000000 105.000000 
0.000000 60.000000 106.000000 
0.000000 60.000000 107.000000 
0.000000 60.000000 108.000000 
0.000000 60.000000 109.000000 
0.000000 60.000000 110.000000 
0.000000 60.000000 111.000000 
0.000000 60.000000 112.000000 
0.000000 60.000000 113.000000 
0.000000 60.000000 114.000000 
0.000000 60.000000 115.000000 
0.000000 60.000000 116.000000 
0.000000 60.000000 117.000000 
0.000000 60.000000 118.000000 
0.000000 60.000000 119.000000 
0.000000 60.000000 120.000000 
0.000000 60.000000 121.000000 
0.000000 60.000000 122.000000 
0.000000 60.000000 123.000000 
0.000000 60.000000 124.000000 
0.000000 60.000000 125.000000 
0.000000 60.000000 126.000000 
0.000000 60.000000 127.000000 
0.000000 60.000000 128.000000 
0.000000 60.000000 129.000000 
0.000000 60.000000 130.000000 
0.000000 60.000000 131.000000 
0.000000 60.000000 132.000000 
0.000000 60.000000 133.000000 
0.000000 60.000000 134.000000 
0.000000 60.000000 135.000000 
0.000000 60.000000 136.000000 
0.000000 60.000000 137.000000 
0.000000 60.000000 138.000000 
0.000000 60.000000 139.000000 
0.000000 60.000000 140.000000 
0.000000 60.000000 141.000000 
0.000000 60.000000 142.000000 
0.000000 60.000000 143.000000 
0.000000 60.000000 144.000000 
0.000000 60.000000 145.000000 
0.000000 60.000000 146.000000 
0.000000 60.000000 147.000000 
0.000000 60.000000 148.000000 
0.000000 60.000000 149.000000 
0.000000 60.000000 150.000000 
0.000000 60.000000 151.000000 
0.000000 60.000000 152.000000 
0.000000 60.000000 153.000000 
0.000000 60.000000 154.000000 
0.000000 60.000000 155.000000 
0.000000 60.000000 156.000000 
0.000000 60.000000 157.000000 
0.000000 60.000000 158.000000 
0.000000 60.000000 159.000000 
0.000000 60.000000 160.000000 
0.000000 60.000000 161.000000 
0.000000 60.000000 162.000000 
0.000000 60.000000 163.000000 
0.000000 60.000000 164.000000 
0.000000 60.000000 165.000000 
0.000000 60.000000 166.000000 
0.000000 60.000000 167.000000 
0.000000 60.000000 168.000000 
0.000000 60.000000 169.000000 
0.000000 60.000000 170.000000 
0.000000 60.000000 171.000000 
0.000000 60.000000 172.000000 
0.000000 60.000000 173.000000 
0.000000 60.000000 174.000000 
0.000000 60.000000 175.000000 
0.000000 60.000000 176.000000 
0.000000 60.000000 177.000000 
0.000000 60.000000 178.000000 
0.000000 60.000000 179.000000 
0.000000 60.000000 180.000000 
0.000000 60.000000 181.000000 
0.000000 60.000000 182.000000 
0.000000 60.000000 183.000000 
0.000000 60.000000 184.000000 
0.000000 60.000000 185.000000 
0.000000 60.000000 186.000000 
0.000000 60.000000 187.000000 
0.000000 60.000000 188.000000 
0.000000 60.000000 189.000000 
0.000000 60.000000 190.000000 
0.000000 60.000000 191.000000 
0.000000 60.000000 192.000000 
0.000000 60.000000 193.000000 
0.000000 60.000000 194.000000 
0.000000 60.000000 195.000000 
0.000000 60.000000 196.000000 
0.000000 60.000000 197.000000 
0.000000 60.000000 198.000000 
0.000000 60.000000 199.000000 
0.000000 60.000000 200.000000 
0.000000 61.000000 0.000000 
0.000000 61.000000 1.000000 
0.000000 61.000000 2.000000 
0.000000 61.000000 3.000000 
0.000000 61.000000 4.000000 
0.000000 61.000000 5.000000 
0.000000 61.000000 6.000000 
0.000000 61.000000 7.000000 
0.000000 61.000000 8.000000 
0.000000 61.000000 9.000000 
0.000000 61.000000 10.000000 
0.000000 61.000000 11.000000 
0.000000 61.000000 12.000000 
0.000000 61.000000 13.000000 
0.000000 61.000000 14.000000 
0.000000 61.000000 15.000000 
0.000000 61.000000 16.000000 
0.000000 61.000000 17.000000 
0.000000 61.000000 18.000000 
0.000000 61.000000 19.000000 
0.000000 61.000000 20.000000 
0.000000 61.000000 21.000000 
0.000000 61.000000 22.000000 
0.000000 61.000000 23.000000 
0.000000 61.000000 24.000000 
0.000000 61.000000 25.000000 
0.000000 61.000000 26.000000 
0.000000 61.000000 27.000000 
0.000000 61.000000 28.000000 
0.000000 61.000000 29.000000 
0.000000 61.000000 30.000000 
0.000000 61.000000 31.000000 
0.000000 61.000000 32.000000 
0.000000 61.000000 33.000000 
0.000000 61.000000 34.000000 
0.000000 61.000000 35.000000 
0.000000 61.000000 36.000000 
0.000000 61.000000 37.000000 
0.000000 61.000000 38.000000 
0.000000 61.000000 39.000000 
0.000000 61.000000 40.000000 
0.000000 61.000000 41.000000 
0.000000 61.000000 42.000000 
0.000000 61.000000 43.000000 
0.000000 61.000000 44.000000 
0.000000 61.000000 45.000000 
0.000000 61.000000 46.000000 
0.000000 61.000000 47.000000 
0.000000 61.000000 48.000000 
0.000000 61.000000 49.000000 
0.000000 61.000000 50.000000 
0.000000 61.000000 51.000000 
0.000000 61.000000 52.000000 
0.000000 61.000000 53.000000 
0.000000 61.000000 54.000000 
0.000000 61.000000 55.000000 
0.000000 61.000000 56.000000 
0.000000 61.000000 57.000000 
0.000000 61.000000 58.000000 
0.000000 61.000000 59.000000 
0.000000 61.000000 60.000000 
0.000000 61.000000 61.000000 
0.000000 61.000000 62.000000 
0.000000 61.000000 63.000000 
0.000000 61.000000 64.000000 
0.000000 61.000000 65.000000 
0.000000 61.000000 66.000000 
0.000000 61.000000 67.000000 
0.000000 61.000000 68.000000 
0.000000 61.000000 69.000000 
0.000000 61.000000 70.000000 
0.000000 61.000000 71.000000 
0.000000 61.000000 72.000000 
0.000000 61.000000 73.000000 
0.000000 61.000000 74.000000 
0.000000 61.000000 75.000000 
0.000000 61.000000 76.000000 
0.000000 61.000000 77.000000 
0.000000 61.000000 78.000000 
0.000000 61.000000 79.000000 
0.000000 61.000000 80.000000 
0.000000 61.000000 81.000000 
0.000000 61.000000 82.000000 
0.000000 61.000000 83.000000 
0.000000 61.000000 84.000000 
0.000000 61.000000 85.000000 
0.000000 61.000000 86.000000 
0.000000 61.000000 87.000000 
0.000000 61.000000 88.000000 
0.000000 61.000000 89.000000 
0.000000 61.000000 90.000000 
0.000000 61.000000 91.000000 
0.000000 61.000000 92.000000 
0.000000 61.000000 93.000000 
0.000000 61.000000 94.000000 
0.000000 61.000000 95.000000 
0.000000 61.000000 96.000000 
0.000000 61.000000 97.000000 
0.000000 61.000000 98.000000 
0.000000 61.000000 99.000000 
0.000000 61.000000 100.000000 
0.000000 61.000000 101.000000 
0.000000 61.000000 102.000000 
0.000000 61.000000 103.000000 
0.000000 61.000000 104.000000 
0.000000 61.000000 105.000000 
0.000000 61.000000 106.000000 
0.000000 61.000000 107.000000 
0.000000 61.000000 108.000000 
0.000000 61.000000 109.000000 
0.000000 61.000000 110.000000 
0.000000 61.000000 111.000000 
0.000000 61.000000 112.000000 
0.000000 61.000000 113.000000 
0.000000 61.000000 114.000000 
0.000000 61.000000 115.000000 
0.000000 61.000000 116.000000 
0.000000 61.000000 117.000000 
0.000000 61.000000 118.000000 
0.000000 61.000000 119.000000 
0.000000 61.000000 120.000000 
0.000000 61.000000 121.000000 
0.000000 61.000000 122.000000 
0.000000 61.000000 123.000000 
0.000000 61.000000 124.000000 
0.000000 61.000000 125.000000 
0.000000 61.000000 126.000000 
0.000000 61.000000 127.000000 
0.000000 61.000000 128.000000 
0.000000 61.000000 129.000000 
0.000000 61.000000 130.000000 
0.000000 61.000000 131.000000 
0.000000 61.000000 132.000000 
0.000000 61.000000 133.000000 
0.000000 61.000000 134.000000 
0.000000 61.000000 135.000000 
0.000000 61.000000 136.000000 
0.000000 61.000000 137.000000 
0.000000 61.000000 138.000000 
0.000000 61.000000 139.000000 
0.000000 61.000000 140.000000 
0.000000 61.000000 141.000000 
0.000000 61.000000 142.000000 
0.000000 61.000000 143.000000 
0.000000 61.000000 144.000000 
0.000000 61.000000 145.000000 
0.000000 61.000000 146.000000 
0.000000 61.000000 147.000000 
0.000000 61.000000 148.000000 
0.000000 61.000000 149.000000 
0.000000 61.000000 150.000000 
0.000000 61.000000 151.000000 
0.000000 61.000000 152.000000 
0.000000 61.000000 153.000000 
0.000000 61.000000 154.000000 
0.000000 61.000000 155.000000 
0.000000 61.000000 156.000000 
0.000000 61.000000 157.000000 
0.000000 61.000000 158.000000 
0.000000 61.000000 159.000000 
0.000000 61.000000 160.000000 
0.000000 61.000000 161.000000 
0.000000 61.000000 162.000000 
0.000000 61.000000 163.000000 
0.000000 61.000000 164.000000 
0.000000 61.000000 165.000000 
0.000000 61.000000 166.000000 
0.000000 61.000000 167.000000 
0.000000 61.000000 168.000000 
0.000000 61.000000 169.000000 
0.000000 61.000000 170.000000 
0.000000 61.000000 171.000000 
0.000000 61.000000 172.000000 
0.000000 61.000000 173.000000 
0.000000 61.000000 174.000000 
0.000000 61.000000 175.000000 
0.000000 61.000000 176.000000 
0.000000 61.000000 177.000000 
0.000000 61.000000 178.000000 
0.000000 61.000000 179.000000 
0.000000 61.000000 180.000000 
0.000000 61.000000 181.000000 
0.000000 61.000000 182.000000 
0.000000 61.000000 183.000000 
0.000000 61.000000 184.000000 
0.000000 61.000000 185.000000 
0.000000 61.000000 186.000000 
0.000000 61.000000 187.000000 
0.000000 61.000000 188.000000 
0.000000 61.000000 189.000000 
0.000000 61.000000 190.000000 
0.000000 61.000000 191.000000 
0.000000 61.000000 192.000000 
0.000000 61.000000 193.000000 
0.000000 61.000000 194.000000 
0.000000 61.000000 195.000000 
0.000000 61.000000 196.000000 
0.000000 61.000000 197.000000 
0.000000 61.000000 198.000000 
0.000000 61.000000 199.000000 
0.000000 61.000000 200.000000 
0.000000 62.000000 0.000000 
0.000000 62.000000 1.000000 
0.000000 62.000000 2.000000 
0.000000 62.000000 3.000000 
0.000000 62.000000 4.000000 
0.000000 62.000000 5.000000 
0.000000 62.000000 6.000000 
0.000000 62.000000 7.000000 
0.000000 62.000000 8.000000 
0.000000 62.000000 9.000000 
0.000000 62.000000 10.000000 
0.000000 62.000000 11.000000 
0.000000 62.000000 12.000000 
0.000000 62.000000 13.000000 
0.000000 62.000000 14.000000 
0.000000 62.000000 15.000000 
0.000000 62.000000 16.000000 
0.000000 62.000000 17.000000 
0.000000 62.000000 18.000000 
0.000000 62.000000 19.000000 
0.000000 62.000000 20.000000 
0.000000 62.000000 21.000000 
0.000000 62.000000 22.000000 
0.000000 62.000000 23.000000 
0.000000 62.000000 24.000000 
0.000000 62.000000 25.000000 
0.000000 62.000000 26.000000 
0.000000 62.000000 27.000000 
0.000000 62.000000 28.000000 
0.000000 62.000000 29.000000 
0.000000 62.000000 30.000000 
0.000000 62.000000 31.000000 
0.000000 62.000000 32.000000 
0.000000 62.000000 33.000000 
0.000000 62.000000 34.000000 
0.000000 62.000000 35.000000 
0.000000 62.000000 36.000000 
0.000000 62.000000 37.000000 
0.000000 62.000000 38.000000 
0.000000 62.000000 39.000000 
0.000000 62.000000 40.000000 
0.000000 62.000000 41.000000 
0.000000 62.000000 42.000000 
0.000000 62.000000 43.000000 
0.000000 62.000000 44.000000 
0.000000 62.000000 45.000000 
0.000000 62.000000 46.000000 
0.000000 62.000000 47.000000 
0.000000 62.000000 48.000000 
0.000000 62.000000 49.000000 
0.000000 62.000000 50.000000 
0.000000 62.000000 51.000000 
0.000000 62.000000 52.000000 
0.000000 62.000000 53.000000 
0.000000 62.000000 54.000000 
0.000000 62.000000 55.000000 
0.000000 62.000000 56.000000 
0.000000 62.000000 57.000000 
0.000000 62.000000 58.000000 
0.000000 62.000000 59.000000 
0.000000 62.000000 60.000000 
0.000000 62.000000 61.000000 
0.000000 62.000000 62.000000 
0.000000 62.000000 63.000000 
0.000000 62.000000 64.000000 
0.000000 62.000000 65.000000 
0.000000 62.000000 66.000000 
0.000000 62.000000 67.000000 
0.000000 62.000000 68.000000 
0.000000 62.000000 69.000000 
0.000000 62.000000 70.000000 
0.000000 62.000000 71.000000 
0.000000 62.000000 72.000000 
0.000000 62.000000 73.000000 
0.000000 62.000000 74.000000 
0.000000 62.000000 75.000000 
0.000000 62.000000 76.000000 
0.000000 62.000000 77.000000 
0.000000 62.000000 78.000000 
0.000000 62.000000 79.000000 
0.000000 62.000000 80.000000 
0.000000 62.000000 81.000000 
0.000000 62.000000 82.000000 
0.000000 62.000000 83.000000 
0.000000 62.000000 84.000000 
0.000000 62.000000 85.000000 
0.000000 62.000000 86.000000 
0.000000 62.000000 87.000000 
0.000000 62.000000 88.000000 
0.000000 62.000000 89.000000 
0.000000 62.000000 90.000000 
0.000000 62.000000 91.000000 
0.000000 62.000000 92.000000 
0.000000 62.000000 93.000000 
0.000000 62.000000 94.000000 
0.000000 62.000000 95.000000 
0.000000 62.000000 96.000000 
0.000000 62.000000 97.000000 
0.000000 62.000000 98.000000 
0.000000 62.000000 99.000000 
0.000000 62.000000 100.000000 
0.000000 62.000000 101.000000 
0.000000 62.000000 102.000000 
0.000000 62.000000 103.000000 
0.000000 62.000000 104.000000 
0.000000 62.000000 105.000000 
0.000000 62.000000 106.000000 
0.000000 62.000000 107.000000 
0.000000 62.000000 108.000000 
0.000000 62.000000 109.000000 
0.000000 62.000000 110.000000 
0.000000 62.000000 111.000000 
0.000000 62.000000 112.000000 
0.000000 62.000000 113.000000 
0.000000 62.000000 114.000000 
0.000000 62.000000 115.000000 
0.000000 62.000000 116.000000 
0.000000 62.000000 117.000000 
0.000000 62.000000 118.000000 
0.000000 62.000000 119.000000 
0.000000 62.000000 120.000000 
0.000000 62.000000 121.000000 
0.000000 62.000000 122.000000 
0.000000 62.000000 123.000000 
0.000000 62.000000 124.000000 
0.000000 62.000000 125.000000 
0.000000 62.000000 126.000000 
0.000000 62.000000 127.000000 
0.000000 62.000000 128.000000 
0.000000 62.000000 129.000000 
0.000000 62.000000 130.000000 
0.000000 62.000000 131.000000 
0.000000 62.000000 132.000000 
0.000000 62.000000 133.000000 
0.000000 62.000000 134.000000 
0.000000 62.000000 135.000000 
0.000000 62.000000 136.000000 
0.000000 62.000000 137.000000 
0.000000 62.000000 138.000000 
0.000000 62.000000 139.000000 
0.000000 62.000000 140.000000 
0.000000 62.000000 141.000000 
0.000000 62.000000 142.000000 
0.000000 62.000000 143.000000 
0.000000 62.000000 144.000000 
0.000000 62.000000 145.000000 
0.000000 62.000000 146.000000 
0.000000 62.000000 147.000000 
0.000000 62.000000 148.000000 
0.000000 62.000000 149.000000 
0.000000 62.000000 150.000000 
0.000000 62.000000 151.000000 
0.000000 62.000000 152.000000 
0.000000 62.000000 153.000000 
0.000000 62.000000 154.000000 
0.000000 62.000000 155.000000 
0.000000 62.000000 156.000000 
0.000000 62.000000 157.000000 
0.000000 62.000000 158.000000 
0.000000 62.000000 159.000000 
0.000000 62.000000 160.000000 
0.000000 62.000000 161.000000 
0.000000 62.000000 162.000000 
0.000000 62.000000 163.000000 
0.000000 62.000000 164.000000 
0.000000 62.000000 165.000000 
0.000000 62.000000 166.000000 
0.000000 62.000000 167.000000 
0.000000 62.000000 168.000000 
0.000000 62.000000 169.000000 
0.000000 62.000000 170.000000 
0.000000 62.000000 171.000000 
0.000000 62.000000 172.000000 
0.000000 62.000000 173.000000 
0.000000 62.000000 174.000000 
0.000000 62.000000 175.000000 
0.000000 62.000000 176.000000 
0.000000 62.000000 177.000000 
0.000000 62.000000 178.000000 
0.000000 62.000000 179.000000 
0.000000 62.000000 180.000000 
0.000000 62.000000 181.000000 
0.000000 62.000000 182.000000 
0.000000 62.000000 183.000000 
0.000000 62.000000 184.000000 
0.000000 62.000000 185.000000 
0.000000 62.000000 186.000000 
0.000000 62.000000 187.000000 
0.000000 62.000000 188.000000 
0.000000 62.000000 189.000000 
0.000000 62.000000 190.000000 
0.000000 62.000000 191.000000 
0.000000 62.000000 192.000000 
0.000000 62.000000 193.000000 
0.000000 62.000000 194.000000 
0.000000 62.000000 195.000000 
0.000000 62.000000 196.000000 
0.000000 62.000000 197.000000 
0.000000 62.000000 198.000000 
0.000000 62.000000 199.000000 
0.000000 62.000000 200.000000 
0.000000 63.000000 0.000000 
0.000000 63.000000 1.000000 
0.000000 63.000000 2.000000 
0.000000 63.000000 3.000000 
0.000000 63.000000 4.000000 
0.000000 63.000000 5.000000 
0.000000 63.000000 6.000000 
0.000000 63.000000 7.000000 
0.000000 63.000000 8.000000 
0.000000 63.000000 9.000000 
0.000000 63.000000 10.000000 
0.000000 63.000000 11.000000 
0.000000 63.000000 12.000000 
0.000000 63.000000 13.000000 
0.000000 63.000000 14.000000 
0.000000 63.000000 15.000000 
0.000000 63.000000 16.000000 
0.000000 63.000000 17.000000 
0.000000 63.000000 18.000000 
0.000000 63.000000 19.000000 
0.000000 63.000000 20.000000 
0.000000 63.000000 21.000000 
0.000000 63.000000 22.000000 
0.000000 63.000000 23.000000 
0.000000 63.000000 24.000000 
0.000000 63.000000 25.000000 
0.000000 63.000000 26.000000 
0.000000 63.000000 27.000000 
0.000000 63.000000 28.000000 
0.000000 63.000000 29.000000 
0.000000 63.000000 30.000000 
0.000000 63.000000 31.000000 
0.000000 63.000000 32.000000 
0.000000 63.000000 33.000000 
0.000000 63.000000 34.000000 
0.000000 63.000000 35.000000 
0.000000 63.000000 36.000000 
0.000000 63.000000 37.000000 
0.000000 63.000000 38.000000 
0.000000 63.000000 39.000000 
0.000000 63.000000 40.000000 
0.000000 63.000000 41.000000 
0.000000 63.000000 42.000000 
0.000000 63.000000 43.000000 
0.000000 63.000000 44.000000 
0.000000 63.000000 45.000000 
0.000000 63.000000 46.000000 
0.000000 63.000000 47.000000 
0.000000 63.000000 48.000000 
0.000000 63.000000 49.000000 
0.000000 63.000000 50.000000 
0.000000 63.000000 51.000000 
0.000000 63.000000 52.000000 
0.000000 63.000000 53.000000 
0.000000 63.000000 54.000000 
0.000000 63.000000 55.000000 
0.000000 63.000000 56.000000 
0.000000 63.000000 57.000000 
0.000000 63.000000 58.000000 
0.000000 63.000000 59.000000 
0.000000 63.000000 60.000000 
0.000000 63.000000 61.000000 
0.000000 63.000000 62.000000 
0.000000 63.000000 63.000000 
0.000000 63.000000 64.000000 
0.000000 63.000000 65.000000 
0.000000 63.000000 66.000000 
0.000000 63.000000 67.000000 
0.000000 63.000000 68.000000 
0.000000 63.000000 69.000000 
0.000000 63.000000 70.000000 
0.000000 63.000000 71.000000 
0.000000 63.000000 72.000000 
0.000000 63.000000 73.000000 
0.000000 63.000000 74.000000 
0.000000 63.000000 75.000000 
0.000000 63.000000 76.000000 
0.000000 63.000000 77.000000 
0.000000 63.000000 78.000000 
0.000000 63.000000 79.000000 
0.000000 63.000000 80.000000 
0.000000 63.000000 81.000000 
0.000000 63.000000 82.000000 
0.000000 63.000000 83.000000 
0.000000 63.000000 84.000000 
0.000000 63.000000 85.000000 
0.000000 63.000000 86.000000 
0.000000 63.000000 87.000000 
0.000000 63.000000 88.000000 
0.000000 63.000000 89.000000 
0.000000 63.000000 90.000000 
0.000000 63.000000 91.000000 
0.000000 63.000000 92.000000 
0.000000 63.000000 93.000000 
0.000000 63.000000 94.000000 
0.000000 63.000000 95.000000 
0.000000 63.000000 96.000000 
0.000000 63.000000 97.000000 
0.000000 63.000000 98.000000 
0.000000 63.000000 99.000000 
0.000000 63.000000 100.000000 
0.000000 63.000000 101.000000 
0.000000 63.000000 102.000000 
0.000000 63.000000 103.000000 
0.000000 63.000000 104.000000 
0.000000 63.000000 105.000000 
0.000000 63.000000 106.000000 
0.000000 63.000000 107.000000 
0.000000 63.000000 108.000000 
0.000000 63.000000 109.000000 
0.000000 63.000000 110.000000 
0.000000 63.000000 111.000000 
0.000000 63.000000 112.000000 
0.000000 63.000000 113.000000 
0.000000 63.000000 114.000000 
0.000000 63.000000 115.000000 
0.000000 63.000000 116.000000 
0.000000 63.000000 117.000000 
0.000000 63.000000 118.000000 
0.000000 63.000000 119.000000 
0.000000 63.000000 120.000000 
0.000000 63.000000 121.000000 
0.000000 63.000000 122.000000 
0.000000 63.000000 123.000000 
0.000000 63.000000 124.000000 
0.000000 63.000000 125.000000 
0.000000 63.000000 126.000000 
0.000000 63.000000 127.000000 
0.000000 63.000000 128.000000 
0.000000 63.000000 129.000000 
0.000000 63.000000 130.000000 
0.000000 63.000000 131.000000 
0.000000 63.000000 132.000000 
0.000000 63.000000 133.000000 
0.000000 63.000000 134.000000 
0.000000 63.000000 135.000000 
0.000000 63.000000 136.000000 
0.000000 63.000000 137.000000 
0.000000 63.000000 138.000000 
0.000000 63.000000 139.000000 
0.000000 63.000000 140.000000 
0.000000 63.000000 141.000000 
0.000000 63.000000 142.000000 
0.000000 63.000000 143.000000 
0.000000 63.000000 144.000000 
0.000000 63.000000 145.000000 
0.000000 63.000000 146.000000 
0.000000 63.000000 147.000000 
0.000000 63.000000 148.000000 
0.000000 63.000000 149.000000 
0.000000 63.000000 150.000000 
0.000000 63.000000 151.000000 
0.000000 63.000000 152.000000 
0.000000 63.000000 153.000000 
0.000000 63.000000 154.000000 
0.000000 63.000000 155.000000 
0.000000 63.000000 156.000000 
0.000000 63.000000 157.000000 
0.000000 63.000000 158.000000 
0.000000 63.000000 159.000000 
0.000000 63.000000 160.000000 
0.000000 63.000000 161.000000 
0.000000 63.000000 162.000000 
0.000000 63.000000 163.000000 
0.000000 63.000000 164.000000 
0.000000 63.000000 165.000000 
0.000000 63.000000 166.000000 
0.000000 63.000000 167.000000 
0.000000 63.000000 168.000000 
0.000000 63.000000 169.000000 
0.000000 63.000000 170.000000 
0.000000 63.000000 171.000000 
0.000000 63.000000 172.000000 
0.000000 63.000000 173.000000 
0.000000 63.000000 174.000000 
0.000000 63.000000 175.000000 
0.000000 63.000000 176.000000 
0.000000 63.000000 177.000000 
0.000000 63.000000 178.000000 
0.000000 63.000000 179.000000 
0.000000 63.000000 180.000000 
0.000000 63.000000 181.000000 
0.000000 63.000000 182.000000 
0.000000 63.000000 183.000000 
0.000000 63.000000 184.000000 
0.000000 63.000000 185.000000 
0.000000 63.000000 186.000000 
0.000000 63.000000 187.000000 
0.000000 63.000000 188.000000 
0.000000 63.000000 189.000000 
0.000000 63.000000 190.000000 
0.000000 63.000000 191.000000 
0.000000 63.000000 192.000000 
0.000000 63.000000 193.000000 
0.000000 63.000000 194.000000 
0.000000 63.000000 195.000000 
0.000000 63.000000 196.000000 
0.000000 63.000000 197.000000 
0.000000 63.000000 198.000000 
0.000000 63.000000 199.000000 
0.000000 63.000000 200.000000 
0.000000 64.000000 0.000000 
0.000000 64.000000 1.000000 
0.000000 64.000000 2.000000 
0.000000 64.000000 3.000000 
0.000000 64.000000 4.000000 
0.000000 64.000000 5.000000 
0.000000 64.000000 6.000000 
0.000000 64.000000 7.000000 
0.000000 64.000000 8.000000 
0.000000 64.000000 9.000000 
0.000000 64.000000 10.000000 
0.000000 64.000000 11.000000 
0.000000 64.000000 12.000000 
0.000000 64.000000 13.000000 
0.000000 64.000000 14.000000 
0.000000 64.000000 15.000000 
0.000000 64.000000 16.000000 
0.000000 64.000000 17.000000 
0.000000 64.000000 18.000000 
0.000000 64.000000 19.000000 
0.000000 64.000000 20.000000 
0.000000 64.000000 21.000000 
0.000000 64.000000 22.000000 
0.000000 64.000000 23.000000 
0.000000 64.000000 24.000000 
0.000000 64.000000 25.000000 
0.000000 64.000000 26.000000 
0.000000 64.000000 27.000000 
0.000000 64.000000 28.000000 
0.000000 64.000000 29.000000 
0.000000 64.000000 30.000000 
0.000000 64.000000 31.000000 
0.000000 64.000000 32.000000 
0.000000 64.000000 33.000000 
0.000000 64.000000 34.000000 
0.000000 64.000000 35.000000 
0.000000 64.000000 36.000000 
0.000000 64.000000 37.000000 
0.000000 64.000000 38.000000 
0.000000 64.000000 39.000000 
0.000000 64.000000 40.000000 
0.000000 64.000000 41.000000 
0.000000 64.000000 42.000000 
0.000000 64.000000 43.000000 
0.000000 64.000000 44.000000 
0.000000 64.000000 45.000000 
0.000000 64.000000 46.000000 
0.000000 64.000000 47.000000 
0.000000 64.000000 48.000000 
0.000000 64.000000 49.000000 
0.000000 64.000000 50.000000 
0.000000 64.000000 51.000000 
0.000000 64.000000 52.000000 
0.000000 64.000000 53.000000 
0.000000 64.000000 54.000000 
0.000000 64.000000 55.000000 
0.000000 64.000000 56.000000 
0.000000 64.000000 57.000000 
0.000000 64.000000 58.000000 
0.000000 64.000000 59.000000 
0.000000 64.000000 60.000000 
0.000000 64.000000 61.000000 
0.000000 64.000000 62.000000 
0.000000 64.000000 63.000000 
0.000000 64.000000 64.000000 
0.000000 64.000000 65.000000 
0.000000 64.000000 66.000000 
0.000000 64.000000 67.000000 
0.000000 64.000000 68.000000 
0.000000 64.000000 69.000000 
0.000000 64.000000 70.000000 
0.000000 64.000000 71.000000 
0.000000 64.000000 72.000000 
0.000000 64.000000 73.000000 
0.000000 64.000000 74.000000 
0.000000 64.000000 75.000000 
0.000000 64.000000 76.000000 
0.000000 64.000000 77.000000 
0.000000 64.000000 78.000000 
0.000000 64.000000 79.000000 
0.000000 64.000000 80.000000 
0.000000 64.000000 81.000000 
0.000000 64.000000 82.000000 
0.000000 64.000000 83.000000 
0.000000 64.000000 84.000000 
0.000000 64.000000 85.000000 
0.000000 64.000000 86.000000 
0.000000 64.000000 87.000000 
0.000000 64.000000 88.000000 
0.000000 64.000000 89.000000 
0.000000 64.000000 90.000000 
0.000000 64.000000 91.000000 
0.000000 64.000000 92.000000 
0.000000 64.000000 93.000000 
0.000000 64.000000 94.000000 
0.000000 64.000000 95.000000 
0.000000 64.000000 96.000000 
0.000000 64.000000 97.000000 
0.000000 64.000000 98.000000 
0.000000 64.000000 99.000000 
0.000000 64.000000 100.000000 
0.000000 64.000000 101.000000 
0.000000 64.000000 102.000000 
0.000000 64.000000 103.000000 
0.000000 64.000000 104.000000 
0.000000 64.000000 105.000000 
0.000000 64.000000 106.000000 
0.000000 64.000000 107.000000 
0.000000 64.000000 108.000000 
0.000000 64.000000 109.000000 
0.000000 64.000000 110.000000 
0.000000 64.000000 111.000000 
0.000000 64.000000 112.000000 
0.000000 64.000000 113.000000 
0.000000 64.000000 114.000000 
0.000000 64.000000 115.000000 
0.000000 64.000000 116.000000 
0.000000 64.000000 117.000000 
0.000000 64.000000 118.000000 
0.000000 64.000000 119.000000 
0.000000 64.000000 120.000000 
0.000000 64.000000 121.000000 
0.000000 64.000000 122.000000 
0.000000 64.000000 123.000000 
0.000000 64.000000 124.000000 
0.000000 64.000000 125.000000 
0.000000 64.000000 126.000000 
0.000000 64.000000 127.000000 
0.000000 64.000000 128.000000 
0.000000 64.000000 129.000000 
0.000000 64.000000 130.000000 
0.000000 64.000000 131.000000 
0.000000 64.000000 132.000000 
0.000000 64.000000 133.000000 
0.000000 64.000000 134.000000 
0.000000 64.000000 135.000000 
0.000000 64.000000 136.000000 
0.000000 64.000000 137.000000 
0.000000 64.000000 138.000000 
0.000000 64.000000 139.000000 
0.000000 64.000000 140.000000 
0.000000 64.000000 141.000000 
0.000000 64.000000 142.000000 
0.000000 64.000000 143.000000 
0.000000 64.000000 144.000000 
0.000000 64.000000 145.000000 
0.000000 64.000000 146.000000 
0.000000 64.000000 147.000000 
0.000000 64.000000 148.000000 
0.000000 64.000000 149.000000 
0.000000 64.000000 150.000000 
0.000000 64.000000 151.000000 
0.000000 64.000000 152.000000 
0.000000 64.000000 153.000000 
0.000000 64.000000 154.000000 
0.000000 64.000000 155.000000 
0.000000 64.000000 156.000000 
0.000000 64.000000 157.000000 
0.000000 64.000000 158.000000 
0.000000 64.000000 159.000000 
0.000000 64.000000 160.000000 
0.000000 64.000000 161.000000 
0.000000 64.000000 162.000000 
0.000000 64.000000 163.000000 
0.000000 64.000000 164.000000 
0.000000 64.000000 165.000000 
0.000000 64.000000 166.000000 
0.000000 64.000000 167.000000 
0.000000 64.000000 168.000000 
0.000000 64.000000 169.000000 
0.000000 64.000000 170.000000 
0.000000 64.000000 171.000000 
0.000000 64.000000 172.000000 
0.000000 64.000000 173.000000 
0.000000 64.000000 174.000000 
0.000000 64.000000 175.000000 
0.000000 64.000000 176.000000 
0.000000 64.000000 177.000000 
0.000000 64.000000 178.000000 
0.000000 64.000000 179.000000 
0.000000 64.000000 180.000000 
0.000000 64.000000 181.000000 
0.000000 64.000000 182.000000 
0.000000 64.000000 183.000000 
0.000000 64.000000 184.000000 
0.000000 64.000000 185.000000 
0.000000 64.000000 186.000000 
0.000000 64.000000 187.000000 
0.000000 64.000000 188.000000 
0.000000 64.000000 189.000000 
0.000000 64.000000 190.000000 
0.000000 64.000000 191.000000 
0.000000 64.000000 192.000000 
0.000000 64.000000 193.000000 
0.000000 64.000000 194.000000 
0.000000 64.000000 195.000000 
0.000000 64.000000 196.000000 
0.000000 64.000000 197.000000 
0.000000 64.000000 198.000000 
0.000000 64.000000 199.000000 
0.000000 64.000000 200.000000 
0.000000 65.000000 0.000000 
0.000000 65.000000 1.000000 
0.000000 65.000000 2.000000 
0.000000 65.000000 3.000000 
0.000000 65.000000 4.000000 
0.000000 65.000000 5.000000 
0.000000 65.000000 6.000000 
0.000000 65.000000 7.000000 
0.000000 65.000000 8.000000 
0.000000 65.000000 9.000000 
0.000000 65.000000 10.000000 
0.000000 65.000000 11.000000 
0.000000 65.000000 12.000000 
0.000000 65.000000 13.000000 
0.000000 65.000000 14.000000 
0.000000 65.000000 15.000000 
0.000000 65.000000 16.000000 
0.000000 65.000000 17.000000 
0.000000 65.000000 18.000000 
0.000000 65.000000 19.000000 
0.000000 65.000000 20.000000 
0.000000 65.000000 21.000000 
0.000000 65.000000 22.000000 
0.000000 65.000000 23.000000 
0.000000 65.000000 24.000000 
0.000000 65.000000 25.000000 
0.000000 65.000000 26.000000 
0.000000 65.000000 27.000000 
0.000000 65.000000 28.000000 
0.000000 65.000000 29.000000 
0.000000 65.000000 30.000000 
0.000000 65.000000 31.000000 
0.000000 65.000000 32.000000 
0.000000 65.000000 33.000000 
0.000000 65.000000 34.000000 
0.000000 65.000000 35.000000 
0.000000 65.000000 36.000000 
0.000000 65.000000 37.000000 
0.000000 65.000000 38.000000 
0.000000 65.000000 39.000000 
0.000000 65.000000 40.000000 
0.000000 65.000000 41.000000 
0.000000 65.000000 42.000000 
0.000000 65.000000 43.000000 
0.000000 65.000000 44.000000 
0.000000 65.000000 45.000000 
0.000000 65.000000 46.000000 
0.000000 65.000000 47.000000 
0.000000 65.000000 48.000000 
0.000000 65.000000 49.000000 
0.000000 65.000000 50.000000 
0.000000 65.000000 51.000000 
0.000000 65.000000 52.000000 
0.000000 65.000000 53.000000 
0.000000 65.000000 54.000000 
0.000000 65.000000 55.000000 
0.000000 65.000000 56.000000 
0.000000 65.000000 57.000000 
0.000000 65.000000 58.000000 
0.000000 65.000000 59.000000 
0.000000 65.000000 60.000000 
0.000000 65.000000 61.000000 
0.000000 65.000000 62.000000 
0.000000 65.000000 63.000000 
0.000000 65.000000 64.000000 
0.000000 65.000000 65.000000 
0.000000 65.000000 66.000000 
0.000000 65.000000 67.000000 
0.000000 65.000000 68.000000 
0.000000 65.000000 69.000000 
0.000000 65.000000 70.000000 
0.000000 65.000000 71.000000 
0.000000 65.000000 72.000000 
0.000000 65.000000 73.000000 
0.000000 65.000000 74.000000 
0.000000 65.000000 75.000000 
0.000000 65.000000 76.000000 
0.000000 65.000000 77.000000 
0.000000 65.000000 78.000000 
0.000000 65.000000 79.000000 
0.000000 65.000000 80.000000 
0.000000 65.000000 81.000000 
0.000000 65.000000 82.000000 
0.000000 65.000000 83.000000 
0.000000 65.000000 84.000000 
0.000000 65.000000 85.000000 
0.000000 65.000000 86.000000 
0.000000 65.000000 87.000000 
0.000000 65.000000 88.000000 
0.000000 65.000000 89.000000 
0.000000 65.000000 90.000000 
0.000000 65.000000 91.000000 
0.000000 65.000000 92.000000 
0.000000 65.000000 93.000000 
0.000000 65.000000 94.000000 
0.000000 65.000000 95.000000 
0.000000 65.000000 96.000000 
0.000000 65.000000 97.000000 
0.000000 65.000000 98.000000 
0.000000 65.000000 99.000000 
0.000000 65.000000 100.000000 
0.000000 65.000000 101.000000 
0.000000 65.000000 102.000000 
0.000000 65.000000 103.000000 
0.000000 65.000000 104.000000 
0.000000 65.000000 105.000000 
0.000000 65.000000 106.000000 
0.000000 65.000000 107.000000 
0.000000 65.000000 108.000000 
0.000000 65.000000 109.000000 
0.000000 65.000000 110.000000 
0.000000 65.000000 111.000000 
0.000000 65.000000 112.000000 
0.000000 65.000000 113.000000 
0.000000 65.000000 114.000000 
0.000000 65.000000 115.000000 
0.000000 65.000000 116.000000 
0.000000 65.000000 117.000000 
0.000000 65.000000 118.000000 
0.000000 65.000000 119.000000 
0.000000 65.000000 120.000000 
0.000000 65.000000 121.000000 
0.000000 65.000000 122.000000 
0.000000 65.000000 123.000000 
0.000000 65.000000 124.000000 
0.000000 65.000000 125.000000 
0.000000 65.000000 126.000000 
0.000000 65.000000 127.000000 
0.000000 65.000000 128.000000 
0.000000 65.000000 129.000000 
0.000000 65.000000 130.000000 
0.000000 65.000000 131.000000 
0.000000 65.000000 132.000000 
0.000000 65.000000 133.000000 
0.000000 65.000000 134.000000 
0.000000 65.000000 135.000000 
0.000000 65.000000 136.000000 
0.000000 65.000000 137.000000 
0.000000 65.000000 138.000000 
0.000000 65.000000 139.000000 
0.000000 65.000000 140.000000 
0.000000 65.000000 141.000000 
0.000000 65.000000 142.000000 
0.000000 65.000000 143.000000 
0.000000 65.000000 144.000000 
0.000000 65.000000 145.000000 
0.000000 65.000000 146.000000 
0.000000 65.000000 147.000000 
0.000000 65.000000 148.000000 
0.000000 65.000000 149.000000 
0.000000 65.000000 150.000000 
0.000000 65.000000 151.000000 
0.000000 65.000000 152.000000 
0.000000 65.000000 153.000000 
0.000000 65.000000 154.000000 
0.000000 65.000000 155.000000 
0.000000 65.000000 156.000000 
0.000000 65.000000 157.000000 
0.000000 65.000000 158.000000 
0.000000 65.000000 159.000000 
0.000000 65.000000 160.000000 
0.000000 65.000000 161.000000 
0.000000 65.000000 162.000000 
0.000000 65.000000 163.000000 
0.000000 65.000000 164.000000 
0.000000 65.000000 165.000000 
0.000000 65.000000 166.000000 
0.000000 65.000000 167.000000 
0.000000 65.000000 168.000000 
0.000000 65.000000 169.000000 
0.000000 65.000000 170.000000 
0.000000 65.000000 171.000000 
0.000000 65.000000 172.000000 
0.000000 65.000000 173.000000 
0.000000 65.000000 174.000000 
0.000000 65.000000 175.000000 
0.000000 65.000000 176.000000 
0.000000 65.000000 177.000000 
0.000000 65.000000 178.000000 
0.000000 65.000000 179.000000 
0.000000 65.000000 180.000000 
0.000000 65.000000 181.000000 
0.000000 65.000000 182.000000 
0.000000 65.000000 183.000000 
0.000000 65.000000 184.000000 
0.000000 65.000000 185.000000 
0.000000 65.000000 186.000000 
0.000000 65.000000 187.000000 
0.000000 65.000000 188.000000 
0.000000 65.000000 189.000000 
0.000000 65.000000 190.000000 
0.000000 65.000000 191.000000 
0.000000 65.000000 192.000000 
0.000000 65.000000 193.000000 
0.000000 65.000000 194.000000 
0.000000 65.000000 195.000000 
0.000000 65.000000 196.000000 
0.000000 65.000000 197.000000 
0.000000 65.000000 198.000000 
0.000000 65.000000 199.000000 
0.000000 65.000000 200.000000 
0.000000 66.000000 0.000000 
0.000000 66.000000 1.000000 
0.000000 66.000000 2.000000 
0.000000 66.000000 3.000000 
0.000000 66.000000 4.000000 
0.000000 66.000000 5.000000 
0.000000 66.000000 6.000000 
0.000000 66.000000 7.000000 
0.000000 66.000000 8.000000 
0.000000 66.000000 9.000000 
0.000000 66.000000 10.000000 
0.000000 66.000000 11.000000 
0.000000 66.000000 12.000000 
0.000000 66.000000 13.000000 
0.000000 66.000000 14.000000 
0.000000 66.000000 15.000000 
0.000000 66.000000 16.000000 
0.000000 66.000000 17.000000 
0.000000 66.000000 18.000000 
0.000000 66.000000 19.000000 
0.000000 66.000000 20.000000 
0.000000 66.000000 21.000000 
0.000000 66.000000 22.000000 
0.000000 66.000000 23.000000 
0.000000 66.000000 24.000000 
0.000000 66.000000 25.000000 
0.000000 66.000000 26.000000 
0.000000 66.000000 27.000000 
0.000000 66.000000 28.000000 
0.000000 66.000000 29.000000 
0.000000 66.000000 30.000000 
0.000000 66.000000 31.000000 
0.000000 66.000000 32.000000 
0.000000 66.000000 33.000000 
0.000000 66.000000 34.000000 
0.000000 66.000000 35.000000 
0.000000 66.000000 36.000000 
0.000000 66.000000 37.000000 
0.000000 66.000000 38.000000 
0.000000 66.000000 39.000000 
0.000000 66.000000 40.000000 
0.000000 66.000000 41.000000 
0.000000 66.000000 42.000000 
0.000000 66.000000 43.000000 
0.000000 66.000000 44.000000 
0.000000 66.000000 45.000000 
0.000000 66.000000 46.000000 
0.000000 66.000000 47.000000 
0.000000 66.000000 48.000000 
0.000000 66.000000 49.000000 
0.000000 66.000000 50.000000 
0.000000 66.000000 51.000000 
0.000000 66.000000 52.000000 
0.000000 66.000000 53.000000 
0.000000 66.000000 54.000000 
0.000000 66.000000 55.000000 
0.000000 66.000000 56.000000 
0.000000 66.000000 57.000000 
0.000000 66.000000 58.000000 
0.000000 66.000000 59.000000 
0.000000 66.000000 60.000000 
0.000000 66.000000 61.000000 
0.000000 66.000000 62.000000 
0.000000 66.000000 63.000000 
0.000000 66.000000 64.000000 
0.000000 66.000000 65.000000 
0.000000 66.000000 66.000000 
0.000000 66.000000 67.000000 
0.000000 66.000000 68.000000 
0.000000 66.000000 69.000000 
0.000000 66.000000 70.000000 
0.000000 66.000000 71.000000 
0.000000 66.000000 72.000000 
0.000000 66.000000 73.000000 
0.000000 66.000000 74.000000 
0.000000 66.000000 75.000000 
0.000000 66.000000 76.000000 
0.000000 66.000000 77.000000 
0.000000 66.000000 78.000000 
0.000000 66.000000 79.000000 
0.000000 66.000000 80.000000 
0.000000 66.000000 81.000000 
0.000000 66.000000 82.000000 
0.000000 66.000000 83.000000 
0.000000 66.000000 84.000000 
0.000000 66.000000 85.000000 
0.000000 66.000000 86.000000 
0.000000 66.000000 87.000000 
0.000000 66.000000 88.000000 
0.000000 66.000000 89.000000 
0.000000 66.000000 90.000000 
0.000000 66.000000 91.000000 
0.000000 66.000000 92.000000 
0.000000 66.000000 93.000000 
0.000000 66.000000 94.000000 
0.000000 66.000000 95.000000 
0.000000 66.000000 96.000000 
0.000000 66.000000 97.000000 
0.000000 66.000000 98.000000 
0.000000 66.000000 99.000000 
0.000000 66.000000 100.000000 
0.000000 66.000000 101.000000 
0.000000 66.000000 102.000000 
0.000000 66.000000 103.000000 
0.000000 66.000000 104.000000 
0.000000 66.000000 105.000000 
0.000000 66.000000 106.000000 
0.000000 66.000000 107.000000 
0.000000 66.000000 108.000000 
0.000000 66.000000 109.000000 
0.000000 66.000000 110.000000 
0.000000 66.000000 111.000000 
0.000000 66.000000 112.000000 
0.000000 66.000000 113.000000 
0.000000 66.000000 114.000000 
0.000000 66.000000 115.000000 
0.000000 66.000000 116.000000 
0.000000 66.000000 117.000000 
0.000000 66.000000 118.000000 
0.000000 66.000000 119.000000 
0.000000 66.000000 120.000000 
0.000000 66.000000 121.000000 
0.000000 66.000000 122.000000 
0.000000 66.000000 123.000000 
0.000000 66.000000 124.000000 
0.000000 66.000000 125.000000 
0.000000 66.000000 126.000000 
0.000000 66.000000 127.000000 
0.000000 66.000000 128.000000 
0.000000 66.000000 129.000000 
0.000000 66.000000 130.000000 
0.000000 66.000000 131.000000 
0.000000 66.000000 132.000000 
0.000000 66.000000 133.000000 
0.000000 66.000000 134.000000 
0.000000 66.000000 135.000000 
0.000000 66.000000 136.000000 
0.000000 66.000000 137.000000 
0.000000 66.000000 138.000000 
0.000000 66.000000 139.000000 
0.000000 66.000000 140.000000 
0.000000 66.000000 141.000000 
0.000000 66.000000 142.000000 
0.000000 66.000000 143.000000 
0.000000 66.000000 144.000000 
0.000000 66.000000 145.000000 
0.000000 66.000000 146.000000 
0.000000 66.000000 147.000000 
0.000000 66.000000 148.000000 
0.000000 66.000000 149.000000 
0.000000 66.000000 150.000000 
0.000000 66.000000 151.000000 
0.000000 66.000000 152.000000 
0.000000 66.000000 153.000000 
0.000000 66.000000 154.000000 
0.000000 66.000000 155.000000 
0.000000 66.000000 156.000000 
0.000000 66.000000 157.000000 
0.000000 66.000000 158.000000 
0.000000 66.000000 159.000000 
0.000000 66.000000 160.000000 
0.000000 66.000000 161.000000 
0.000000 66.000000 162.000000 
0.000000 66.000000 163.000000 
0.000000 66.000000 164.000000 
0.000000 66.000000 165.000000 
0.000000 66.000000 166.000000 
0.000000 66.000000 167.000000 
0.000000 66.000000 168.000000 
0.000000 66.000000 169.000000 
0.000000 66.000000 170.000000 
0.000000 66.000000 171.000000 
0.000000 66.000000 172.000000 
0.000000 66.000000 173.000000 
0.000000 66.000000 174.000000 
0.000000 66.000000 175.000000 
0.000000 66.000000 176.000000 
0.000000 66.000000 177.000000 
0.000000 66.000000 178.000000 
0.000000 66.000000 179.000000 
0.000000 66.000000 180.000000 
0.000000 66.000000 181.000000 
0.000000 66.000000 182.000000 
0.000000 66.000000 183.000000 
0.000000 66.000000 184.000000 
0.000000 66.000000 185.000000 
0.000000 66.000000 186.000000 
0.000000 66.000000 187.000000 
0.000000 66.000000 188.000000 
0.000000 66.000000 189.000000 
0.000000 66.000000 190.000000 
0.000000 66.000000 191.000000 
0.000000 66.000000 192.000000 
0.000000 66.000000 193.000000 
0.000000 66.000000 194.000000 
0.000000 66.000000 195.000000 
0.000000 66.000000 196.000000 
0.000000 66.000000 197.000000 
0.000000 66.000000 198.000000 
0.000000 66.000000 199.000000 
0.000000 66.000000 200.000000 
0.000000 67.000000 0.000000 
0.000000 67.000000 1.000000 
0.000000 67.000000 2.000000 
0.000000 67.000000 3.000000 
0.000000 67.000000 4.000000 
0.000000 67.000000 5.000000 
0.000000 67.000000 6.000000 
0.000000 67.000000 7.000000 
0.000000 67.000000 8.000000 
0.000000 67.000000 9.000000 
0.000000 67.000000 10.000000 
0.000000 67.000000 11.000000 
0.000000 67.000000 12.000000 
0.000000 67.000000 13.000000 
0.000000 67.000000 14.000000 
0.000000 67.000000 15.000000 
0.000000 67.000000 16.000000 
0.000000 67.000000 17.000000 
0.000000 67.000000 18.000000 
0.000000 67.000000 19.000000 
0.000000 67.000000 20.000000 
0.000000 67.000000 21.000000 
0.000000 67.000000 22.000000 
0.000000 67.000000 23.000000 
0.000000 67.000000 24.000000 
0.000000 67.000000 25.000000 
0.000000 67.000000 26.000000 
0.000000 67.000000 27.000000 
0.000000 67.000000 28.000000 
0.000000 67.000000 29.000000 
0.000000 67.000000 30.000000 
0.000000 67.000000 31.000000 
0.000000 67.000000 32.000000 
0.000000 67.000000 33.000000 
0.000000 67.000000 34.000000 
0.000000 67.000000 35.000000 
0.000000 67.000000 36.000000 
0.000000 67.000000 37.000000 
0.000000 67.000000 38.000000 
0.000000 67.000000 39.000000 
0.000000 67.000000 40.000000 
0.000000 67.000000 41.000000 
0.000000 67.000000 42.000000 
0.000000 67.000000 43.000000 
0.000000 67.000000 44.000000 
0.000000 67.000000 45.000000 
0.000000 67.000000 46.000000 
0.000000 67.000000 47.000000 
0.000000 67.000000 48.000000 
0.000000 67.000000 49.000000 
0.000000 67.000000 50.000000 
0.000000 67.000000 51.000000 
0.000000 67.000000 52.000000 
0.000000 67.000000 53.000000 
0.000000 67.000000 54.000000 
0.000000 67.000000 55.000000 
0.000000 67.000000 56.000000 
0.000000 67.000000 57.000000 
0.000000 67.000000 58.000000 
0.000000 67.000000 59.000000 
0.000000 67.000000 60.000000 
0.000000 67.000000 61.000000 
0.000000 67.000000 62.000000 
0.000000 67.000000 63.000000 
0.000000 67.000000 64.000000 
0.000000 67.000000 65.000000 
0.000000 67.000000 66.000000 
0.000000 67.000000 67.000000 
0.000000 67.000000 68.000000 
0.000000 67.000000 69.000000 
0.000000 67.000000 70.000000 
0.000000 67.000000 71.000000 
0.000000 67.000000 72.000000 
0.000000 67.000000 73.000000 
0.000000 67.000000 74.000000 
0.000000 67.000000 75.000000 
0.000000 67.000000 76.000000 
0.000000 67.000000 77.000000 
0.000000 67.000000 78.000000 
0.000000 67.000000 79.000000 
0.000000 67.000000 80.000000 
0.000000 67.000000 81.000000 
0.000000 67.000000 82.000000 
0.000000 67.000000 83.000000 
0.000000 67.000000 84.000000 
0.000000 67.000000 85.000000 
0.000000 67.000000 86.000000 
0.000000 67.000000 87.000000 
0.000000 67.000000 88.000000 
0.000000 67.000000 89.000000 
0.000000 67.000000 90.000000 
0.000000 67.000000 91.000000 
0.000000 67.000000 92.000000 
0.000000 67.000000 93.000000 
0.000000 67.000000 94.000000 
0.000000 67.000000 95.000000 
0.000000 67.000000 96.000000 
0.000000 67.000000 97.000000 
0.000000 67.000000 98.000000 
0.000000 67.000000 99.000000 
0.000000 67.000000 100.000000 
0.000000 67.000000 101.000000 
0.000000 67.000000 102.000000 
0.000000 67.000000 103.000000 
0.000000 67.000000 104.000000 
0.000000 67.000000 105.000000 
0.000000 67.000000 106.000000 
0.000000 67.000000 107.000000 
0.000000 67.000000 108.000000 
0.000000 67.000000 109.000000 
0.000000 67.000000 110.000000 
0.000000 67.000000 111.000000 
0.000000 67.000000 112.000000 
0.000000 67.000000 113.000000 
0.000000 67.000000 114.000000 
0.000000 67.000000 115.000000 
0.000000 67.000000 116.000000 
0.000000 67.000000 117.000000 
0.000000 67.000000 118.000000 
0.000000 67.000000 119.000000 
0.000000 67.000000 120.000000 
0.000000 67.000000 121.000000 
0.000000 67.000000 122.000000 
0.000000 67.000000 123.000000 
0.000000 67.000000 124.000000 
0.000000 67.000000 125.000000 
0.000000 67.000000 126.000000 
0.000000 67.000000 127.000000 
0.000000 67.000000 128.000000 
0.000000 67.000000 129.000000 
0.000000 67.000000 130.000000 
0.000000 67.000000 131.000000 
0.000000 67.000000 132.000000 
0.000000 67.000000 133.000000 
0.000000 67.000000 134.000000 
0.000000 67.000000 135.000000 
0.000000 67.000000 136.000000 
0.000000 67.000000 137.000000 
0.000000 67.000000 138.000000 
0.000000 67.000000 139.000000 
0.000000 67.000000 140.000000 
0.000000 67.000000 141.000000 
0.000000 67.000000 142.000000 
0.000000 67.000000 143.000000 
0.000000 67.000000 144.000000 
0.000000 67.000000 145.000000 
0.000000 67.000000 146.000000 
0.000000 67.000000 147.000000 
0.000000 67.000000 148.000000 
0.000000 67.000000 149.000000 
0.000000 67.000000 150.000000 
0.000000 67.000000 151.000000 
0.000000 67.000000 152.000000 
0.000000 67.000000 153.000000 
0.000000 67.000000 154.000000 
0.000000 67.000000 155.000000 
0.000000 67.000000 156.000000 
0.000000 67.000000 157.000000 
0.000000 67.000000 158.000000 
0.000000 67.000000 159.000000 
0.000000 67.000000 160.000000 
0.000000 67.000000 161.000000 
0.000000 67.000000 162.000000 
0.000000 67.000000 163.000000 
0.000000 67.000000 164.000000 
0.000000 67.000000 165.000000 
0.000000 67.000000 166.000000 
0.000000 67.000000 167.000000 
0.000000 67.000000 168.000000 
0.000000 67.000000 169.000000 
0.000000 67.000000 170.000000 
0.000000 67.000000 171.000000 
0.000000 67.000000 172.000000 
0.000000 67.000000 173.000000 
0.000000 67.000000 174.000000 
0.000000 67.000000 175.000000 
0.000000 67.000000 176.000000 
0.000000 67.000000 177.000000 
0.000000 67.000000 178.000000 
0.000000 67.000000 179.000000 
0.000000 67.000000 180.000000 
0.000000 67.000000 181.000000 
0.000000 67.000000 182.000000 
0.000000 67.000000 183.000000 
0.000000 67.000000 184.000000 
0.000000 67.000000 185.000000 
0.000000 67.000000 186.000000 
0.000000 67.000000 187.000000 
0.000000 67.000000 188.000000 
0.000000 67.000000 189.000000 
0.000000 67.000000 190.000000 
0.000000 67.000000 191.000000 
0.000000 67.000000 192.000000 
0.000000 67.000000 193.000000 
0.000000 67.000000 194.000000 
0.000000 67.000000 195.000000 
0.000000 67.000000 196.000000 
0.000000 67.000000 197.000000 
0.000000 67.000000 198.000000 
0.000000 67.000000 199.000000 
0.000000 67.000000 200.000000 
0.000000 68.000000 0.000000 
0.000000 68.000000 1.000000 
0.000000 68.000000 2.000000 
0.000000 68.000000 3.000000 
0.000000 68.000000 4.000000 
0.000000 68.000000 5.000000 
0.000000 68.000000 6.000000 
0.000000 68.000000 7.000000 
0.000000 68.000000 8.000000 
0.000000 68.000000 9.000000 
0.000000 68.000000 10.000000 
0.000000 68.000000 11.000000 
0.000000 68.000000 12.000000 
0.000000 68.000000 13.000000 
0.000000 68.000000 14.000000 
0.000000 68.000000 15.000000 
0.000000 68.000000 16.000000 
0.000000 68.000000 17.000000 
0.000000 68.000000 18.000000 
0.000000 68.000000 19.000000 
0.000000 68.000000 20.000000 
0.000000 68.000000 21.000000 
0.000000 68.000000 22.000000 
0.000000 68.000000 23.000000 
0.000000 68.000000 24.000000 
0.000000 68.000000 25.000000 
0.000000 68.000000 26.000000 
0.000000 68.000000 27.000000 
0.000000 68.000000 28.000000 
0.000000 68.000000 29.000000 
0.000000 68.000000 30.000000 
0.000000 68.000000 31.000000 
0.000000 68.000000 32.000000 
0.000000 68.000000 33.000000 
0.000000 68.000000 34.000000 
0.000000 68.000000 35.000000 
0.000000 68.000000 36.000000 
0.000000 68.000000 37.000000 
0.000000 68.000000 38.000000 
0.000000 68.000000 39.000000 
0.000000 68.000000 40.000000 
0.000000 68.000000 41.000000 
0.000000 68.000000 42.000000 
0.000000 68.000000 43.000000 
0.000000 68.000000 44.000000 
0.000000 68.000000 45.000000 
0.000000 68.000000 46.000000 
0.000000 68.000000 47.000000 
0.000000 68.000000 48.000000 
0.000000 68.000000 49.000000 
0.000000 68.000000 50.000000 
0.000000 68.000000 51.000000 
0.000000 68.000000 52.000000 
0.000000 68.000000 53.000000 
0.000000 68.000000 54.000000 
0.000000 68.000000 55.000000 
0.000000 68.000000 56.000000 
0.000000 68.000000 57.000000 
0.000000 68.000000 58.000000 
0.000000 68.000000 59.000000 
0.000000 68.000000 60.000000 
0.000000 68.000000 61.000000 
0.000000 68.000000 62.000000 
0.000000 68.000000 63.000000 
0.000000 68.000000 64.000000 
0.000000 68.000000 65.000000 
0.000000 68.000000 66.000000 
0.000000 68.000000 67.000000 
0.000000 68.000000 68.000000 
0.000000 68.000000 69.000000 
0.000000 68.000000 70.000000 
0.000000 68.000000 71.000000 
0.000000 68.000000 72.000000 
0.000000 68.000000 73.000000 
0.000000 68.000000 74.000000 
0.000000 68.000000 75.000000 
0.000000 68.000000 76.000000 
0.000000 68.000000 77.000000 
0.000000 68.000000 78.000000 
0.000000 68.000000 79.000000 
0.000000 68.000000 80.000000 
0.000000 68.000000 81.000000 
0.000000 68.000000 82.000000 
0.000000 68.000000 83.000000 
0.000000 68.000000 84.000000 
0.000000 68.000000 85.000000 
0.000000 68.000000 86.000000 
0.000000 68.000000 87.000000 
0.000000 68.000000 88.000000 
0.000000 68.000000 89.000000 
0.000000 68.000000 90.000000 
0.000000 68.000000 91.000000 
0.000000 68.000000 92.000000 
0.000000 68.000000 93.000000 
0.000000 68.000000 94.000000 
0.000000 68.000000 95.000000 
0.000000 68.000000 96.000000 
0.000000 68.000000 97.000000 
0.000000 68.000000 98.000000 
0.000000 68.000000 99.000000 
0.000000 68.000000 100.000000 
0.000000 68.000000 101.000000 
0.000000 68.000000 102.000000 
0.000000 68.000000 103.000000 
0.000000 68.000000 104.000000 
0.000000 68.000000 105.000000 
0.000000 68.000000 106.000000 
0.000000 68.000000 107.000000 
0.000000 68.000000 108.000000 
0.000000 68.000000 109.000000 
0.000000 68.000000 110.000000 
0.000000 68.000000 111.000000 
0.000000 68.000000 112.000000 
0.000000 68.000000 113.000000 
0.000000 68.000000 114.000000 
0.000000 68.000000 115.000000 
0.000000 68.000000 116.000000 
0.000000 68.000000 117.000000 
0.000000 68.000000 118.000000 
0.000000 68.000000 119.000000 
0.000000 68.000000 120.000000 
0.000000 68.000000 121.000000 
0.000000 68.000000 122.000000 
0.000000 68.000000 123.000000 
0.000000 68.000000 124.000000 
0.000000 68.000000 125.000000 
0.000000 68.000000 126.000000 
0.000000 68.000000 127.000000 
0.000000 68.000000 128.000000 
0.000000 68.000000 129.000000 
0.000000 68.000000 130.000000 
0.000000 68.000000 131.000000 
0.000000 68.000000 132.000000 
0.000000 68.000000 133.000000 
0.000000 68.000000 134.000000 
0.000000 68.000000 135.000000 
0.000000 68.000000 136.000000 
0.000000 68.000000 137.000000 
0.000000 68.000000 138.000000 
0.000000 68.000000 139.000000 
0.000000 68.000000 140.000000 
0.000000 68.000000 141.000000 
0.000000 68.000000 142.000000 
0.000000 68.000000 143.000000 
0.000000 68.000000 144.000000 
0.000000 68.000000 145.000000 
0.000000 68.000000 146.000000 
0.000000 68.000000 147.000000 
0.000000 68.000000 148.000000 
0.000000 68.000000 149.000000 
0.000000 68.000000 150.000000 
0.000000 68.000000 151.000000 
0.000000 68.000000 152.000000 
0.000000 68.000000 153.000000 
0.000000 68.000000 154.000000 
0.000000 68.000000 155.000000 
0.000000 68.000000 156.000000 
0.000000 68.000000 157.000000 
0.000000 68.000000 158.000000 
0.000000 68.000000 159.000000 
0.000000 68.000000 160.000000 
0.000000 68.000000 161.000000 
0.000000 68.000000 162.000000 
0.000000 68.000000 163.000000 
0.000000 68.000000 164.000000 
0.000000 68.000000 165.000000 
0.000000 68.000000 166.000000 
0.000000 68.000000 167.000000 
0.000000 68.000000 168.000000 
0.000000 68.000000 169.000000 
0.000000 68.000000 170.000000 
0.000000 68.000000 171.000000 
0.000000 68.000000 172.000000 
0.000000 68.000000 173.000000 
0.000000 68.000000 174.000000 
0.000000 68.000000 175.000000 
0.000000 68.000000 176.000000 
0.000000 68.000000 177.000000 
0.000000 68.000000 178.000000 
0.000000 68.000000 179.000000 
0.000000 68.000000 180.000000 
0.000000 68.000000 181.000000 
0.000000 68.000000 182.000000 
0.000000 68.000000 183.000000 
0.000000 68.000000 184.000000 
0.000000 68.000000 185.000000 
0.000000 68.000000 186.000000 
0.000000 68.000000 187.000000 
0.000000 68.000000 188.000000 
0.000000 68.000000 189.000000 
0.000000 68.000000 190.000000 
0.000000 68.000000 191.000000 
0.000000 68.000000 192.000000 
0.000000 68.000000 193.000000 
0.000000 68.000000 194.000000 
0.000000 68.000000 195.000000 
0.000000 68.000000 196.000000 
0.000000 68.000000 197.000000 
0.000000 68.000000 198.000000 
0.000000 68.000000 199.000000 
0.000000 68.000000 200.000000 
0.000000 69.000000 0.000000 
0.000000 69.000000 1.000000 
0.000000 69.000000 2.000000 
0.000000 69.000000 3.000000 
0.000000 69.000000 4.000000 
0.000000 69.000000 5.000000 
0.000000 69.000000 6.000000 
0.000000 69.000000 7.000000 
0.000000 69.000000 8.000000 
0.000000 69.000000 9.000000 
0.000000 69.000000 10.000000 
0.000000 69.000000 11.000000 
0.000000 69.000000 12.000000 
0.000000 69.000000 13.000000 
0.000000 69.000000 14.000000 
0.000000 69.000000 15.000000 
0.000000 69.000000 16.000000 
0.000000 69.000000 17.000000 
0.000000 69.000000 18.000000 
0.000000 69.000000 19.000000 
0.000000 69.000000 20.000000 
0.000000 69.000000 21.000000 
0.000000 69.000000 22.000000 
0.000000 69.000000 23.000000 
0.000000 69.000000 24.000000 
0.000000 69.000000 25.000000 
0.000000 69.000000 26.000000 
0.000000 69.000000 27.000000 
0.000000 69.000000 28.000000 
0.000000 69.000000 29.000000 
0.000000 69.000000 30.000000 
0.000000 69.000000 31.000000 
0.000000 69.000000 32.000000 
0.000000 69.000000 33.000000 
0.000000 69.000000 34.000000 
0.000000 69.000000 35.000000 
0.000000 69.000000 36.000000 
0.000000 69.000000 37.000000 
0.000000 69.000000 38.000000 
0.000000 69.000000 39.000000 
0.000000 69.000000 40.000000 
0.000000 69.000000 41.000000 
0.000000 69.000000 42.000000 
0.000000 69.000000 43.000000 
0.000000 69.000000 44.000000 
0.000000 69.000000 45.000000 
0.000000 69.000000 46.000000 
0.000000 69.000000 47.000000 
0.000000 69.000000 48.000000 
0.000000 69.000000 49.000000 
0.000000 69.000000 50.000000 
0.000000 69.000000 51.000000 
0.000000 69.000000 52.000000 
0.000000 69.000000 53.000000 
0.000000 69.000000 54.000000 
0.000000 69.000000 55.000000 
0.000000 69.000000 56.000000 
0.000000 69.000000 57.000000 
0.000000 69.000000 58.000000 
0.000000 69.000000 59.000000 
0.000000 69.000000 60.000000 
0.000000 69.000000 61.000000 
0.000000 69.000000 62.000000 
0.000000 69.000000 63.000000 
0.000000 69.000000 64.000000 
0.000000 69.000000 65.000000 
0.000000 69.000000 66.000000 
0.000000 69.000000 67.000000 
0.000000 69.000000 68.000000 
0.000000 69.000000 69.000000 
0.000000 69.000000 70.000000 
0.000000 69.000000 71.000000 
0.000000 69.000000 72.000000 
0.000000 69.000000 73.000000 
0.000000 69.000000 74.000000 
0.000000 69.000000 75.000000 
0.000000 69.000000 76.000000 
0.000000 69.000000 77.000000 
0.000000 69.000000 78.000000 
0.000000 69.000000 79.000000 
0.000000 69.000000 80.000000 
0.000000 69.000000 81.000000 
0.000000 69.000000 82.000000 
0.000000 69.000000 83.000000 
0.000000 69.000000 84.000000 
0.000000 69.000000 85.000000 
0.000000 69.000000 86.000000 
0.000000 69.000000 87.000000 
0.000000 69.000000 88.000000 
0.000000 69.000000 89.000000 
0.000000 69.000000 90.000000 
0.000000 69.000000 91.000000 
0.000000 69.000000 92.000000 
0.000000 69.000000 93.000000 
0.000000 69.000000 94.000000 
0.000000 69.000000 95.000000 
0.000000 69.000000 96.000000 
0.000000 69.000000 97.000000 
0.000000 69.000000 98.000000 
0.000000 69.000000 99.000000 
0.000000 69.000000 100.000000 
0.000000 69.000000 101.000000 
0.000000 69.000000 102.000000 
0.000000 69.000000 103.000000 
0.000000 69.000000 104.000000 
0.000000 69.000000 105.000000 
0.000000 69.000000 106.000000 
0.000000 69.000000 107.000000 
0.000000 69.000000 108.000000 
0.000000 69.000000 109.000000 
0.000000 69.000000 110.000000 
0.000000 69.000000 111.000000 
0.000000 69.000000 112.000000 
0.000000 69.000000 113.000000 
0.000000 69.000000 114.000000 
0.000000 69.000000 115.000000 
0.000000 69.000000 116.000000 
0.000000 69.000000 117.000000 
0.000000 69.000000 118.000000 
0.000000 69.000000 119.000000 
0.000000 69.000000 120.000000 
0.000000 69.000000 121.000000 
0.000000 69.000000 122.000000 
0.000000 69.000000 123.000000 
0.000000 69.000000 124.000000 
0.000000 69.000000 125.000000 
0.000000 69.000000 126.000000 
0.000000 69.000000 127.000000 
0.000000 69.000000 128.000000 
0.000000 69.000000 129.000000 
0.000000 69.000000 130.000000 
0.000000 69.000000 131.000000 
0.000000 69.000000 132.000000 
0.000000 69.000000 133.000000 
0.000000 69.000000 134.000000 
0.000000 69.000000 135.000000 
0.000000 69.000000 136.000000 
0.000000 69.000000 137.000000 
0.000000 69.000000 138.000000 
0.000000 69.000000 139.000000 
0.000000 69.000000 140.000000 
0.000000 69.000000 141.000000 
0.000000 69.000000 142.000000 
0.000000 69.000000 143.000000 
0.000000 69.000000 144.000000 
0.000000 69.000000 145.000000 
0.000000 69.000000 146.000000 
0.000000 69.000000 147.000000 
0.000000 69.000000 148.000000 
0.000000 69.000000 149.000000 
0.000000 69.000000 150.000000 
0.000000 69.000000 151.000000 
0.000000 69.000000 152.000000 
0.000000 69.000000 153.000000 
0.000000 69.000000 154.000000 
0.000000 69.000000 155.000000 
0.000000 69.000000 156.000000 
0.000000 69.000000 157.000000 
0.000000 69.000000 158.000000 
0.000000 69.000000 159.000000 
0.000000 69.000000 160.000000 
0.000000 69.000000 161.000000 
0.000000 69.000000 162.000000 
0.000000 69.000000 163.000000 
0.000000 69.000000 164.000000 
0.000000 69.000000 165.000000 
0.000000 69.000000 166.000000 
0.000000 69.000000 167.000000 
0.000000 69.000000 168.000000 
0.000000 69.000000 169.000000 
0.000000 69.000000 170.000000 
0.000000 69.000000 171.000000 
0.000000 69.000000 172.000000 
0.000000 69.000000 173.000000 
0.000000 69.000000 174.000000 
0.000000 69.000000 175.000000 
0.000000 69.000000 176.000000 
0.000000 69.000000 177.000000 
0.000000 69.000000 178.000000 
0.000000 69.000000 179.000000 
0.000000 69.000000 180.000000 
0.000000 69.000000 181.000000 
0.000000 69.000000 182.000000 
0.000000 69.000000 183.000000 
0.000000 69.000000 184.000000 
0.000000 69.000000 185.000000 
0.000000 69.000000 186.000000 
0.000000 69.000000 187.000000 
0.000000 69.000000 188.000000 
0.000000 69.000000 189.000000 
0.000000 69.000000 190.000000 
0.000000 69.000000 191.000000 
0.000000 69.000000 192.000000 
0.000000 69.000000 193.000000 
0.000000 69.000000 194.000000 
0.000000 69.000000 195.000000 
0.000000 69.000000 196.000000 
0.000000 69.000000 197.000000 
0.000000 69.000000 198.000000 
0.000000 69.000000 199.000000 
0.000000 69.000000 200.000000 
0.000000 70.000000 0.000000 
0.000000 70.000000 1.000000 
0.000000 70.000000 2.000000 
0.000000 70.000000 3.000000 
0.000000 70.000000 4.000000 
0.000000 70.000000 5.000000 
0.000000 70.000000 6.000000 
0.000000 70.000000 7.000000 
0.000000 70.000000 8.000000 
0.000000 70.000000 9.000000 
0.000000 70.000000 10.000000 
0.000000 70.000000 11.000000 
0.000000 70.000000 12.000000 
0.000000 70.000000 13.000000 
0.000000 70.000000 14.000000 
0.000000 70.000000 15.000000 
0.000000 70.000000 16.000000 
0.000000 70.000000 17.000000 
0.000000 70.000000 18.000000 
0.000000 70.000000 19.000000 
0.000000 70.000000 20.000000 
0.000000 70.000000 21.000000 
0.000000 70.000000 22.000000 
0.000000 70.000000 23.000000 
0.000000 70.000000 24.000000 
0.000000 70.000000 25.000000 
0.000000 70.000000 26.000000 
0.000000 70.000000 27.000000 
0.000000 70.000000 28.000000 
0.000000 70.000000 29.000000 
0.000000 70.000000 30.000000 
0.000000 70.000000 31.000000 
0.000000 70.000000 32.000000 
0.000000 70.000000 33.000000 
0.000000 70.000000 34.000000 
0.000000 70.000000 35.000000 
0.000000 70.000000 36.000000 
0.000000 70.000000 37.000000 
0.000000 70.000000 38.000000 
0.000000 70.000000 39.000000 
0.000000 70.000000 40.000000 
0.000000 70.000000 41.000000 
0.000000 70.000000 42.000000 
0.000000 70.000000 43.000000 
0.000000 70.000000 44.000000 
0.000000 70.000000 45.000000 
0.000000 70.000000 46.000000 
0.000000 70.000000 47.000000 
0.000000 70.000000 48.000000 
0.000000 70.000000 49.000000 
0.000000 70.000000 50.000000 
0.000000 70.000000 51.000000 
0.000000 70.000000 52.000000 
0.000000 70.000000 53.000000 
0.000000 70.000000 54.000000 
0.000000 70.000000 55.000000 
0.000000 70.000000 56.000000 
0.000000 70.000000 57.000000 
0.000000 70.000000 58.000000 
0.000000 70.000000 59.000000 
0.000000 70.000000 60.000000 
0.000000 70.000000 61.000000 
0.000000 70.000000 62.000000 
0.000000 70.000000 63.000000 
0.000000 70.000000 64.000000 
0.000000 70.000000 65.000000 
0.000000 70.000000 66.000000 
0.000000 70.000000 67.000000 
0.000000 70.000000 68.000000 
0.000000 70.000000 69.000000 
0.000000 70.000000 70.000000 
0.000000 70.000000 71.000000 
0.000000 70.000000 72.000000 
0.000000 70.000000 73.000000 
0.000000 70.000000 74.000000 
0.000000 70.000000 75.000000 
0.000000 70.000000 76.000000 
0.000000 70.000000 77.000000 
0.000000 70.000000 78.000000 
0.000000 70.000000 79.000000 
0.000000 70.000000 80.000000 
0.000000 70.000000 81.000000 
0.000000 70.000000 82.000000 
0.000000 70.000000 83.000000 
0.000000 70.000000 84.000000 
0.000000 70.000000 85.000000 
0.000000 70.000000 86.000000 
0.000000 70.000000 87.000000 
0.000000 70.000000 88.000000 
0.000000 70.000000 89.000000 
0.000000 70.000000 90.000000 
0.000000 70.000000 91.000000 
0.000000 70.000000 92.000000 
0.000000 70.000000 93.000000 
0.000000 70.000000 94.000000 
0.000000 70.000000 95.000000 
0.000000 70.000000 96.000000 
0.000000 70.000000 97.000000 
0.000000 70.000000 98.000000 
0.000000 70.000000 99.000000 
0.000000 70.000000 100.000000 
0.000000 70.000000 101.000000 
0.000000 70.000000 102.000000 
0.000000 70.000000 103.000000 
0.000000 70.000000 104.000000 
0.000000 70.000000 105.000000 
0.000000 70.000000 106.000000 
0.000000 70.000000 107.000000 
0.000000 70.000000 108.000000 
0.000000 70.000000 109.000000 
0.000000 70.000000 110.000000 
0.000000 70.000000 111.000000 
0.000000 70.000000 112.000000 
0.000000 70.000000 113.000000 
0.000000 70.000000 114.000000 
0.000000 70.000000 115.000000 
0.000000 70.000000 116.000000 
0.000000 70.000000 117.000000 
0.000000 70.000000 118.000000 
0.000000 70.000000 119.000000 
0.000000 70.000000 120.000000 
0.000000 70.000000 121.000000 
0.000000 70.000000 122.000000 
0.000000 70.000000 123.000000 
0.000000 70.000000 124.000000 
0.000000 70.000000 125.000000 
0.000000 70.000000 126.000000 
0.000000 70.000000 127.000000 
0.000000 70.000000 128.000000 
0.000000 70.000000 129.000000 
0.000000 70.000000 130.000000 
0.000000 70.000000 131.000000 
0.000000 70.000000 132.000000 
0.000000 70.000000 133.000000 
0.000000 70.000000 134.000000 
0.000000 70.000000 135.000000 
0.000000 70.000000 136.000000 
0.000000 70.000000 137.000000 
0.000000 70.000000 138.000000 
0.000000 70.000000 139.000000 
0.000000 70.000000 140.000000 
0.000000 70.000000 141.000000 
0.000000 70.000000 142.000000 
0.000000 70.000000 143.000000 
0.000000 70.000000 144.000000 
0.000000 70.000000 145.000000 
0.000000 70.000000 146.000000 
0.000000 70.000000 147.000000 
0.000000 70.000000 148.000000 
0.000000 70.000000 149.000000 
0.000000 70.000000 150.000000 
0.000000 70.000000 151.000000 
0.000000 70.000000 152.000000 
0.000000 70.000000 153.000000 
0.000000 70.000000 154.000000 
0.000000 70.000000 155.000000 
0.000000 70.000000 156.000000 
0.000000 70.000000 157.000000 
0.000000 70.000000 158.000000 
0.000000 70.000000 159.000000 
0.000000 70.000000 160.000000 
0.000000 70.000000 161.000000 
0.000000 70.000000 162.000000 
0.000000 70.000000 163.000000 
0.000000 70.000000 164.000000 
0.000000 70.000000 165.000000 
0.000000 70.000000 166.000000 
0.000000 70.000000 167.000000 
0.000000 70.000000 168.000000 
0.000000 70.000000 169.000000 
0.000000 70.000000 170.000000 
0.000000 70.000000 171.000000 
0.000000 70.000000 172.000000 
0.000000 70.000000 173.000000 
0.000000 70.000000 174.000000 
0.000000 70.000000 175.000000 
0.000000 70.000000 176.000000 
0.000000 70.000000 177.000000 
0.000000 70.000000 178.000000 
0.000000 70.000000 179.000000 
0.000000 70.000000 180.000000 
0.000000 70.000000 181.000000 
0.000000 70.000000 182.000000 
0.000000 70.000000 183.000000 
0.000000 70.000000 184.000000 
0.000000 70.000000 185.000000 
0.000000 70.000000 186.000000 
0.000000 70.000000 187.000000 
0.000000 70.000000 188.000000 
0.000000 70.000000 189.000000 
0.000000 70.000000 190.000000 
0.000000 70.000000 191.000000 
0.000000 70.000000 192.000000 
0.000000 70.000000 193.000000 
0.000000 70.000000 194.000000 
0.000000 70.000000 195.000000 
0.000000 70.000000 196.000000 
0.000000 70.000000 197.000000 
0.000000 70.000000 198.000000 
0.000000 70.000000 199.000000 
0.000000 70.000000 200.000000 
0.000000 71.000000 0.000000 
0.000000 71.000000 1.000000 
0.000000 71.000000 2.000000 
0.000000 71.000000 3.000000 
0.000000 71.000000 4.000000 
0.000000 71.000000 5.000000 
0.000000 71.000000 6.000000 
0.000000 71.000000 7.000000 
0.000000 71.000000 8.000000 
0.000000 71.000000 9.000000 
0.000000 71.000000 10.000000 
0.000000 71.000000 11.000000 
0.000000 71.000000 12.000000 
0.000000 71.000000 13.000000 
0.000000 71.000000 14.000000 
0.000000 71.000000 15.000000 
0.000000 71.000000 16.000000 
0.000000 71.000000 17.000000 
0.000000 71.000000 18.000000 
0.000000 71.000000 19.000000 
0.000000 71.000000 20.000000 
0.000000 71.000000 21.000000 
0.000000 71.000000 22.000000 
0.000000 71.000000 23.000000 
0.000000 71.000000 24.000000 
0.000000 71.000000 25.000000 
0.000000 71.000000 26.000000 
0.000000 71.000000 27.000000 
0.000000 71.000000 28.000000 
0.000000 71.000000 29.000000 
0.000000 71.000000 30.000000 
0.000000 71.000000 31.000000 
0.000000 71.000000 32.000000 
0.000000 71.000000 33.000000 
0.000000 71.000000 34.000000 
0.000000 71.000000 35.000000 
0.000000 71.000000 36.000000 
0.000000 71.000000 37.000000 
0.000000 71.000000 38.000000 
0.000000 71.000000 39.000000 
0.000000 71.000000 40.000000 
0.000000 71.000000 41.000000 
0.000000 71.000000 42.000000 
0.000000 71.000000 43.000000 
0.000000 71.000000 44.000000 
0.000000 71.000000 45.000000 
0.000000 71.000000 46.000000 
0.000000 71.000000 47.000000 
0.000000 71.000000 48.000000 
0.000000 71.000000 49.000000 
0.000000 71.000000 50.000000 
0.000000 71.000000 51.000000 
0.000000 71.000000 52.000000 
0.000000 71.000000 53.000000 
0.000000 71.000000 54.000000 
0.000000 71.000000 55.000000 
0.000000 71.000000 56.000000 
0.000000 71.000000 57.000000 
0.000000 71.000000 58.000000 
0.000000 71.000000 59.000000 
0.000000 71.000000 60.000000 
0.000000 71.000000 61.000000 
0.000000 71.000000 62.000000 
0.000000 71.000000 63.000000 
0.000000 71.000000 64.000000 
0.000000 71.000000 65.000000 
0.000000 71.000000 66.000000 
0.000000 71.000000 67.000000 
0.000000 71.000000 68.000000 
0.000000 71.000000 69.000000 
0.000000 71.000000 70.000000 
0.000000 71.000000 71.000000 
0.000000 71.000000 72.000000 
0.000000 71.000000 73.000000 
0.000000 71.000000 74.000000 
0.000000 71.000000 75.000000 
0.000000 71.000000 76.000000 
0.000000 71.000000 77.000000 
0.000000 71.000000 78.000000 
0.000000 71.000000 79.000000 
0.000000 71.000000 80.000000 
0.000000 71.000000 81.000000 
0.000000 71.000000 82.000000 
0.000000 71.000000 83.000000 
0.000000 71.000000 84.000000 
0.000000 71.000000 85.000000 
0.000000 71.000000 86.000000 
0.000000 71.000000 87.000000 
0.000000 71.000000 88.000000 
0.000000 71.000000 89.000000 
0.000000 71.000000 90.000000 
0.000000 71.000000 91.000000 
0.000000 71.000000 92.000000 
0.000000 71.000000 93.000000 
0.000000 71.000000 94.000000 
0.000000 71.000000 95.000000 
0.000000 71.000000 96.000000 
0.000000 71.000000 97.000000 
0.000000 71.000000 98.000000 
0.000000 71.000000 99.000000 
0.000000 71.000000 100.000000 
0.000000 71.000000 101.000000 
0.000000 71.000000 102.000000 
0.000000 71.000000 103.000000 
0.000000 71.000000 104.000000 
0.000000 71.000000 105.000000 
0.000000 71.000000 106.000000 
0.000000 71.000000 107.000000 
0.000000 71.000000 108.000000 
0.000000 71.000000 109.000000 
0.000000 71.000000 110.000000 
0.000000 71.000000 111.000000 
0.000000 71.000000 112.000000 
0.000000 71.000000 113.000000 
0.000000 71.000000 114.000000 
0.000000 71.000000 115.000000 
0.000000 71.000000 116.000000 
0.000000 71.000000 117.000000 
0.000000 71.000000 118.000000 
0.000000 71.000000 119.000000 
0.000000 71.000000 120.000000 
0.000000 71.000000 121.000000 
0.000000 71.000000 122.000000 
0.000000 71.000000 123.000000 
0.000000 71.000000 124.000000 
0.000000 71.000000 125.000000 
0.000000 71.000000 126.000000 
0.000000 71.000000 127.000000 
0.000000 71.000000 128.000000 
0.000000 71.000000 129.000000 
0.000000 71.000000 130.000000 
0.000000 71.000000 131.000000 
0.000000 71.000000 132.000000 
0.000000 71.000000 133.000000 
0.000000 71.000000 134.000000 
0.000000 71.000000 135.000000 
0.000000 71.000000 136.000000 
0.000000 71.000000 137.000000 
0.000000 71.000000 138.000000 
0.000000 71.000000 139.000000 
0.000000 71.000000 140.000000 
0.000000 71.000000 141.000000 
0.000000 71.000000 142.000000 
0.000000 71.000000 143.000000 
0.000000 71.000000 144.000000 
0.000000 71.000000 145.000000 
0.000000 71.000000 146.000000 
0.000000 71.000000 147.000000 
0.000000 71.000000 148.000000 
0.000000 71.000000 149.000000 
0.000000 71.000000 150.000000 
0.000000 71.000000 151.000000 
0.000000 71.000000 152.000000 
0.000000 71.000000 153.000000 
0.000000 71.000000 154.000000 
0.000000 71.000000 155.000000 
0.000000 71.000000 156.000000 
0.000000 71.000000 157.000000 
0.000000 71.000000 158.000000 
0.000000 71.000000 159.000000 
0.000000 71.000000 160.000000 
0.000000 71.000000 161.000000 
0.000000 71.000000 162.000000 
0.000000 71.000000 163.000000 
0.000000 71.000000 164.000000 
0.000000 71.000000 165.000000 
0.000000 71.000000 166.000000 
0.000000 71.000000 167.000000 
0.000000 71.000000 168.000000 
0.000000 71.000000 169.000000 
0.000000 71.000000 170.000000 
0.000000 71.000000 171.000000 
0.000000 71.000000 172.000000 
0.000000 71.000000 173.000000 
0.000000 71.000000 174.000000 
0.000000 71.000000 175.000000 
0.000000 71.000000 176.000000 
0.000000 71.000000 177.000000 
0.000000 71.000000 178.000000 
0.000000 71.000000 179.000000 
0.000000 71.000000 180.000000 
0.000000 71.000000 181.000000 
0.000000 71.000000 182.000000 
0.000000 71.000000 183.000000 
0.000000 71.000000 184.000000 
0.000000 71.000000 185.000000 
0.000000 71.000000 186.000000 
0.000000 71.000000 187.000000 
0.000000 71.000000 188.000000 
0.000000 71.000000 189.000000 
0.000000 71.000000 190.000000 
0.000000 71.000000 191.000000 
0.000000 71.000000 192.000000 
0.000000 71.000000 193.000000 
0.000000 71.000000 194.000000 
0.000000 71.000000 195.000000 
0.000000 71.000000 196.000000 
0.000000 71.000000 197.000000 
0.000000 71.000000 198.000000 
0.000000 71.000000 199.000000 
0.000000 71.000000 200.000000 
0.000000 72.000000 0.000000 
0.000000 72.000000 1.000000 
0.000000 72.000000 2.000000 
0.000000 72.000000 3.000000 
0.000000 72.000000 4.000000 
0.000000 72.000000 5.000000 
0.000000 72.000000 6.000000 
0.000000 72.000000 7.000000 
0.000000 72.000000 8.000000 
0.000000 72.000000 9.000000 
0.000000 72.000000 10.000000 
0.000000 72.000000 11.000000 
0.000000 72.000000 12.000000 
0.000000 72.000000 13.000000 
0.000000 72.000000 14.000000 
0.000000 72.000000 15.000000 
0.000000 72.000000 16.000000 
0.000000 72.000000 17.000000 
0.000000 72.000000 18.000000 
0.000000 72.000000 19.000000 
0.000000 72.000000 20.000000 
0.000000 72.000000 21.000000 
0.000000 72.000000 22.000000 
0.000000 72.000000 23.000000 
0.000000 72.000000 24.000000 
0.000000 72.000000 25.000000 
0.000000 72.000000 26.000000 
0.000000 72.000000 27.000000 
0.000000 72.000000 28.000000 
0.000000 72.000000 29.000000 
0.000000 72.000000 30.000000 
0.000000 72.000000 31.000000 
0.000000 72.000000 32.000000 
0.000000 72.000000 33.000000 
0.000000 72.000000 34.000000 
0.000000 72.000000 35.000000 
0.000000 72.000000 36.000000 
0.000000 72.000000 37.000000 
0.000000 72.000000 38.000000 
0.000000 72.000000 39.000000 
0.000000 72.000000 40.000000 
0.000000 72.000000 41.000000 
0.000000 72.000000 42.000000 
0.000000 72.000000 43.000000 
0.000000 72.000000 44.000000 
0.000000 72.000000 45.000000 
0.000000 72.000000 46.000000 
0.000000 72.000000 47.000000 
0.000000 72.000000 48.000000 
0.000000 72.000000 49.000000 
0.000000 72.000000 50.000000 
0.000000 72.000000 51.000000 
0.000000 72.000000 52.000000 
0.000000 72.000000 53.000000 
0.000000 72.000000 54.000000 
0.000000 72.000000 55.000000 
0.000000 72.000000 56.000000 
0.000000 72.000000 57.000000 
0.000000 72.000000 58.000000 
0.000000 72.000000 59.000000 
0.000000 72.000000 60.000000 
0.000000 72.000000 61.000000 
0.000000 72.000000 62.000000 
0.000000 72.000000 63.000000 
0.000000 72.000000 64.000000 
0.000000 72.000000 65.000000 
0.000000 72.000000 66.000000 
0.000000 72.000000 67.000000 
0.000000 72.000000 68.000000 
0.000000 72.000000 69.000000 
0.000000 72.000000 70.000000 
0.000000 72.000000 71.000000 
0.000000 72.000000 72.000000 
0.000000 72.000000 73.000000 
0.000000 72.000000 74.000000 
0.000000 72.000000 75.000000 
0.000000 72.000000 76.000000 
0.000000 72.000000 77.000000 
0.000000 72.000000 78.000000 
0.000000 72.000000 79.000000 
0.000000 72.000000 80.000000 
0.000000 72.000000 81.000000 
0.000000 72.000000 82.000000 
0.000000 72.000000 83.000000 
0.000000 72.000000 84.000000 
0.000000 72.000000 85.000000 
0.000000 72.000000 86.000000 
0.000000 72.000000 87.000000 
0.000000 72.000000 88.000000 
0.000000 72.000000 89.000000 
0.000000 72.000000 90.000000 
0.000000 72.000000 91.000000 
0.000000 72.000000 92.000000 
0.000000 72.000000 93.000000 
0.000000 72.000000 94.000000 
0.000000 72.000000 95.000000 
0.000000 72.000000 96.000000 
0.000000 72.000000 97.000000 
0.000000 72.000000 98.000000 
0.000000 72.000000 99.000000 
0.000000 72.000000 100.000000 
0.000000 72.000000 101.000000 
0.000000 72.000000 102.000000 
0.000000 72.000000 103.000000 
0.000000 72.000000 104.000000 
0.000000 72.000000 105.000000 
0.000000 72.000000 106.000000 
0.000000 72.000000 107.000000 
0.000000 72.000000 108.000000 
0.000000 72.000000 109.000000 
0.000000 72.000000 110.000000 
0.000000 72.000000 111.000000 
0.000000 72.000000 112.000000 
0.000000 72.000000 113.000000 
0.000000 72.000000 114.000000 
0.000000 72.000000 115.000000 
0.000000 72.000000 116.000000 
0.000000 72.000000 117.000000 
0.000000 72.000000 118.000000 
0.000000 72.000000 119.000000 
0.000000 72.000000 120.000000 
0.000000 72.000000 121.000000 
0.000000 72.000000 122.000000 
0.000000 72.000000 123.000000 
0.000000 72.000000 124.000000 
0.000000 72.000000 125.000000 
0.000000 72.000000 126.000000 
0.000000 72.000000 127.000000 
0.000000 72.000000 128.000000 
0.000000 72.000000 129.000000 
0.000000 72.000000 130.000000 
0.000000 72.000000 131.000000 
0.000000 72.000000 132.000000 
0.000000 72.000000 133.000000 
0.000000 72.000000 134.000000 
0.000000 72.000000 135.000000 
0.000000 72.000000 136.000000 
0.000000 72.000000 137.000000 
0.000000 72.000000 138.000000 
0.000000 72.000000 139.000000 
0.000000 72.000000 140.000000 
0.000000 72.000000 141.000000 
0.000000 72.000000 142.000000 
0.000000 72.000000 143.000000 
0.000000 72.000000 144.000000 
0.000000 72.000000 145.000000 
0.000000 72.000000 146.000000 
0.000000 72.000000 147.000000 
0.000000 72.000000 148.000000 
0.000000 72.000000 149.000000 
0.000000 72.000000 150.000000 
0.000000 72.000000 151.000000 
0.000000 72.000000 152.000000 
0.000000 72.000000 153.000000 
0.000000 72.000000 154.000000 
0.000000 72.000000 155.000000 
0.000000 72.000000 156.000000 
0.000000 72.000000 157.000000 
0.000000 72.000000 158.000000 
0.000000 72.000000 159.000000 
0.000000 72.000000 160.000000 
0.000000 72.000000 161.000000 
0.000000 72.000000 162.000000 
0.000000 72.000000 163.000000 
0.000000 72.000000 164.000000 
0.000000 72.000000 165.000000 
0.000000 72.000000 166.000000 
0.000000 72.000000 167.000000 
0.000000 72.000000 168.000000 
0.000000 72.000000 169.000000 
0.000000 72.000000 170.000000 
0.000000 72.000000 171.000000 
0.000000 72.000000 172.000000 
0.000000 72.000000 173.000000 
0.000000 72.000000 174.000000 
0.000000 72.000000 175.000000 
0.000000 72.000000 176.000000 
0.000000 72.000000 177.000000 
0.000000 72.000000 178.000000 
0.000000 72.000000 179.000000 
0.000000 72.000000 180.000000 
0.000000 72.000000 181.000000 
0.000000 72.000000 182.000000 
0.000000 72.000000 183.000000 
0.000000 72.000000 184.000000 
0.000000 72.000000 185.000000 
0.000000 72.000000 186.000000 
0.000000 72.000000 187.000000 
0.000000 72.000000 188.000000 
0.000000 72.000000 189.000000 
0.000000 72.000000 190.000000 
0.000000 72.000000 191.000000 
0.000000 72.000000 192.000000 
0.000000 72.000000 193.000000 
0.000000 72.000000 194.000000 
0.000000 72.000000 195.000000 
0.000000 72.000000 196.000000 
0.000000 72.000000 197.000000 
0.000000 72.000000 198.000000 
0.000000 72.000000 199.000000 
0.000000 72.000000 200.000000 
0.000000 73.000000 0.000000 
0.000000 73.000000 1.000000 
0.000000 73.000000 2.000000 
0.000000 73.000000 3.000000 
0.000000 73.000000 4.000000 
0.000000 73.000000 5.000000 
0.000000 73.000000 6.000000 
0.000000 73.000000 7.000000 
0.000000 73.000000 8.000000 
0.000000 73.000000 9.000000 
0.000000 73.000000 10.000000 
0.000000 73.000000 11.000000 
0.000000 73.000000 12.000000 
0.000000 73.000000 13.000000 
0.000000 73.000000 14.000000 
0.000000 73.000000 15.000000 
0.000000 73.000000 16.000000 
0.000000 73.000000 17.000000 
0.000000 73.000000 18.000000 
0.000000 73.000000 19.000000 
0.000000 73.000000 20.000000 
0.000000 73.000000 21.000000 
0.000000 73.000000 22.000000 
0.000000 73.000000 23.000000 
0.000000 73.000000 24.000000 
0.000000 73.000000 25.000000 
0.000000 73.000000 26.000000 
0.000000 73.000000 27.000000 
0.000000 73.000000 28.000000 
0.000000 73.000000 29.000000 
0.000000 73.000000 30.000000 
0.000000 73.000000 31.000000 
0.000000 73.000000 32.000000 
0.000000 73.000000 33.000000 
0.000000 73.000000 34.000000 
0.000000 73.000000 35.000000 
0.000000 73.000000 36.000000 
0.000000 73.000000 37.000000 
0.000000 73.000000 38.000000 
0.000000 73.000000 39.000000 
0.000000 73.000000 40.000000 
0.000000 73.000000 41.000000 
0.000000 73.000000 42.000000 
0.000000 73.000000 43.000000 
0.000000 73.000000 44.000000 
0.000000 73.000000 45.000000 
0.000000 73.000000 46.000000 
0.000000 73.000000 47.000000 
0.000000 73.000000 48.000000 
0.000000 73.000000 49.000000 
0.000000 73.000000 50.000000 
0.000000 73.000000 51.000000 
0.000000 73.000000 52.000000 
0.000000 73.000000 53.000000 
0.000000 73.000000 54.000000 
0.000000 73.000000 55.000000 
0.000000 73.000000 56.000000 
0.000000 73.000000 57.000000 
0.000000 73.000000 58.000000 
0.000000 73.000000 59.000000 
0.000000 73.000000 60.000000 
0.000000 73.000000 61.000000 
0.000000 73.000000 62.000000 
0.000000 73.000000 63.000000 
0.000000 73.000000 64.000000 
0.000000 73.000000 65.000000 
0.000000 73.000000 66.000000 
0.000000 73.000000 67.000000 
0.000000 73.000000 68.000000 
0.000000 73.000000 69.000000 
0.000000 73.000000 70.000000 
0.000000 73.000000 71.000000 
0.000000 73.000000 72.000000 
0.000000 73.000000 73.000000 
0.000000 73.000000 74.000000 
0.000000 73.000000 75.000000 
0.000000 73.000000 76.000000 
0.000000 73.000000 77.000000 
0.000000 73.000000 78.000000 
0.000000 73.000000 79.000000 
0.000000 73.000000 80.000000 
0.000000 73.000000 81.000000 
0.000000 73.000000 82.000000 
0.000000 73.000000 83.000000 
0.000000 73.000000 84.000000 
0.000000 73.000000 85.000000 
0.000000 73.000000 86.000000 
0.000000 73.000000 87.000000 
0.000000 73.000000 88.000000 
0.000000 73.000000 89.000000 
0.000000 73.000000 90.000000 
0.000000 73.000000 91.000000 
0.000000 73.000000 92.000000 
0.000000 73.000000 93.000000 
0.000000 73.000000 94.000000 
0.000000 73.000000 95.000000 
0.000000 73.000000 96.000000 
0.000000 73.000000 97.000000 
0.000000 73.000000 98.000000 
0.000000 73.000000 99.000000 
0.000000 73.000000 100.000000 
0.000000 73.000000 101.000000 
0.000000 73.000000 102.000000 
0.000000 73.000000 103.000000 
0.000000 73.000000 104.000000 
0.000000 73.000000 105.000000 
0.000000 73.000000 106.000000 
0.000000 73.000000 107.000000 
0.000000 73.000000 108.000000 
0.000000 73.000000 109.000000 
0.000000 73.000000 110.000000 
0.000000 73.000000 111.000000 
0.000000 73.000000 112.000000 
0.000000 73.000000 113.000000 
0.000000 73.000000 114.000000 
0.000000 73.000000 115.000000 
0.000000 73.000000 116.000000 
0.000000 73.000000 117.000000 
0.000000 73.000000 118.000000 
0.000000 73.000000 119.000000 
0.000000 73.000000 120.000000 
0.000000 73.000000 121.000000 
0.000000 73.000000 122.000000 
0.000000 73.000000 123.000000 
0.000000 73.000000 124.000000 
0.000000 73.000000 125.000000 
0.000000 73.000000 126.000000 
0.000000 73.000000 127.000000 
0.000000 73.000000 128.000000 
0.000000 73.000000 129.000000 
0.000000 73.000000 130.000000 
0.000000 73.000000 131.000000 
0.000000 73.000000 132.000000 
0.000000 73.000000 133.000000 
0.000000 73.000000 134.000000 
0.000000 73.000000 135.000000 
0.000000 73.000000 136.000000 
0.000000 73.000000 137.000000 
0.000000 73.000000 138.000000 
0.000000 73.000000 139.000000 
0.000000 73.000000 140.000000 
0.000000 73.000000 141.000000 
0.000000 73.000000 142.000000 
0.000000 73.000000 143.000000 
0.000000 73.000000 144.000000 
0.000000 73.000000 145.000000 
0.000000 73.000000 146.000000 
0.000000 73.000000 147.000000 
0.000000 73.000000 148.000000 
0.000000 73.000000 149.000000 
0.000000 73.000000 150.000000 
0.000000 73.000000 151.000000 
0.000000 73.000000 152.000000 
0.000000 73.000000 153.000000 
0.000000 73.000000 154.000000 
0.000000 73.000000 155.000000 
0.000000 73.000000 156.000000 
0.000000 73.000000 157.000000 
0.000000 73.000000 158.000000 
0.000000 73.000000 159.000000 
0.000000 73.000000 160.000000 
0.000000 73.000000 161.000000 
0.000000 73.000000 162.000000 
0.000000 73.000000 163.000000 
0.000000 73.000000 164.000000 
0.000000 73.000000 165.000000 
0.000000 73.000000 166.000000 
0.000000 73.000000 167.000000 
0.000000 73.000000 168.000000 
0.000000 73.000000 169.000000 
0.000000 73.000000 170.000000 
0.000000 73.000000 171.000000 
0.000000 73.000000 172.000000 
0.000000 73.000000 173.000000 
0.000000 73.000000 174.000000 
0.000000 73.000000 175.000000 
0.000000 73.000000 176.000000 
0.000000 73.000000 177.000000 
0.000000 73.000000 178.000000 
0.000000 73.000000 179.000000 
0.000000 73.000000 180.000000 
0.000000 73.000000 181.000000 
0.000000 73.000000 182.000000 
0.000000 73.000000 183.000000 
0.000000 73.000000 184.000000 
0.000000 73.000000 185.000000 
0.000000 73.000000 186.000000 
0.000000 73.000000 187.000000 
0.000000 73.000000 188.000000 
0.000000 73.000000 189.000000 
0.000000 73.000000 190.000000 
0.000000 73.000000 191.000000 
0.000000 73.000000 192.000000 
0.000000 73.000000 193.000000 
0.000000 73.000000 194.000000 
0.000000 73.000000 195.000000 
0.000000 73.000000 196.000000 
0.000000 73.000000 197.000000 
0.000000 73.000000 198.000000 
0.000000 73.000000 199.000000 
0.000000 73.000000 200.000000 
0.000000 74.000000 0.000000 
0.000000 74.000000 1.000000 
0.000000 74.000000 2.000000 
0.000000 74.000000 3.000000 
0.000000 74.000000 4.000000 
0.000000 74.000000 5.000000 
0.000000 74.000000 6.000000 
0.000000 74.000000 7.000000 
0.000000 74.000000 8.000000 
0.000000 74.000000 9.000000 
0.000000 74.000000 10.000000 
0.000000 74.000000 11.000000 
0.000000 74.000000 12.000000 
0.000000 74.000000 13.000000 
0.000000 74.000000 14.000000 
0.000000 74.000000 15.000000 
0.000000 74.000000 16.000000 
0.000000 74.000000 17.000000 
0.000000 74.000000 18.000000 
0.000000 74.000000 19.000000 
0.000000 74.000000 20.000000 
0.000000 74.000000 21.000000 
0.000000 74.000000 22.000000 
0.000000 74.000000 23.000000 
0.000000 74.000000 24.000000 
0.000000 74.000000 25.000000 
0.000000 74.000000 26.000000 
0.000000 74.000000 27.000000 
0.000000 74.000000 28.000000 
0.000000 74.000000 29.000000 
0.000000 74.000000 30.000000 
0.000000 74.000000 31.000000 
0.000000 74.000000 32.000000 
0.000000 74.000000 33.000000 
0.000000 74.000000 34.000000 
0.000000 74.000000 35.000000 
0.000000 74.000000 36.000000 
0.000000 74.000000 37.000000 
0.000000 74.000000 38.000000 
0.000000 74.000000 39.000000 
0.000000 74.000000 40.000000 
0.000000 74.000000 41.000000 
0.000000 74.000000 42.000000 
0.000000 74.000000 43.000000 
0.000000 74.000000 44.000000 
0.000000 74.000000 45.000000 
0.000000 74.000000 46.000000 
0.000000 74.000000 47.000000 
0.000000 74.000000 48.000000 
0.000000 74.000000 49.000000 
0.000000 74.000000 50.000000 
0.000000 74.000000 51.000000 
0.000000 74.000000 52.000000 
0.000000 74.000000 53.000000 
0.000000 74.000000 54.000000 
0.000000 74.000000 55.000000 
0.000000 74.000000 56.000000 
0.000000 74.000000 57.000000 
0.000000 74.000000 58.000000 
0.000000 74.000000 59.000000 
0.000000 74.000000 60.000000 
0.000000 74.000000 61.000000 
0.000000 74.000000 62.000000 
0.000000 74.000000 63.000000 
0.000000 74.000000 64.000000 
0.000000 74.000000 65.000000 
0.000000 74.000000 66.000000 
0.000000 74.000000 67.000000 
0.000000 74.000000 68.000000 
0.000000 74.000000 69.000000 
0.000000 74.000000 70.000000 
0.000000 74.000000 71.000000 
0.000000 74.000000 72.000000 
0.000000 74.000000 73.000000 
0.000000 74.000000 74.000000 
0.000000 74.000000 75.000000 
0.000000 74.000000 76.000000 
0.000000 74.000000 77.000000 
0.000000 74.000000 78.000000 
0.000000 74.000000 79.000000 
0.000000 74.000000 80.000000 
0.000000 74.000000 81.000000 
0.000000 74.000000 82.000000 
0.000000 74.000000 83.000000 
0.000000 74.000000 84.000000 
0.000000 74.000000 85.000000 
0.000000 74.000000 86.000000 
0.000000 74.000000 87.000000 
0.000000 74.000000 88.000000 
0.000000 74.000000 89.000000 
0.000000 74.000000 90.000000 
0.000000 74.000000 91.000000 
0.000000 74.000000 92.000000 
0.000000 74.000000 93.000000 
0.000000 74.000000 94.000000 
0.000000 74.000000 95.000000 
0.000000 74.000000 96.000000 
0.000000 74.000000 97.000000 
0.000000 74.000000 98.000000 
0.000000 74.000000 99.000000 
0.000000 74.000000 100.000000 
0.000000 74.000000 101.000000 
0.000000 74.000000 102.000000 
0.000000 74.000000 103.000000 
0.000000 74.000000 104.000000 
0.000000 74.000000 105.000000 
0.000000 74.000000 106.000000 
0.000000 74.000000 107.000000 
0.000000 74.000000 108.000000 
0.000000 74.000000 109.000000 
0.000000 74.000000 110.000000 
0.000000 74.000000 111.000000 
0.000000 74.000000 112.000000 
0.000000 74.000000 113.000000 
0.000000 74.000000 114.000000 
0.000000 74.000000 115.000000 
0.000000 74.000000 116.000000 
0.000000 74.000000 117.000000 
0.000000 74.000000 118.000000 
0.000000 74.000000 119.000000 
0.000000 74.000000 120.000000 
0.000000 74.000000 121.000000 
0.000000 74.000000 122.000000 
0.000000 74.000000 123.000000 
0.000000 74.000000 124.000000 
0.000000 74.000000 125.000000 
0.000000 74.000000 126.000000 
0.000000 74.000000 127.000000 
0.000000 74.000000 128.000000 
0.000000 74.000000 129.000000 
0.000000 74.000000 130.000000 
0.000000 74.000000 131.000000 
0.000000 74.000000 132.000000 
0.000000 74.000000 133.000000 
0.000000 74.000000 134.000000 
0.000000 74.000000 135.000000 
0.000000 74.000000 136.000000 
0.000000 74.000000 137.000000 
0.000000 74.000000 138.000000 
0.000000 74.000000 139.000000 
0.000000 74.000000 140.000000 
0.000000 74.000000 141.000000 
0.000000 74.000000 142.000000 
0.000000 74.000000 143.000000 
0.000000 74.000000 144.000000 
0.000000 74.000000 145.000000 
0.000000 74.000000 146.000000 
0.000000 74.000000 147.000000 
0.000000 74.000000 148.000000 
0.000000 74.000000 149.000000 
0.000000 74.000000 150.000000 
0.000000 74.000000 151.000000 
0.000000 74.000000 152.000000 
0.000000 74.000000 153.000000 
0.000000 74.000000 154.000000 
0.000000 74.000000 155.000000 
0.000000 74.000000 156.000000 
0.000000 74.000000 157.000000 
0.000000 74.000000 158.000000 
0.000000 74.000000 159.000000 
0.000000 74.000000 160.000000 
0.000000 74.000000 161.000000 
0.000000 74.000000 162.000000 
0.000000 74.000000 163.000000 
0.000000 74.000000 164.000000 
0.000000 74.000000 165.000000 
0.000000 74.000000 166.000000 
0.000000 74.000000 167.000000 
0.000000 74.000000 168.000000 
0.000000 74.000000 169.000000 
0.000000 74.000000 170.000000 
0.000000 74.000000 171.000000 
0.000000 74.000000 172.000000 
0.000000 74.000000 173.000000 
0.000000 74.000000 174.000000 
0.000000 74.000000 175.000000 
0.000000 74.000000 176.000000 
0.000000 74.000000 177.000000 
0.000000 74.000000 178.000000 
0.000000 74.000000 179.000000 
0.000000 74.000000 180.000000 
0.000000 74.000000 181.000000 
0.000000 74.000000 182.000000 
0.000000 74.000000 183.000000 
0.000000 74.000000 184.000000 
0.000000 74.000000 185.000000 
0.000000 74.000000 186.000000 
0.000000 74.000000 187.000000 
0.000000 74.000000 188.000000 
0.000000 74.000000 189.000000 
0.000000 74.000000 190.000000 
0.000000 74.000000 191.000000 
0.000000 74.000000 192.000000 
0.000000 74.000000 193.000000 
0.000000 74.000000 194.000000 
0.000000 74.000000 195.000000 
0.000000 74.000000 196.000000 
0.000000 74.000000 197.000000 
0.000000 74.000000 198.000000 
0.000000 74.000000 199.000000 
0.000000 74.000000 200.000000 
0.000000 75.000000 0.000000 
0.000000 75.000000 1.000000 
0.000000 75.000000 2.000000 
0.000000 75.000000 3.000000 
0.000000 75.000000 4.000000 
0.000000 75.000000 5.000000 
0.000000 75.000000 6.000000 
0.000000 75.000000 7.000000 
0.000000 75.000000 8.000000 
0.000000 75.000000 9.000000 
0.000000 75.000000 10.000000 
0.000000 75.000000 11.000000 
0.000000 75.000000 12.000000 
0.000000 75.000000 13.000000 
0.000000 75.000000 14.000000 
0.000000 75.000000 15.000000 
0.000000 75.000000 16.000000 
0.000000 75.000000 17.000000 
0.000000 75.000000 18.000000 
0.000000 75.000000 19.000000 
0.000000 75.000000 20.000000 
0.000000 75.000000 21.000000 
0.000000 75.000000 22.000000 
0.000000 75.000000 23.000000 
0.000000 75.000000 24.000000 
0.000000 75.000000 25.000000 
0.000000 75.000000 26.000000 
0.000000 75.000000 27.000000 
0.000000 75.000000 28.000000 
0.000000 75.000000 29.000000 
0.000000 75.000000 30.000000 
0.000000 75.000000 31.000000 
0.000000 75.000000 32.000000 
0.000000 75.000000 33.000000 
0.000000 75.000000 34.000000 
0.000000 75.000000 35.000000 
0.000000 75.000000 36.000000 
0.000000 75.000000 37.000000 
0.000000 75.000000 38.000000 
0.000000 75.000000 39.000000 
0.000000 75.000000 40.000000 
0.000000 75.000000 41.000000 
0.000000 75.000000 42.000000 
0.000000 75.000000 43.000000 
0.000000 75.000000 44.000000 
0.000000 75.000000 45.000000 
0.000000 75.000000 46.000000 
0.000000 75.000000 47.000000 
0.000000 75.000000 48.000000 
0.000000 75.000000 49.000000 
0.000000 75.000000 50.000000 
0.000000 75.000000 51.000000 
0.000000 75.000000 52.000000 
0.000000 75.000000 53.000000 
0.000000 75.000000 54.000000 
0.000000 75.000000 55.000000 
0.000000 75.000000 56.000000 
0.000000 75.000000 57.000000 
0.000000 75.000000 58.000000 
0.000000 75.000000 59.000000 
0.000000 75.000000 60.000000 
0.000000 75.000000 61.000000 
0.000000 75.000000 62.000000 
0.000000 75.000000 63.000000 
0.000000 75.000000 64.000000 
0.000000 75.000000 65.000000 
0.000000 75.000000 66.000000 
0.000000 75.000000 67.000000 
0.000000 75.000000 68.000000 
0.000000 75.000000 69.000000 
0.000000 75.000000 70.000000 
0.000000 75.000000 71.000000 
0.000000 75.000000 72.000000 
0.000000 75.000000 73.000000 
0.000000 75.000000 74.000000 
0.000000 75.000000 75.000000 
0.000000 75.000000 76.000000 
0.000000 75.000000 77.000000 
0.000000 75.000000 78.000000 
0.000000 75.000000 79.000000 
0.000000 75.000000 80.000000 
0.000000 75.000000 81.000000 
0.000000 75.000000 82.000000 
0.000000 75.000000 83.000000 
0.000000 75.000000 84.000000 
0.000000 75.000000 85.000000 
0.000000 75.000000 86.000000 
0.000000 75.000000 87.000000 
0.000000 75.000000 88.000000 
0.000000 75.000000 89.000000 
0.000000 75.000000 90.000000 
0.000000 75.000000 91.000000 
0.000000 75.000000 92.000000 
0.000000 75.000000 93.000000 
0.000000 75.000000 94.000000 
0.000000 75.000000 95.000000 
0.000000 75.000000 96.000000 
0.000000 75.000000 97.000000 
0.000000 75.000000 98.000000 
0.000000 75.000000 99.000000 
0.000000 75.000000 100.000000 
0.000000 75.000000 101.000000 
0.000000 75.000000 102.000000 
0.000000 75.000000 103.000000 
0.000000 75.000000 104.000000 
0.000000 75.000000 105.000000 
0.000000 75.000000 106.000000 
0.000000 75.000000 107.000000 
0.000000 75.000000 108.000000 
0.000000 75.000000 109.000000 
0.000000 75.000000 110.000000 
0.000000 75.000000 111.000000 
0.000000 75.000000 112.000000 
0.000000 75.000000 113.000000 
0.000000 75.000000 114.000000 
0.000000 75.000000 115.000000 
0.000000 75.000000 116.000000 
0.000000 75.000000 117.000000 
0.000000 75.000000 118.000000 
0.000000 75.000000 119.000000 
0.000000 75.000000 120.000000 
0.000000 75.000000 121.000000 
0.000000 75.000000 122.000000 
0.000000 75.000000 123.000000 
0.000000 75.000000 124.000000 
0.000000 75.000000 125.000000 
0.000000 75.000000 126.000000 
0.000000 75.000000 127.000000 
0.000000 75.000000 128.000000 
0.000000 75.000000 129.000000 
0.000000 75.000000 130.000000 
0.000000 75.000000 131.000000 
0.000000 75.000000 132.000000 
0.000000 75.000000 133.000000 
0.000000 75.000000 134.000000 
0.000000 75.000000 135.000000 
0.000000 75.000000 136.000000 
0.000000 75.000000 137.000000 
0.000000 75.000000 138.000000 
0.000000 75.000000 139.000000 
0.000000 75.000000 140.000000 
0.000000 75.000000 141.000000 
0.000000 75.000000 142.000000 
0.000000 75.000000 143.000000 
0.000000 75.000000 144.000000 
0.000000 75.000000 145.000000 
0.000000 75.000000 146.000000 
0.000000 75.000000 147.000000 
0.000000 75.000000 148.000000 
0.000000 75.000000 149.000000 
0.000000 75.000000 150.000000 
0.000000 75.000000 151.000000 
0.000000 75.000000 152.000000 
0.000000 75.000000 153.000000 
0.000000 75.000000 154.000000 
0.000000 75.000000 155.000000 
0.000000 75.000000 156.000000 
0.000000 75.000000 157.000000 
0.000000 75.000000 158.000000 
0.000000 75.000000 159.000000 
0.000000 75.000000 160.000000 
0.000000 75.000000 161.000000 
0.000000 75.000000 162.000000 
0.000000 75.000000 163.000000 
0.000000 75.000000 164.000000 
0.000000 75.000000 165.000000 
0.000000 75.000000 166.000000 
0.000000 75.000000 167.000000 
0.000000 75.000000 168.000000 
0.000000 75.000000 169.000000 
0.000000 75.000000 170.000000 
0.000000 75.000000 171.000000 
0.000000 75.000000 172.000000 
0.000000 75.000000 173.000000 
0.000000 75.000000 174.000000 
0.000000 75.000000 175.000000 
0.000000 75.000000 176.000000 
0.000000 75.000000 177.000000 
0.000000 75.000000 178.000000 
0.000000 75.000000 179.000000 
0.000000 75.000000 180.000000 
0.000000 75.000000 181.000000 
0.000000 75.000000 182.000000 
0.000000 75.000000 183.000000 
0.000000 75.000000 184.000000 
0.000000 75.000000 185.000000 
0.000000 75.000000 186.000000 
0.000000 75.000000 187.000000 
0.000000 75.000000 188.000000 
0.000000 75.000000 189.000000 
0.000000 75.000000 190.000000 
0.000000 75.000000 191.000000 
0.000000 75.000000 192.000000 
0.000000 75.000000 193.000000 
0.000000 75.000000 194.000000 
0.000000 75.000000 195.000000 
0.000000 75.000000 196.000000 
0.000000 75.000000 197.000000 
0.000000 75.000000 198.000000 
0.000000 75.000000 199.000000 
0.000000 75.000000 200.000000 
0.000000 76.000000 0.000000 
0.000000 76.000000 1.000000 
0.000000 76.000000 2.000000 
0.000000 76.000000 3.000000 
0.000000 76.000000 4.000000 
0.000000 76.000000 5.000000 
0.000000 76.000000 6.000000 
0.000000 76.000000 7.000000 
0.000000 76.000000 8.000000 
0.000000 76.000000 9.000000 
0.000000 76.000000 10.000000 
0.000000 76.000000 11.000000 
0.000000 76.000000 12.000000 
0.000000 76.000000 13.000000 
0.000000 76.000000 14.000000 
0.000000 76.000000 15.000000 
0.000000 76.000000 16.000000 
0.000000 76.000000 17.000000 
0.000000 76.000000 18.000000 
0.000000 76.000000 19.000000 
0.000000 76.000000 20.000000 
0.000000 76.000000 21.000000 
0.000000 76.000000 22.000000 
0.000000 76.000000 23.000000 
0.000000 76.000000 24.000000 
0.000000 76.000000 25.000000 
0.000000 76.000000 26.000000 
0.000000 76.000000 27.000000 
0.000000 76.000000 28.000000 
0.000000 76.000000 29.000000 
0.000000 76.000000 30.000000 
0.000000 76.000000 31.000000 
0.000000 76.000000 32.000000 
0.000000 76.000000 33.000000 
0.000000 76.000000 34.000000 
0.000000 76.000000 35.000000 
0.000000 76.000000 36.000000 
0.000000 76.000000 37.000000 
0.000000 76.000000 38.000000 
0.000000 76.000000 39.000000 
0.000000 76.000000 40.000000 
0.000000 76.000000 41.000000 
0.000000 76.000000 42.000000 
0.000000 76.000000 43.000000 
0.000000 76.000000 44.000000 
0.000000 76.000000 45.000000 
0.000000 76.000000 46.000000 
0.000000 76.000000 47.000000 
0.000000 76.000000 48.000000 
0.000000 76.000000 49.000000 
0.000000 76.000000 50.000000 
0.000000 76.000000 51.000000 
0.000000 76.000000 52.000000 
0.000000 76.000000 53.000000 
0.000000 76.000000 54.000000 
0.000000 76.000000 55.000000 
0.000000 76.000000 56.000000 
0.000000 76.000000 57.000000 
0.000000 76.000000 58.000000 
0.000000 76.000000 59.000000 
0.000000 76.000000 60.000000 
0.000000 76.000000 61.000000 
0.000000 76.000000 62.000000 
0.000000 76.000000 63.000000 
0.000000 76.000000 64.000000 
0.000000 76.000000 65.000000 
0.000000 76.000000 66.000000 
0.000000 76.000000 67.000000 
0.000000 76.000000 68.000000 
0.000000 76.000000 69.000000 
0.000000 76.000000 70.000000 
0.000000 76.000000 71.000000 
0.000000 76.000000 72.000000 
0.000000 76.000000 73.000000 
0.000000 76.000000 74.000000 
0.000000 76.000000 75.000000 
0.000000 76.000000 76.000000 
0.000000 76.000000 77.000000 
0.000000 76.000000 78.000000 
0.000000 76.000000 79.000000 
0.000000 76.000000 80.000000 
0.000000 76.000000 81.000000 
0.000000 76.000000 82.000000 
0.000000 76.000000 83.000000 
0.000000 76.000000 84.000000 
0.000000 76.000000 85.000000 
0.000000 76.000000 86.000000 
0.000000 76.000000 87.000000 
0.000000 76.000000 88.000000 
0.000000 76.000000 89.000000 
0.000000 76.000000 90.000000 
0.000000 76.000000 91.000000 
0.000000 76.000000 92.000000 
0.000000 76.000000 93.000000 
0.000000 76.000000 94.000000 
0.000000 76.000000 95.000000 
0.000000 76.000000 96.000000 
0.000000 76.000000 97.000000 
0.000000 76.000000 98.000000 
0.000000 76.000000 99.000000 
0.000000 76.000000 100.000000 
0.000000 76.000000 101.000000 
0.000000 76.000000 102.000000 
0.000000 76.000000 103.000000 
0.000000 76.000000 104.000000 
0.000000 76.000000 105.000000 
0.000000 76.000000 106.000000 
0.000000 76.000000 107.000000 
0.000000 76.000000 108.000000 
0.000000 76.000000 109.000000 
0.000000 76.000000 110.000000 
0.000000 76.000000 111.000000 
0.000000 76.000000 112.000000 
0.000000 76.000000 113.000000 
0.000000 76.000000 114.000000 
0.000000 76.000000 115.000000 
0.000000 76.000000 116.000000 
0.000000 76.000000 117.000000 
0.000000 76.000000 118.000000 
0.000000 76.000000 119.000000 
0.000000 76.000000 120.000000 
0.000000 76.000000 121.000000 
0.000000 76.000000 122.000000 
0.000000 76.000000 123.000000 
0.000000 76.000000 124.000000 
0.000000 76.000000 125.000000 
0.000000 76.000000 126.000000 
0.000000 76.000000 127.000000 
0.000000 76.000000 128.000000 
0.000000 76.000000 129.000000 
0.000000 76.000000 130.000000 
0.000000 76.000000 131.000000 
0.000000 76.000000 132.000000 
0.000000 76.000000 133.000000 
0.000000 76.000000 134.000000 
0.000000 76.000000 135.000000 
0.000000 76.000000 136.000000 
0.000000 76.000000 137.000000 
0.000000 76.000000 138.000000 
0.000000 76.000000 139.000000 
0.000000 76.000000 140.000000 
0.000000 76.000000 141.000000 
0.000000 76.000000 142.000000 
0.000000 76.000000 143.000000 
0.000000 76.000000 144.000000 
0.000000 76.000000 145.000000 
0.000000 76.000000 146.000000 
0.000000 76.000000 147.000000 
0.000000 76.000000 148.000000 
0.000000 76.000000 149.000000 
0.000000 76.000000 150.000000 
0.000000 76.000000 151.000000 
0.000000 76.000000 152.000000 
0.000000 76.000000 153.000000 
0.000000 76.000000 154.000000 
0.000000 76.000000 155.000000 
0.000000 76.000000 156.000000 
0.000000 76.000000 157.000000 
0.000000 76.000000 158.000000 
0.000000 76.000000 159.000000 
0.000000 76.000000 160.000000 
0.000000 76.000000 161.000000 
0.000000 76.000000 162.000000 
0.000000 76.000000 163.000000 
0.000000 76.000000 164.000000 
0.000000 76.000000 165.000000 
0.000000 76.000000 166.000000 
0.000000 76.000000 167.000000 
0.000000 76.000000 168.000000 
0.000000 76.000000 169.000000 
0.000000 76.000000 170.000000 
0.000000 76.000000 171.000000 
0.000000 76.000000 172.000000 
0.000000 76.000000 173.000000 
0.000000 76.000000 174.000000 
0.000000 76.000000 175.000000 
0.000000 76.000000 176.000000 
0.000000 76.000000 177.000000 
0.000000 76.000000 178.000000 
0.000000 76.000000 179.000000 
0.000000 76.000000 180.000000 
0.000000 76.000000 181.000000 
0.000000 76.000000 182.000000 
0.000000 76.000000 183.000000 
0.000000 76.000000 184.000000 
0.000000 76.000000 185.000000 
0.000000 76.000000 186.000000 
0.000000 76.000000 187.000000 
0.000000 76.000000 188.000000 
0.000000 76.000000 189.000000 
0.000000 76.000000 190.000000 
0.000000 76.000000 191.000000 
0.000000 76.000000 192.000000 
0.000000 76.000000 193.000000 
0.000000 76.000000 194.000000 
0.000000 76.000000 195.000000 
0.000000 76.000000 196.000000 
0.000000 76.000000 197.000000 
0.000000 76.000000 198.000000 
0.000000 76.000000 199.000000 
0.000000 76.000000 200.000000 
0.000000 77.000000 0.000000 
0.000000 77.000000 1.000000 
0.000000 77.000000 2.000000 
0.000000 77.000000 3.000000 
0.000000 77.000000 4.000000 
0.000000 77.000000 5.000000 
0.000000 77.000000 6.000000 
0.000000 77.000000 7.000000 
0.000000 77.000000 8.000000 
0.000000 77.000000 9.000000 
0.000000 77.000000 10.000000 
0.000000 77.000000 11.000000 
0.000000 77.000000 12.000000 
0.000000 77.000000 13.000000 
0.000000 77.000000 14.000000 
0.000000 77.000000 15.000000 
0.000000 77.000000 16.000000 
0.000000 77.000000 17.000000 
0.000000 77.000000 18.000000 
0.000000 77.000000 19.000000 
0.000000 77.000000 20.000000 
0.000000 77.000000 21.000000 
0.000000 77.000000 22.000000 
0.000000 77.000000 23.000000 
0.000000 77.000000 24.000000 
0.000000 77.000000 25.000000 
0.000000 77.000000 26.000000 
0.000000 77.000000 27.000000 
0.000000 77.000000 28.000000 
0.000000 77.000000 29.000000 
0.000000 77.000000 30.000000 
0.000000 77.000000 31.000000 
0.000000 77.000000 32.000000 
0.000000 77.000000 33.000000 
0.000000 77.000000 34.000000 
0.000000 77.000000 35.000000 
0.000000 77.000000 36.000000 
0.000000 77.000000 37.000000 
0.000000 77.000000 38.000000 
0.000000 77.000000 39.000000 
0.000000 77.000000 40.000000 
0.000000 77.000000 41.000000 
0.000000 77.000000 42.000000 
0.000000 77.000000 43.000000 
0.000000 77.000000 44.000000 
0.000000 77.000000 45.000000 
0.000000 77.000000 46.000000 
0.000000 77.000000 47.000000 
0.000000 77.000000 48.000000 
0.000000 77.000000 49.000000 
0.000000 77.000000 50.000000 
0.000000 77.000000 51.000000 
0.000000 77.000000 52.000000 
0.000000 77.000000 53.000000 
0.000000 77.000000 54.000000 
0.000000 77.000000 55.000000 
0.000000 77.000000 56.000000 
0.000000 77.000000 57.000000 
0.000000 77.000000 58.000000 
0.000000 77.000000 59.000000 
0.000000 77.000000 60.000000 
0.000000 77.000000 61.000000 
0.000000 77.000000 62.000000 
0.000000 77.000000 63.000000 
0.000000 77.000000 64.000000 
0.000000 77.000000 65.000000 
0.000000 77.000000 66.000000 
0.000000 77.000000 67.000000 
0.000000 77.000000 68.000000 
0.000000 77.000000 69.000000 
0.000000 77.000000 70.000000 
0.000000 77.000000 71.000000 
0.000000 77.000000 72.000000 
0.000000 77.000000 73.000000 
0.000000 77.000000 74.000000 
0.000000 77.000000 75.000000 
0.000000 77.000000 76.000000 
0.000000 77.000000 77.000000 
0.000000 77.000000 78.000000 
0.000000 77.000000 79.000000 
0.000000 77.000000 80.000000 
0.000000 77.000000 81.000000 
0.000000 77.000000 82.000000 
0.000000 77.000000 83.000000 
0.000000 77.000000 84.000000 
0.000000 77.000000 85.000000 
0.000000 77.000000 86.000000 
0.000000 77.000000 87.000000 
0.000000 77.000000 88.000000 
0.000000 77.000000 89.000000 
0.000000 77.000000 90.000000 
0.000000 77.000000 91.000000 
0.000000 77.000000 92.000000 
0.000000 77.000000 93.000000 
0.000000 77.000000 94.000000 
0.000000 77.000000 95.000000 
0.000000 77.000000 96.000000 
0.000000 77.000000 97.000000 
0.000000 77.000000 98.000000 
0.000000 77.000000 99.000000 
0.000000 77.000000 100.000000 
0.000000 77.000000 101.000000 
0.000000 77.000000 102.000000 
0.000000 77.000000 103.000000 
0.000000 77.000000 104.000000 
0.000000 77.000000 105.000000 
0.000000 77.000000 106.000000 
0.000000 77.000000 107.000000 
0.000000 77.000000 108.000000 
0.000000 77.000000 109.000000 
0.000000 77.000000 110.000000 
0.000000 77.000000 111.000000 
0.000000 77.000000 112.000000 
0.000000 77.000000 113.000000 
0.000000 77.000000 114.000000 
0.000000 77.000000 115.000000 
0.000000 77.000000 116.000000 
0.000000 77.000000 117.000000 
0.000000 77.000000 118.000000 
0.000000 77.000000 119.000000 
0.000000 77.000000 120.000000 
0.000000 77.000000 121.000000 
0.000000 77.000000 122.000000 
0.000000 77.000000 123.000000 
0.000000 77.000000 124.000000 
0.000000 77.000000 125.000000 
0.000000 77.000000 126.000000 
0.000000 77.000000 127.000000 
0.000000 77.000000 128.000000 
0.000000 77.000000 129.000000 
0.000000 77.000000 130.000000 
0.000000 77.000000 131.000000 
0.000000 77.000000 132.000000 
0.000000 77.000000 133.000000 
0.000000 77.000000 134.000000 
0.000000 77.000000 135.000000 
0.000000 77.000000 136.000000 
0.000000 77.000000 137.000000 
0.000000 77.000000 138.000000 
0.000000 77.000000 139.000000 
0.000000 77.000000 140.000000 
0.000000 77.000000 141.000000 
0.000000 77.000000 142.000000 
0.000000 77.000000 143.000000 
0.000000 77.000000 144.000000 
0.000000 77.000000 145.000000 
0.000000 77.000000 146.000000 
0.000000 77.000000 147.000000 
0.000000 77.000000 148.000000 
0.000000 77.000000 149.000000 
0.000000 77.000000 150.000000 
0.000000 77.000000 151.000000 
0.000000 77.000000 152.000000 
0.000000 77.000000 153.000000 
0.000000 77.000000 154.000000 
0.000000 77.000000 155.000000 
0.000000 77.000000 156.000000 
0.000000 77.000000 157.000000 
0.000000 77.000000 158.000000 
0.000000 77.000000 159.000000 
0.000000 77.000000 160.000000 
0.000000 77.000000 161.000000 
0.000000 77.000000 162.000000 
0.000000 77.000000 163.000000 
0.000000 77.000000 164.000000 
0.000000 77.000000 165.000000 
0.000000 77.000000 166.000000 
0.000000 77.000000 167.000000 
0.000000 77.000000 168.000000 
0.000000 77.000000 169.000000 
0.000000 77.000000 170.000000 
0.000000 77.000000 171.000000 
0.000000 77.000000 172.000000 
0.000000 77.000000 173.000000 
0.000000 77.000000 174.000000 
0.000000 77.000000 175.000000 
0.000000 77.000000 176.000000 
0.000000 77.000000 177.000000 
0.000000 77.000000 178.000000 
0.000000 77.000000 179.000000 
0.000000 77.000000 180.000000 
0.000000 77.000000 181.000000 
0.000000 77.000000 182.000000 
0.000000 77.000000 183.000000 
0.000000 77.000000 184.000000 
0.000000 77.000000 185.000000 
0.000000 77.000000 186.000000 
0.000000 77.000000 187.000000 
0.000000 77.000000 188.000000 
0.000000 77.000000 189.000000 
0.000000 77.000000 190.000000 
0.000000 77.000000 191.000000 
0.000000 77.000000 192.000000 
0.000000 77.000000 193.000000 
0.000000 77.000000 194.000000 
0.000000 77.000000 195.000000 
0.000000 77.000000 196.000000 
0.000000 77.000000 197.000000 
0.000000 77.000000 198.000000 
0.000000 77.000000 199.000000 
0.000000 77.000000 200.000000 
0.000000 78.000000 0.000000 
0.000000 78.000000 1.000000 
0.000000 78.000000 2.000000 
0.000000 78.000000 3.000000 
0.000000 78.000000 4.000000 
0.000000 78.000000 5.000000 
0.000000 78.000000 6.000000 
0.000000 78.000000 7.000000 
0.000000 78.000000 8.000000 
0.000000 78.000000 9.000000 
0.000000 78.000000 10.000000 
0.000000 78.000000 11.000000 
0.000000 78.000000 12.000000 
0.000000 78.000000 13.000000 
0.000000 78.000000 14.000000 
0.000000 78.000000 15.000000 
0.000000 78.000000 16.000000 
0.000000 78.000000 17.000000 
0.000000 78.000000 18.000000 
0.000000 78.000000 19.000000 
0.000000 78.000000 20.000000 
0.000000 78.000000 21.000000 
0.000000 78.000000 22.000000 
0.000000 78.000000 23.000000 
0.000000 78.000000 24.000000 
0.000000 78.000000 25.000000 
0.000000 78.000000 26.000000 
0.000000 78.000000 27.000000 
0.000000 78.000000 28.000000 
0.000000 78.000000 29.000000 
0.000000 78.000000 30.000000 
0.000000 78.000000 31.000000 
0.000000 78.000000 32.000000 
0.000000 78.000000 33.000000 
0.000000 78.000000 34.000000 
0.000000 78.000000 35.000000 
0.000000 78.000000 36.000000 
0.000000 78.000000 37.000000 
0.000000 78.000000 38.000000 
0.000000 78.000000 39.000000 
0.000000 78.000000 40.000000 
0.000000 78.000000 41.000000 
0.000000 78.000000 42.000000 
0.000000 78.000000 43.000000 
0.000000 78.000000 44.000000 
0.000000 78.000000 45.000000 
0.000000 78.000000 46.000000 
0.000000 78.000000 47.000000 
0.000000 78.000000 48.000000 
0.000000 78.000000 49.000000 
0.000000 78.000000 50.000000 
0.000000 78.000000 51.000000 
0.000000 78.000000 52.000000 
0.000000 78.000000 53.000000 
0.000000 78.000000 54.000000 
0.000000 78.000000 55.000000 
0.000000 78.000000 56.000000 
0.000000 78.000000 57.000000 
0.000000 78.000000 58.000000 
0.000000 78.000000 59.000000 
0.000000 78.000000 60.000000 
0.000000 78.000000 61.000000 
0.000000 78.000000 62.000000 
0.000000 78.000000 63.000000 
0.000000 78.000000 64.000000 
0.000000 78.000000 65.000000 
0.000000 78.000000 66.000000 
0.000000 78.000000 67.000000 
0.000000 78.000000 68.000000 
0.000000 78.000000 69.000000 
0.000000 78.000000 70.000000 
0.000000 78.000000 71.000000 
0.000000 78.000000 72.000000 
0.000000 78.000000 73.000000 
0.000000 78.000000 74.000000 
0.000000 78.000000 75.000000 
0.000000 78.000000 76.000000 
0.000000 78.000000 77.000000 
0.000000 78.000000 78.000000 
0.000000 78.000000 79.000000 
0.000000 78.000000 80.000000 
0.000000 78.000000 81.000000 
0.000000 78.000000 82.000000 
0.000000 78.000000 83.000000 
0.000000 78.000000 84.000000 
0.000000 78.000000 85.000000 
0.000000 78.000000 86.000000 
0.000000 78.000000 87.000000 
0.000000 78.000000 88.000000 
0.000000 78.000000 89.000000 
0.000000 78.000000 90.000000 
0.000000 78.000000 91.000000 
0.000000 78.000000 92.000000 
0.000000 78.000000 93.000000 
0.000000 78.000000 94.000000 
0.000000 78.000000 95.000000 
0.000000 78.000000 96.000000 
0.000000 78.000000 97.000000 
0.000000 78.000000 98.000000 
0.000000 78.000000 99.000000 
0.000000 78.000000 100.000000 
0.000000 78.000000 101.000000 
0.000000 78.000000 102.000000 
0.000000 78.000000 103.000000 
0.000000 78.000000 104.000000 
0.000000 78.000000 105.000000 
0.000000 78.000000 106.000000 
0.000000 78.000000 107.000000 
0.000000 78.000000 108.000000 
0.000000 78.000000 109.000000 
0.000000 78.000000 110.000000 
0.000000 78.000000 111.000000 
0.000000 78.000000 112.000000 
0.000000 78.000000 113.000000 
0.000000 78.000000 114.000000 
0.000000 78.000000 115.000000 
0.000000 78.000000 116.000000 
0.000000 78.000000 117.000000 
0.000000 78.000000 118.000000 
0.000000 78.000000 119.000000 
0.000000 78.000000 120.000000 
0.000000 78.000000 121.000000 
0.000000 78.000000 122.000000 
0.000000 78.000000 123.000000 
0.000000 78.000000 124.000000 
0.000000 78.000000 125.000000 
0.000000 78.000000 126.000000 
0.000000 78.000000 127.000000 
0.000000 78.000000 128.000000 
0.000000 78.000000 129.000000 
0.000000 78.000000 130.000000 
0.000000 78.000000 131.000000 
0.000000 78.000000 132.000000 
0.000000 78.000000 133.000000 
0.000000 78.000000 134.000000 
0.000000 78.000000 135.000000 
0.000000 78.000000 136.000000 
0.000000 78.000000 137.000000 
0.000000 78.000000 138.000000 
0.000000 78.000000 139.000000 
0.000000 78.000000 140.000000 
0.000000 78.000000 141.000000 
0.000000 78.000000 142.000000 
0.000000 78.000000 143.000000 
0.000000 78.000000 144.000000 
0.000000 78.000000 145.000000 
0.000000 78.000000 146.000000 
0.000000 78.000000 147.000000 
0.000000 78.000000 148.000000 
0.000000 78.000000 149.000000 
0.000000 78.000000 150.000000 
0.000000 78.000000 151.000000 
0.000000 78.000000 152.000000 
0.000000 78.000000 153.000000 
0.000000 78.000000 154.000000 
0.000000 78.000000 155.000000 
0.000000 78.000000 156.000000 
0.000000 78.000000 157.000000 
0.000000 78.000000 158.000000 
0.000000 78.000000 159.000000 
0.000000 78.000000 160.000000 
0.000000 78.000000 161.000000 
0.000000 78.000000 162.000000 
0.000000 78.000000 163.000000 
0.000000 78.000000 164.000000 
0.000000 78.000000 165.000000 
0.000000 78.000000 166.000000 
0.000000 78.000000 167.000000 
0.000000 78.000000 168.000000 
0.000000 78.000000 169.000000 
0.000000 78.000000 170.000000 
0.000000 78.000000 171.000000 
0.000000 78.000000 172.000000 
0.000000 78.000000 173.000000 
0.000000 78.000000 174.000000 
0.000000 78.000000 175.000000 
0.000000 78.000000 176.000000 
0.000000 78.000000 177.000000 
0.000000 78.000000 178.000000 
0.000000 78.000000 179.000000 
0.000000 78.000000 180.000000 
0.000000 78.000000 181.000000 
0.000000 78.000000 182.000000 
0.000000 78.000000 183.000000 
0.000000 78.000000 184.000000 
0.000000 78.000000 185.000000 
0.000000 78.000000 186.000000 
0.000000 78.000000 187.000000 
0.000000 78.000000 188.000000 
0.000000 78.000000 189.000000 
0.000000 78.000000 190.000000 
0.000000 78.000000 191.000000 
0.000000 78.000000 192.000000 
0.000000 78.000000 193.000000 
0.000000 78.000000 194.000000 
0.000000 78.000000 195.000000 
0.000000 78.000000 196.000000 
0.000000 78.000000 197.000000 
0.000000 78.000000 198.000000 
0.000000 78.000000 199.000000 
0.000000 78.000000 200.000000 
0.000000 79.000000 0.000000 
0.000000 79.000000 1.000000 
0.000000 79.000000 2.000000 
0.000000 79.000000 3.000000 
0.000000 79.000000 4.000000 
0.000000 79.000000 5.000000 
0.000000 79.000000 6.000000 
0.000000 79.000000 7.000000 
0.000000 79.000000 8.000000 
0.000000 79.000000 9.000000 
0.000000 79.000000 10.000000 
0.000000 79.000000 11.000000 
0.000000 79.000000 12.000000 
0.000000 79.000000 13.000000 
0.000000 79.000000 14.000000 
0.000000 79.000000 15.000000 
0.000000 79.000000 16.000000 
0.000000 79.000000 17.000000 
0.000000 79.000000 18.000000 
0.000000 79.000000 19.000000 
0.000000 79.000000 20.000000 
0.000000 79.000000 21.000000 
0.000000 79.000000 22.000000 
0.000000 79.000000 23.000000 
0.000000 79.000000 24.000000 
0.000000 79.000000 25.000000 
0.000000 79.000000 26.000000 
0.000000 79.000000 27.000000 
0.000000 79.000000 28.000000 
0.000000 79.000000 29.000000 
0.000000 79.000000 30.000000 
0.000000 79.000000 31.000000 
0.000000 79.000000 32.000000 
0.000000 79.000000 33.000000 
0.000000 79.000000 34.000000 
0.000000 79.000000 35.000000 
0.000000 79.000000 36.000000 
0.000000 79.000000 37.000000 
0.000000 79.000000 38.000000 
0.000000 79.000000 39.000000 
0.000000 79.000000 40.000000 
0.000000 79.000000 41.000000 
0.000000 79.000000 42.000000 
0.000000 79.000000 43.000000 
0.000000 79.000000 44.000000 
0.000000 79.000000 45.000000 
0.000000 79.000000 46.000000 
0.000000 79.000000 47.000000 
0.000000 79.000000 48.000000 
0.000000 79.000000 49.000000 
0.000000 79.000000 50.000000 
0.000000 79.000000 51.000000 
0.000000 79.000000 52.000000 
0.000000 79.000000 53.000000 
0.000000 79.000000 54.000000 
0.000000 79.000000 55.000000 
0.000000 79.000000 56.000000 
0.000000 79.000000 57.000000 
0.000000 79.000000 58.000000 
0.000000 79.000000 59.000000 
0.000000 79.000000 60.000000 
0.000000 79.000000 61.000000 
0.000000 79.000000 62.000000 
0.000000 79.000000 63.000000 
0.000000 79.000000 64.000000 
0.000000 79.000000 65.000000 
0.000000 79.000000 66.000000 
0.000000 79.000000 67.000000 
0.000000 79.000000 68.000000 
0.000000 79.000000 69.000000 
0.000000 79.000000 70.000000 
0.000000 79.000000 71.000000 
0.000000 79.000000 72.000000 
0.000000 79.000000 73.000000 
0.000000 79.000000 74.000000 
0.000000 79.000000 75.000000 
0.000000 79.000000 76.000000 
0.000000 79.000000 77.000000 
0.000000 79.000000 78.000000 
0.000000 79.000000 79.000000 
0.000000 79.000000 80.000000 
0.000000 79.000000 81.000000 
0.000000 79.000000 82.000000 
0.000000 79.000000 83.000000 
0.000000 79.000000 84.000000 
0.000000 79.000000 85.000000 
0.000000 79.000000 86.000000 
0.000000 79.000000 87.000000 
0.000000 79.000000 88.000000 
0.000000 79.000000 89.000000 
0.000000 79.000000 90.000000 
0.000000 79.000000 91.000000 
0.000000 79.000000 92.000000 
0.000000 79.000000 93.000000 
0.000000 79.000000 94.000000 
0.000000 79.000000 95.000000 
0.000000 79.000000 96.000000 
0.000000 79.000000 97.000000 
0.000000 79.000000 98.000000 
0.000000 79.000000 99.000000 
0.000000 79.000000 100.000000 
0.000000 79.000000 101.000000 
0.000000 79.000000 102.000000 
0.000000 79.000000 103.000000 
0.000000 79.000000 104.000000 
0.000000 79.000000 105.000000 
0.000000 79.000000 106.000000 
0.000000 79.000000 107.000000 
0.000000 79.000000 108.000000 
0.000000 79.000000 109.000000 
0.000000 79.000000 110.000000 
0.000000 79.000000 111.000000 
0.000000 79.000000 112.000000 
0.000000 79.000000 113.000000 
0.000000 79.000000 114.000000 
0.000000 79.000000 115.000000 
0.000000 79.000000 116.000000 
0.000000 79.000000 117.000000 
0.000000 79.000000 118.000000 
0.000000 79.000000 119.000000 
0.000000 79.000000 120.000000 
0.000000 79.000000 121.000000 
0.000000 79.000000 122.000000 
0.000000 79.000000 123.000000 
0.000000 79.000000 124.000000 
0.000000 79.000000 125.000000 
0.000000 79.000000 126.000000 
0.000000 79.000000 127.000000 
0.000000 79.000000 128.000000 
0.000000 79.000000 129.000000 
0.000000 79.000000 130.000000 
0.000000 79.000000 131.000000 
0.000000 79.000000 132.000000 
0.000000 79.000000 133.000000 
0.000000 79.000000 134.000000 
0.000000 79.000000 135.000000 
0.000000 79.000000 136.000000 
0.000000 79.000000 137.000000 
0.000000 79.000000 138.000000 
0.000000 79.000000 139.000000 
0.000000 79.000000 140.000000 
0.000000 79.000000 141.000000 
0.000000 79.000000 142.000000 
0.000000 79.000000 143.000000 
0.000000 79.000000 144.000000 
0.000000 79.000000 145.000000 
0.000000 79.000000 146.000000 
0.000000 79.000000 147.000000 
0.000000 79.000000 148.000000 
0.000000 79.000000 149.000000 
0.000000 79.000000 150.000000 
0.000000 79.000000 151.000000 
0.000000 79.000000 152.000000 
0.000000 79.000000 153.000000 
0.000000 79.000000 154.000000 
0.000000 79.000000 155.000000 
0.000000 79.000000 156.000000 
0.000000 79.000000 157.000000 
0.000000 79.000000 158.000000 
0.000000 79.000000 159.000000 
0.000000 79.000000 160.000000 
0.000000 79.000000 161.000000 
0.000000 79.000000 162.000000 
0.000000 79.000000 163.000000 
0.000000 79.000000 164.000000 
0.000000 79.000000 165.000000 
0.000000 79.000000 166.000000 
0.000000 79.000000 167.000000 
0.000000 79.000000 168.000000 
0.000000 79.000000 169.000000 
0.000000 79.000000 170.000000 
0.000000 79.000000 171.000000 
0.000000 79.000000 172.000000 
0.000000 79.000000 173.000000 
0.000000 79.000000 174.000000 
0.000000 79.000000 175.000000 
0.000000 79.000000 176.000000 
0.000000 79.000000 177.000000 
0.000000 79.000000 178.000000 
0.000000 79.000000 179.000000 
0.000000 79.000000 180.000000 
0.000000 79.000000 181.000000 
0.000000 79.000000 182.000000 
0.000000 79.000000 183.000000 
0.000000 79.000000 184.000000 
0.000000 79.000000 185.000000 
0.000000 79.000000 186.000000 
0.000000 79.000000 187.000000 
0.000000 79.000000 188.000000 
0.000000 79.000000 189.000000 
0.000000 79.000000 190.000000 
0.000000 79.000000 191.000000 
0.000000 79.000000 192.000000 
0.000000 79.000000 193.000000 
0.000000 79.000000 194.000000 
0.000000 79.000000 195.000000 
0.000000 79.000000 196.000000 
0.000000 79.000000 197.000000 
0.000000 79.000000 198.000000 
0.000000 79.000000 199.000000 
0.000000 79.000000 200.000000 
0.000000 80.000000 0.000000 
0.000000 80.000000 1.000000 
0.000000 80.000000 2.000000 
0.000000 80.000000 3.000000 
0.000000 80.000000 4.000000 
0.000000 80.000000 5.000000 
0.000000 80.000000 6.000000 
0.000000 80.000000 7.000000 
0.000000 80.000000 8.000000 
0.000000 80.000000 9.000000 
0.000000 80.000000 10.000000 
0.000000 80.000000 11.000000 
0.000000 80.000000 12.000000 
0.000000 80.000000 13.000000 
0.000000 80.000000 14.000000 
0.000000 80.000000 15.000000 
0.000000 80.000000 16.000000 
0.000000 80.000000 17.000000 
0.000000 80.000000 18.000000 
0.000000 80.000000 19.000000 
0.000000 80.000000 20.000000 
0.000000 80.000000 21.000000 
0.000000 80.000000 22.000000 
0.000000 80.000000 23.000000 
0.000000 80.000000 24.000000 
0.000000 80.000000 25.000000 
0.000000 80.000000 26.000000 
0.000000 80.000000 27.000000 
0.000000 80.000000 28.000000 
0.000000 80.000000 29.000000 
0.000000 80.000000 30.000000 
0.000000 80.000000 31.000000 
0.000000 80.000000 32.000000 
0.000000 80.000000 33.000000 
0.000000 80.000000 34.000000 
0.000000 80.000000 35.000000 
0.000000 80.000000 36.000000 
0.000000 80.000000 37.000000 
0.000000 80.000000 38.000000 
0.000000 80.000000 39.000000 
0.000000 80.000000 40.000000 
0.000000 80.000000 41.000000 
0.000000 80.000000 42.000000 
0.000000 80.000000 43.000000 
0.000000 80.000000 44.000000 
0.000000 80.000000 45.000000 
0.000000 80.000000 46.000000 
0.000000 80.000000 47.000000 
0.000000 80.000000 48.000000 
0.000000 80.000000 49.000000 
0.000000 80.000000 50.000000 
0.000000 80.000000 51.000000 
0.000000 80.000000 52.000000 
0.000000 80.000000 53.000000 
0.000000 80.000000 54.000000 
0.000000 80.000000 55.000000 
0.000000 80.000000 56.000000 
0.000000 80.000000 57.000000 
0.000000 80.000000 58.000000 
0.000000 80.000000 59.000000 
0.000000 80.000000 60.000000 
0.000000 80.000000 61.000000 
0.000000 80.000000 62.000000 
0.000000 80.000000 63.000000 
0.000000 80.000000 64.000000 
0.000000 80.000000 65.000000 
0.000000 80.000000 66.000000 
0.000000 80.000000 67.000000 
0.000000 80.000000 68.000000 
0.000000 80.000000 69.000000 
0.000000 80.000000 70.000000 
0.000000 80.000000 71.000000 
0.000000 80.000000 72.000000 
0.000000 80.000000 73.000000 
0.000000 80.000000 74.000000 
0.000000 80.000000 75.000000 
0.000000 80.000000 76.000000 
0.000000 80.000000 77.000000 
0.000000 80.000000 78.000000 
0.000000 80.000000 79.000000 
0.000000 80.000000 80.000000 
0.000000 80.000000 81.000000 
0.000000 80.000000 82.000000 
0.000000 80.000000 83.000000 
0.000000 80.000000 84.000000 
0.000000 80.000000 85.000000 
0.000000 80.000000 86.000000 
0.000000 80.000000 87.000000 
0.000000 80.000000 88.000000 
0.000000 80.000000 89.000000 
0.000000 80.000000 90.000000 
0.000000 80.000000 91.000000 
0.000000 80.000000 92.000000 
0.000000 80.000000 93.000000 
0.000000 80.000000 94.000000 
0.000000 80.000000 95.000000 
0.000000 80.000000 96.000000 
0.000000 80.000000 97.000000 
0.000000 80.000000 98.000000 
0.000000 80.000000 99.000000 
0.000000 80.000000 100.000000 
0.000000 80.000000 101.000000 
0.000000 80.000000 102.000000 
0.000000 80.000000 103.000000 
0.000000 80.000000 104.000000 
0.000000 80.000000 105.000000 
0.000000 80.000000 106.000000 
0.000000 80.000000 107.000000 
0.000000 80.000000 108.000000 
0.000000 80.000000 109.000000 
0.000000 80.000000 110.000000 
0.000000 80.000000 111.000000 
0.000000 80.000000 112.000000 
0.000000 80.000000 113.000000 
0.000000 80.000000 114.000000 
0.000000 80.000000 115.000000 
0.000000 80.000000 116.000000 
0.000000 80.000000 117.000000 
0.000000 80.000000 118.000000 
0.000000 80.000000 119.000000 
0.000000 80.000000 120.000000 
0.000000 80.000000 121.000000 
0.000000 80.000000 122.000000 
0.000000 80.000000 123.000000 
0.000000 80.000000 124.000000 
0.000000 80.000000 125.000000 
0.000000 80.000000 126.000000 
0.000000 80.000000 127.000000 
0.000000 80.000000 128.000000 
0.000000 80.000000 129.000000 
0.000000 80.000000 130.000000 
0.000000 80.000000 131.000000 
0.000000 80.000000 132.000000 
0.000000 80.000000 133.000000 
0.000000 80.000000 134.000000 
0.000000 80.000000 135.000000 
0.000000 80.000000 136.000000 
0.000000 80.000000 137.000000 
0.000000 80.000000 138.000000 
0.000000 80.000000 139.000000 
0.000000 80.000000 140.000000 
0.000000 80.000000 141.000000 
0.000000 80.000000 142.000000 
0.000000 80.000000 143.000000 
0.000000 80.000000 144.000000 
0.000000 80.000000 145.000000 
0.000000 80.000000 146.000000 
0.000000 80.000000 147.000000 
0.000000 80.000000 148.000000 
0.000000 80.000000 149.000000 
0.000000 80.000000 150.000000 
0.000000 80.000000 151.000000 
0.000000 80.000000 152.000000 
0.000000 80.000000 153.000000 
0.000000 80.000000 154.000000 
0.000000 80.000000 155.000000 
0.000000 80.000000 156.000000 
0.000000 80.000000 157.000000 
0.000000 80.000000 158.000000 
0.000000 80.000000 159.000000 
0.000000 80.000000 160.000000 
0.000000 80.000000 161.000000 
0.000000 80.000000 162.000000 
0.000000 80.000000 163.000000 
0.000000 80.000000 164.000000 
0.000000 80.000000 165.000000 
0.000000 80.000000 166.000000 
0.000000 80.000000 167.000000 
0.000000 80.000000 168.000000 
0.000000 80.000000 169.000000 
0.000000 80.000000 170.000000 
0.000000 80.000000 171.000000 
0.000000 80.000000 172.000000 
0.000000 80.000000 173.000000 
0.000000 80.000000 174.000000 
0.000000 80.000000 175.000000 
0.000000 80.000000 176.000000 
0.000000 80.000000 177.000000 
0.000000 80.000000 178.000000 
0.000000 80.000000 179.000000 
0.000000 80.000000 180.000000 
0.000000 80.000000 181.000000 
0.000000 80.000000 182.000000 
0.000000 80.000000 183.000000 
0.000000 80.000000 184.000000 
0.000000 80.000000 185.000000 
0.000000 80.000000 186.000000 
0.000000 80.000000 187.000000 
0.000000 80.000000 188.000000 
0.000000 80.000000 189.000000 
0.000000 80.000000 190.000000 
0.000000 80.000000 191.000000 
0.000000 80.000000 192.000000 
0.000000 80.000000 193.000000 
0.000000 80.000000 194.000000 
0.000000 80.000000 195.000000 
0.000000 80.000000 196.000000 
0.000000 80.000000 197.000000 
0.000000 80.000000 198.000000 
0.000000 80.000000 199.000000 
0.000000 80.000000 200.000000 
0.000000 81.000000 0.000000 
0.000000 81.000000 1.000000 
0.000000 81.000000 2.000000 
0.000000 81.000000 3.000000 
0.000000 81.000000 4.000000 
0.000000 81.000000 5.000000 
0.000000 81.000000 6.000000 
0.000000 81.000000 7.000000 
0.000000 81.000000 8.000000 
0.000000 81.000000 9.000000 
0.000000 81.000000 10.000000 
0.000000 81.000000 11.000000 
0.000000 81.000000 12.000000 
0.000000 81.000000 13.000000 
0.000000 81.000000 14.000000 
0.000000 81.000000 15.000000 
0.000000 81.000000 16.000000 
0.000000 81.000000 17.000000 
0.000000 81.000000 18.000000 
0.000000 81.000000 19.000000 
0.000000 81.000000 20.000000 
0.000000 81.000000 21.000000 
0.000000 81.000000 22.000000 
0.000000 81.000000 23.000000 
0.000000 81.000000 24.000000 
0.000000 81.000000 25.000000 
0.000000 81.000000 26.000000 
0.000000 81.000000 27.000000 
0.000000 81.000000 28.000000 
0.000000 81.000000 29.000000 
0.000000 81.000000 30.000000 
0.000000 81.000000 31.000000 
0.000000 81.000000 32.000000 
0.000000 81.000000 33.000000 
0.000000 81.000000 34.000000 
0.000000 81.000000 35.000000 
0.000000 81.000000 36.000000 
0.000000 81.000000 37.000000 
0.000000 81.000000 38.000000 
0.000000 81.000000 39.000000 
0.000000 81.000000 40.000000 
0.000000 81.000000 41.000000 
0.000000 81.000000 42.000000 
0.000000 81.000000 43.000000 
0.000000 81.000000 44.000000 
0.000000 81.000000 45.000000 
0.000000 81.000000 46.000000 
0.000000 81.000000 47.000000 
0.000000 81.000000 48.000000 
0.000000 81.000000 49.000000 
0.000000 81.000000 50.000000 
0.000000 81.000000 51.000000 
0.000000 81.000000 52.000000 
0.000000 81.000000 53.000000 
0.000000 81.000000 54.000000 
0.000000 81.000000 55.000000 
0.000000 81.000000 56.000000 
0.000000 81.000000 57.000000 
0.000000 81.000000 58.000000 
0.000000 81.000000 59.000000 
0.000000 81.000000 60.000000 
0.000000 81.000000 61.000000 
0.000000 81.000000 62.000000 
0.000000 81.000000 63.000000 
0.000000 81.000000 64.000000 
0.000000 81.000000 65.000000 
0.000000 81.000000 66.000000 
0.000000 81.000000 67.000000 
0.000000 81.000000 68.000000 
0.000000 81.000000 69.000000 
0.000000 81.000000 70.000000 
0.000000 81.000000 71.000000 
0.000000 81.000000 72.000000 
0.000000 81.000000 73.000000 
0.000000 81.000000 74.000000 
0.000000 81.000000 75.000000 
0.000000 81.000000 76.000000 
0.000000 81.000000 77.000000 
0.000000 81.000000 78.000000 
0.000000 81.000000 79.000000 
0.000000 81.000000 80.000000 
0.000000 81.000000 81.000000 
0.000000 81.000000 82.000000 
0.000000 81.000000 83.000000 
0.000000 81.000000 84.000000 
0.000000 81.000000 85.000000 
0.000000 81.000000 86.000000 
0.000000 81.000000 87.000000 
0.000000 81.000000 88.000000 
0.000000 81.000000 89.000000 
0.000000 81.000000 90.000000 
0.000000 81.000000 91.000000 
0.000000 81.000000 92.000000 
0.000000 81.000000 93.000000 
0.000000 81.000000 94.000000 
0.000000 81.000000 95.000000 
0.000000 81.000000 96.000000 
0.000000 81.000000 97.000000 
0.000000 81.000000 98.000000 
0.000000 81.000000 99.000000 
0.000000 81.000000 100.000000 
0.000000 81.000000 101.000000 
0.000000 81.000000 102.000000 
0.000000 81.000000 103.000000 
0.000000 81.000000 104.000000 
0.000000 81.000000 105.000000 
0.000000 81.000000 106.000000 
0.000000 81.000000 107.000000 
0.000000 81.000000 108.000000 
0.000000 81.000000 109.000000 
0.000000 81.000000 110.000000 
0.000000 81.000000 111.000000 
0.000000 81.000000 112.000000 
0.000000 81.000000 113.000000 
0.000000 81.000000 114.000000 
0.000000 81.000000 115.000000 
0.000000 81.000000 116.000000 
0.000000 81.000000 117.000000 
0.000000 81.000000 118.000000 
0.000000 81.000000 119.000000 
0.000000 81.000000 120.000000 
0.000000 81.000000 121.000000 
0.000000 81.000000 122.000000 
0.000000 81.000000 123.000000 
0.000000 81.000000 124.000000 
0.000000 81.000000 125.000000 
0.000000 81.000000 126.000000 
0.000000 81.000000 127.000000 
0.000000 81.000000 128.000000 
0.000000 81.000000 129.000000 
0.000000 81.000000 130.000000 
0.000000 81.000000 131.000000 
0.000000 81.000000 132.000000 
0.000000 81.000000 133.000000 
0.000000 81.000000 134.000000 
0.000000 81.000000 135.000000 
0.000000 81.000000 136.000000 
0.000000 81.000000 137.000000 
0.000000 81.000000 138.000000 
0.000000 81.000000 139.000000 
0.000000 81.000000 140.000000 
0.000000 81.000000 141.000000 
0.000000 81.000000 142.000000 
0.000000 81.000000 143.000000 
0.000000 81.000000 144.000000 
0.000000 81.000000 145.000000 
0.000000 81.000000 146.000000 
0.000000 81.000000 147.000000 
0.000000 81.000000 148.000000 
0.000000 81.000000 149.000000 
0.000000 81.000000 150.000000 
0.000000 81.000000 151.000000 
0.000000 81.000000 152.000000 
0.000000 81.000000 153.000000 
0.000000 81.000000 154.000000 
0.000000 81.000000 155.000000 
0.000000 81.000000 156.000000 
0.000000 81.000000 157.000000 
0.000000 81.000000 158.000000 
0.000000 81.000000 159.000000 
0.000000 81.000000 160.000000 
0.000000 81.000000 161.000000 
0.000000 81.000000 162.000000 
0.000000 81.000000 163.000000 
0.000000 81.000000 164.000000 
0.000000 81.000000 165.000000 
0.000000 81.000000 166.000000 
0.000000 81.000000 167.000000 
0.000000 81.000000 168.000000 
0.000000 81.000000 169.000000 
0.000000 81.000000 170.000000 
0.000000 81.000000 171.000000 
0.000000 81.000000 172.000000 
0.000000 81.000000 173.000000 
0.000000 81.000000 174.000000 
0.000000 81.000000 175.000000 
0.000000 81.000000 176.000000 
0.000000 81.000000 177.000000 
0.000000 81.000000 178.000000 
0.000000 81.000000 179.000000 
0.000000 81.000000 180.000000 
0.000000 81.000000 181.000000 
0.000000 81.000000 182.000000 
0.000000 81.000000 183.000000 
0.000000 81.000000 184.000000 
0.000000 81.000000 185.000000 
0.000000 81.000000 186.000000 
0.000000 81.000000 187.000000 
0.000000 81.000000 188.000000 
0.000000 81.000000 189.000000 
0.000000 81.000000 190.000000 
0.000000 81.000000 191.000000 
0.000000 81.000000 192.000000 
0.000000 81.000000 193.000000 
0.000000 81.000000 194.000000 
0.000000 81.000000 195.000000 
0.000000 81.000000 196.000000 
0.000000 81.000000 197.000000 
0.000000 81.000000 198.000000 
0.000000 81.000000 199.000000 
0.000000 81.000000 200.000000 
0.000000 82.000000 0.000000 
0.000000 82.000000 1.000000 
0.000000 82.000000 2.000000 
0.000000 82.000000 3.000000 
0.000000 82.000000 4.000000 
0.000000 82.000000 5.000000 
0.000000 82.000000 6.000000 
0.000000 82.000000 7.000000 
0.000000 82.000000 8.000000 
0.000000 82.000000 9.000000 
0.000000 82.000000 10.000000 
0.000000 82.000000 11.000000 
0.000000 82.000000 12.000000 
0.000000 82.000000 13.000000 
0.000000 82.000000 14.000000 
0.000000 82.000000 15.000000 
0.000000 82.000000 16.000000 
0.000000 82.000000 17.000000 
0.000000 82.000000 18.000000 
0.000000 82.000000 19.000000 
0.000000 82.000000 20.000000 
0.000000 82.000000 21.000000 
0.000000 82.000000 22.000000 
0.000000 82.000000 23.000000 
0.000000 82.000000 24.000000 
0.000000 82.000000 25.000000 
0.000000 82.000000 26.000000 
0.000000 82.000000 27.000000 
0.000000 82.000000 28.000000 
0.000000 82.000000 29.000000 
0.000000 82.000000 30.000000 
0.000000 82.000000 31.000000 
0.000000 82.000000 32.000000 
0.000000 82.000000 33.000000 
0.000000 82.000000 34.000000 
0.000000 82.000000 35.000000 
0.000000 82.000000 36.000000 
0.000000 82.000000 37.000000 
0.000000 82.000000 38.000000 
0.000000 82.000000 39.000000 
0.000000 82.000000 40.000000 
0.000000 82.000000 41.000000 
0.000000 82.000000 42.000000 
0.000000 82.000000 43.000000 
0.000000 82.000000 44.000000 
0.000000 82.000000 45.000000 
0.000000 82.000000 46.000000 
0.000000 82.000000 47.000000 
0.000000 82.000000 48.000000 
0.000000 82.000000 49.000000 
0.000000 82.000000 50.000000 
0.000000 82.000000 51.000000 
0.000000 82.000000 52.000000 
0.000000 82.000000 53.000000 
0.000000 82.000000 54.000000 
0.000000 82.000000 55.000000 
0.000000 82.000000 56.000000 
0.000000 82.000000 57.000000 
0.000000 82.000000 58.000000 
0.000000 82.000000 59.000000 
0.000000 82.000000 60.000000 
0.000000 82.000000 61.000000 
0.000000 82.000000 62.000000 
0.000000 82.000000 63.000000 
0.000000 82.000000 64.000000 
0.000000 82.000000 65.000000 
0.000000 82.000000 66.000000 
0.000000 82.000000 67.000000 
0.000000 82.000000 68.000000 
0.000000 82.000000 69.000000 
0.000000 82.000000 70.000000 
0.000000 82.000000 71.000000 
0.000000 82.000000 72.000000 
0.000000 82.000000 73.000000 
0.000000 82.000000 74.000000 
0.000000 82.000000 75.000000 
0.000000 82.000000 76.000000 
0.000000 82.000000 77.000000 
0.000000 82.000000 78.000000 
0.000000 82.000000 79.000000 
0.000000 82.000000 80.000000 
0.000000 82.000000 81.000000 
0.000000 82.000000 82.000000 
0.000000 82.000000 83.000000 
0.000000 82.000000 84.000000 
0.000000 82.000000 85.000000 
0.000000 82.000000 86.000000 
0.000000 82.000000 87.000000 
0.000000 82.000000 88.000000 
0.000000 82.000000 89.000000 
0.000000 82.000000 90.000000 
0.000000 82.000000 91.000000 
0.000000 82.000000 92.000000 
0.000000 82.000000 93.000000 
0.000000 82.000000 94.000000 
0.000000 82.000000 95.000000 
0.000000 82.000000 96.000000 
0.000000 82.000000 97.000000 
0.000000 82.000000 98.000000 
0.000000 82.000000 99.000000 
0.000000 82.000000 100.000000 
0.000000 82.000000 101.000000 
0.000000 82.000000 102.000000 
0.000000 82.000000 103.000000 
0.000000 82.000000 104.000000 
0.000000 82.000000 105.000000 
0.000000 82.000000 106.000000 
0.000000 82.000000 107.000000 
0.000000 82.000000 108.000000 
0.000000 82.000000 109.000000 
0.000000 82.000000 110.000000 
0.000000 82.000000 111.000000 
0.000000 82.000000 112.000000 
0.000000 82.000000 113.000000 
0.000000 82.000000 114.000000 
0.000000 82.000000 115.000000 
0.000000 82.000000 116.000000 
0.000000 82.000000 117.000000 
0.000000 82.000000 118.000000 
0.000000 82.000000 119.000000 
0.000000 82.000000 120.000000 
0.000000 82.000000 121.000000 
0.000000 82.000000 122.000000 
0.000000 82.000000 123.000000 
0.000000 82.000000 124.000000 
0.000000 82.000000 125.000000 
0.000000 82.000000 126.000000 
0.000000 82.000000 127.000000 
0.000000 82.000000 128.000000 
0.000000 82.000000 129.000000 
0.000000 82.000000 130.000000 
0.000000 82.000000 131.000000 
0.000000 82.000000 132.000000 
0.000000 82.000000 133.000000 
0.000000 82.000000 134.000000 
0.000000 82.000000 135.000000 
0.000000 82.000000 136.000000 
0.000000 82.000000 137.000000 
0.000000 82.000000 138.000000 
0.000000 82.000000 139.000000 
0.000000 82.000000 140.000000 
0.000000 82.000000 141.000000 
0.000000 82.000000 142.000000 
0.000000 82.000000 143.000000 
0.000000 82.000000 144.000000 
0.000000 82.000000 145.000000 
0.000000 82.000000 146.000000 
0.000000 82.000000 147.000000 
0.000000 82.000000 148.000000 
0.000000 82.000000 149.000000 
0.000000 82.000000 150.000000 
0.000000 82.000000 151.000000 
0.000000 82.000000 152.000000 
0.000000 82.000000 153.000000 
0.000000 82.000000 154.000000 
0.000000 82.000000 155.000000 
0.000000 82.000000 156.000000 
0.000000 82.000000 157.000000 
0.000000 82.000000 158.000000 
0.000000 82.000000 159.000000 
0.000000 82.000000 160.000000 
0.000000 82.000000 161.000000 
0.000000 82.000000 162.000000 
0.000000 82.000000 163.000000 
0.000000 82.000000 164.000000 
0.000000 82.000000 165.000000 
0.000000 82.000000 166.000000 
0.000000 82.000000 167.000000 
0.000000 82.000000 168.000000 
0.000000 82.000000 169.000000 
0.000000 82.000000 170.000000 
0.000000 82.000000 171.000000 
0.000000 82.000000 172.000000 
0.000000 82.000000 173.000000 
0.000000 82.000000 174.000000 
0.000000 82.000000 175.000000 
0.000000 82.000000 176.000000 
0.000000 82.000000 177.000000 
0.000000 82.000000 178.000000 
0.000000 82.000000 179.000000 
0.000000 82.000000 180.000000 
0.000000 82.000000 181.000000 
0.000000 82.000000 182.000000 
0.000000 82.000000 183.000000 
0.000000 82.000000 184.000000 
0.000000 82.000000 185.000000 
0.000000 82.000000 186.000000 
0.000000 82.000000 187.000000 
0.000000 82.000000 188.000000 
0.000000 82.000000 189.000000 
0.000000 82.000000 190.000000 
0.000000 82.000000 191.000000 
0.000000 82.000000 192.000000 
0.000000 82.000000 193.000000 
0.000000 82.000000 194.000000 
0.000000 82.000000 195.000000 
0.000000 82.000000 196.000000 
0.000000 82.000000 197.000000 
0.000000 82.000000 198.000000 
0.000000 82.000000 199.000000 
0.000000 82.000000 200.000000 
0.000000 83.000000 0.000000 
0.000000 83.000000 1.000000 
0.000000 83.000000 2.000000 
0.000000 83.000000 3.000000 
0.000000 83.000000 4.000000 
0.000000 83.000000 5.000000 
0.000000 83.000000 6.000000 
0.000000 83.000000 7.000000 
0.000000 83.000000 8.000000 
0.000000 83.000000 9.000000 
0.000000 83.000000 10.000000 
0.000000 83.000000 11.000000 
0.000000 83.000000 12.000000 
0.000000 83.000000 13.000000 
0.000000 83.000000 14.000000 
0.000000 83.000000 15.000000 
0.000000 83.000000 16.000000 
0.000000 83.000000 17.000000 
0.000000 83.000000 18.000000 
0.000000 83.000000 19.000000 
0.000000 83.000000 20.000000 
0.000000 83.000000 21.000000 
0.000000 83.000000 22.000000 
0.000000 83.000000 23.000000 
0.000000 83.000000 24.000000 
0.000000 83.000000 25.000000 
0.000000 83.000000 26.000000 
0.000000 83.000000 27.000000 
0.000000 83.000000 28.000000 
0.000000 83.000000 29.000000 
0.000000 83.000000 30.000000 
0.000000 83.000000 31.000000 
0.000000 83.000000 32.000000 
0.000000 83.000000 33.000000 
0.000000 83.000000 34.000000 
0.000000 83.000000 35.000000 
0.000000 83.000000 36.000000 
0.000000 83.000000 37.000000 
0.000000 83.000000 38.000000 
0.000000 83.000000 39.000000 
0.000000 83.000000 40.000000 
0.000000 83.000000 41.000000 
0.000000 83.000000 42.000000 
0.000000 83.000000 43.000000 
0.000000 83.000000 44.000000 
0.000000 83.000000 45.000000 
0.000000 83.000000 46.000000 
0.000000 83.000000 47.000000 
0.000000 83.000000 48.000000 
0.000000 83.000000 49.000000 
0.000000 83.000000 50.000000 
0.000000 83.000000 51.000000 
0.000000 83.000000 52.000000 
0.000000 83.000000 53.000000 
0.000000 83.000000 54.000000 
0.000000 83.000000 55.000000 
0.000000 83.000000 56.000000 
0.000000 83.000000 57.000000 
0.000000 83.000000 58.000000 
0.000000 83.000000 59.000000 
0.000000 83.000000 60.000000 
0.000000 83.000000 61.000000 
0.000000 83.000000 62.000000 
0.000000 83.000000 63.000000 
0.000000 83.000000 64.000000 
0.000000 83.000000 65.000000 
0.000000 83.000000 66.000000 
0.000000 83.000000 67.000000 
0.000000 83.000000 68.000000 
0.000000 83.000000 69.000000 
0.000000 83.000000 70.000000 
0.000000 83.000000 71.000000 
0.000000 83.000000 72.000000 
0.000000 83.000000 73.000000 
0.000000 83.000000 74.000000 
0.000000 83.000000 75.000000 
0.000000 83.000000 76.000000 
0.000000 83.000000 77.000000 
0.000000 83.000000 78.000000 
0.000000 83.000000 79.000000 
0.000000 83.000000 80.000000 
0.000000 83.000000 81.000000 
0.000000 83.000000 82.000000 
0.000000 83.000000 83.000000 
0.000000 83.000000 84.000000 
0.000000 83.000000 85.000000 
0.000000 83.000000 86.000000 
0.000000 83.000000 87.000000 
0.000000 83.000000 88.000000 
0.000000 83.000000 89.000000 
0.000000 83.000000 90.000000 
0.000000 83.000000 91.000000 
0.000000 83.000000 92.000000 
0.000000 83.000000 93.000000 
0.000000 83.000000 94.000000 
0.000000 83.000000 95.000000 
0.000000 83.000000 96.000000 
0.000000 83.000000 97.000000 
0.000000 83.000000 98.000000 
0.000000 83.000000 99.000000 
0.000000 83.000000 100.000000 
0.000000 83.000000 101.000000 
0.000000 83.000000 102.000000 
0.000000 83.000000 103.000000 
0.000000 83.000000 104.000000 
0.000000 83.000000 105.000000 
0.000000 83.000000 106.000000 
0.000000 83.000000 107.000000 
0.000000 83.000000 108.000000 
0.000000 83.000000 109.000000 
0.000000 83.000000 110.000000 
0.000000 83.000000 111.000000 
0.000000 83.000000 112.000000 
0.000000 83.000000 113.000000 
0.000000 83.000000 114.000000 
0.000000 83.000000 115.000000 
0.000000 83.000000 116.000000 
0.000000 83.000000 117.000000 
0.000000 83.000000 118.000000 
0.000000 83.000000 119.000000 
0.000000 83.000000 120.000000 
0.000000 83.000000 121.000000 
0.000000 83.000000 122.000000 
0.000000 83.000000 123.000000 
0.000000 83.000000 124.000000 
0.000000 83.000000 125.000000 
0.000000 83.000000 126.000000 
0.000000 83.000000 127.000000 
0.000000 83.000000 128.000000 
0.000000 83.000000 129.000000 
0.000000 83.000000 130.000000 
0.000000 83.000000 131.000000 
0.000000 83.000000 132.000000 
0.000000 83.000000 133.000000 
0.000000 83.000000 134.000000 
0.000000 83.000000 135.000000 
0.000000 83.000000 136.000000 
0.000000 83.000000 137.000000 
0.000000 83.000000 138.000000 
0.000000 83.000000 139.000000 
0.000000 83.000000 140.000000 
0.000000 83.000000 141.000000 
0.000000 83.000000 142.000000 
0.000000 83.000000 143.000000 
0.000000 83.000000 144.000000 
0.000000 83.000000 145.000000 
0.000000 83.000000 146.000000 
0.000000 83.000000 147.000000 
0.000000 83.000000 148.000000 
0.000000 83.000000 149.000000 
0.000000 83.000000 150.000000 
0.000000 83.000000 151.000000 
0.000000 83.000000 152.000000 
0.000000 83.000000 153.000000 
0.000000 83.000000 154.000000 
0.000000 83.000000 155.000000 
0.000000 83.000000 156.000000 
0.000000 83.000000 157.000000 
0.000000 83.000000 158.000000 
0.000000 83.000000 159.000000 
0.000000 83.000000 160.000000 
0.000000 83.000000 161.000000 
0.000000 83.000000 162.000000 
0.000000 83.000000 163.000000 
0.000000 83.000000 164.000000 
0.000000 83.000000 165.000000 
0.000000 83.000000 166.000000 
0.000000 83.000000 167.000000 
0.000000 83.000000 168.000000 
0.000000 83.000000 169.000000 
0.000000 83.000000 170.000000 
0.000000 83.000000 171.000000 
0.000000 83.000000 172.000000 
0.000000 83.000000 173.000000 
0.000000 83.000000 174.000000 
0.000000 83.000000 175.000000 
0.000000 83.000000 176.000000 
0.000000 83.000000 177.000000 
0.000000 83.000000 178.000000 
0.000000 83.000000 179.000000 
0.000000 83.000000 180.000000 
0.000000 83.000000 181.000000 
0.000000 83.000000 182.000000 
0.000000 83.000000 183.000000 
0.000000 83.000000 184.000000 
0.000000 83.000000 185.000000 
0.000000 83.000000 186.000000 
0.000000 83.000000 187.000000 
0.000000 83.000000 188.000000 
0.000000 83.000000 189.000000 
0.000000 83.000000 190.000000 
0.000000 83.000000 191.000000 
0.000000 83.000000 192.000000 
0.000000 83.000000 193.000000 
0.000000 83.000000 194.000000 
0.000000 83.000000 195.000000 
0.000000 83.000000 196.000000 
0.000000 83.000000 197.000000 
0.000000 83.000000 198.000000 
0.000000 83.000000 199.000000 
0.000000 83.000000 200.000000 
0.000000 84.000000 0.000000 
0.000000 84.000000 1.000000 
0.000000 84.000000 2.000000 
0.000000 84.000000 3.000000 
0.000000 84.000000 4.000000 
0.000000 84.000000 5.000000 
0.000000 84.000000 6.000000 
0.000000 84.000000 7.000000 
0.000000 84.000000 8.000000 
0.000000 84.000000 9.000000 
0.000000 84.000000 10.000000 
0.000000 84.000000 11.000000 
0.000000 84.000000 12.000000 
0.000000 84.000000 13.000000 
0.000000 84.000000 14.000000 
0.000000 84.000000 15.000000 
0.000000 84.000000 16.000000 
0.000000 84.000000 17.000000 
0.000000 84.000000 18.000000 
0.000000 84.000000 19.000000 
0.000000 84.000000 20.000000 
0.000000 84.000000 21.000000 
0.000000 84.000000 22.000000 
0.000000 84.000000 23.000000 
0.000000 84.000000 24.000000 
0.000000 84.000000 25.000000 
0.000000 84.000000 26.000000 
0.000000 84.000000 27.000000 
0.000000 84.000000 28.000000 
0.000000 84.000000 29.000000 
0.000000 84.000000 30.000000 
0.000000 84.000000 31.000000 
0.000000 84.000000 32.000000 
0.000000 84.000000 33.000000 
0.000000 84.000000 34.000000 
0.000000 84.000000 35.000000 
0.000000 84.000000 36.000000 
0.000000 84.000000 37.000000 
0.000000 84.000000 38.000000 
0.000000 84.000000 39.000000 
0.000000 84.000000 40.000000 
0.000000 84.000000 41.000000 
0.000000 84.000000 42.000000 
0.000000 84.000000 43.000000 
0.000000 84.000000 44.000000 
0.000000 84.000000 45.000000 
0.000000 84.000000 46.000000 
0.000000 84.000000 47.000000 
0.000000 84.000000 48.000000 
0.000000 84.000000 49.000000 
0.000000 84.000000 50.000000 
0.000000 84.000000 51.000000 
0.000000 84.000000 52.000000 
0.000000 84.000000 53.000000 
0.000000 84.000000 54.000000 
0.000000 84.000000 55.000000 
0.000000 84.000000 56.000000 
0.000000 84.000000 57.000000 
0.000000 84.000000 58.000000 
0.000000 84.000000 59.000000 
0.000000 84.000000 60.000000 
0.000000 84.000000 61.000000 
0.000000 84.000000 62.000000 
0.000000 84.000000 63.000000 
0.000000 84.000000 64.000000 
0.000000 84.000000 65.000000 
0.000000 84.000000 66.000000 
0.000000 84.000000 67.000000 
0.000000 84.000000 68.000000 
0.000000 84.000000 69.000000 
0.000000 84.000000 70.000000 
0.000000 84.000000 71.000000 
0.000000 84.000000 72.000000 
0.000000 84.000000 73.000000 
0.000000 84.000000 74.000000 
0.000000 84.000000 75.000000 
0.000000 84.000000 76.000000 
0.000000 84.000000 77.000000 
0.000000 84.000000 78.000000 
0.000000 84.000000 79.000000 
0.000000 84.000000 80.000000 
0.000000 84.000000 81.000000 
0.000000 84.000000 82.000000 
0.000000 84.000000 83.000000 
0.000000 84.000000 84.000000 
0.000000 84.000000 85.000000 
0.000000 84.000000 86.000000 
0.000000 84.000000 87.000000 
0.000000 84.000000 88.000000 
0.000000 84.000000 89.000000 
0.000000 84.000000 90.000000 
0.000000 84.000000 91.000000 
0.000000 84.000000 92.000000 
0.000000 84.000000 93.000000 
0.000000 84.000000 94.000000 
0.000000 84.000000 95.000000 
0.000000 84.000000 96.000000 
0.000000 84.000000 97.000000 
0.000000 84.000000 98.000000 
0.000000 84.000000 99.000000 
0.000000 84.000000 100.000000 
0.000000 84.000000 101.000000 
0.000000 84.000000 102.000000 
0.000000 84.000000 103.000000 
0.000000 84.000000 104.000000 
0.000000 84.000000 105.000000 
0.000000 84.000000 106.000000 
0.000000 84.000000 107.000000 
0.000000 84.000000 108.000000 
0.000000 84.000000 109.000000 
0.000000 84.000000 110.000000 
0.000000 84.000000 111.000000 
0.000000 84.000000 112.000000 
0.000000 84.000000 113.000000 
0.000000 84.000000 114.000000 
0.000000 84.000000 115.000000 
0.000000 84.000000 116.000000 
0.000000 84.000000 117.000000 
0.000000 84.000000 118.000000 
0.000000 84.000000 119.000000 
0.000000 84.000000 120.000000 
0.000000 84.000000 121.000000 
0.000000 84.000000 122.000000 
0.000000 84.000000 123.000000 
0.000000 84.000000 124.000000 
0.000000 84.000000 125.000000 
0.000000 84.000000 126.000000 
0.000000 84.000000 127.000000 
0.000000 84.000000 128.000000 
0.000000 84.000000 129.000000 
0.000000 84.000000 130.000000 
0.000000 84.000000 131.000000 
0.000000 84.000000 132.000000 
0.000000 84.000000 133.000000 
0.000000 84.000000 134.000000 
0.000000 84.000000 135.000000 
0.000000 84.000000 136.000000 
0.000000 84.000000 137.000000 
0.000000 84.000000 138.000000 
0.000000 84.000000 139.000000 
0.000000 84.000000 140.000000 
0.000000 84.000000 141.000000 
0.000000 84.000000 142.000000 
0.000000 84.000000 143.000000 
0.000000 84.000000 144.000000 
0.000000 84.000000 145.000000 
0.000000 84.000000 146.000000 
0.000000 84.000000 147.000000 
0.000000 84.000000 148.000000 
0.000000 84.000000 149.000000 
0.000000 84.000000 150.000000 
0.000000 84.000000 151.000000 
0.000000 84.000000 152.000000 
0.000000 84.000000 153.000000 
0.000000 84.000000 154.000000 
0.000000 84.000000 155.000000 
0.000000 84.000000 156.000000 
0.000000 84.000000 157.000000 
0.000000 84.000000 158.000000 
0.000000 84.000000 159.000000 
0.000000 84.000000 160.000000 
0.000000 84.000000 161.000000 
0.000000 84.000000 162.000000 
0.000000 84.000000 163.000000 
0.000000 84.000000 164.000000 
0.000000 84.000000 165.000000 
0.000000 84.000000 166.000000 
0.000000 84.000000 167.000000 
0.000000 84.000000 168.000000 
0.000000 84.000000 169.000000 
0.000000 84.000000 170.000000 
0.000000 84.000000 171.000000 
0.000000 84.000000 172.000000 
0.000000 84.000000 173.000000 
0.000000 84.000000 174.000000 
0.000000 84.000000 175.000000 
0.000000 84.000000 176.000000 
0.000000 84.000000 177.000000 
0.000000 84.000000 178.000000 
0.000000 84.000000 179.000000 
0.000000 84.000000 180.000000 
0.000000 84.000000 181.000000 
0.000000 84.000000 182.000000 
0.000000 84.000000 183.000000 
0.000000 84.000000 184.000000 
0.000000 84.000000 185.000000 
0.000000 84.000000 186.000000 
0.000000 84.000000 187.000000 
0.000000 84.000000 188.000000 
0.000000 84.000000 189.000000 
0.000000 84.000000 190.000000 
0.000000 84.000000 191.000000 
0.000000 84.000000 192.000000 
0.000000 84.000000 193.000000 
0.000000 84.000000 194.000000 
0.000000 84.000000 195.000000 
0.000000 84.000000 196.000000 
0.000000 84.000000 197.000000 
0.000000 84.000000 198.000000 
0.000000 84.000000 199.000000 
0.000000 84.000000 200.000000 
0.000000 85.000000 0.000000 
0.000000 85.000000 1.000000 
0.000000 85.000000 2.000000 
0.000000 85.000000 3.000000 
0.000000 85.000000 4.000000 
0.000000 85.000000 5.000000 
0.000000 85.000000 6.000000 
0.000000 85.000000 7.000000 
0.000000 85.000000 8.000000 
0.000000 85.000000 9.000000 
0.000000 85.000000 10.000000 
0.000000 85.000000 11.000000 
0.000000 85.000000 12.000000 
0.000000 85.000000 13.000000 
0.000000 85.000000 14.000000 
0.000000 85.000000 15.000000 
0.000000 85.000000 16.000000 
0.000000 85.000000 17.000000 
0.000000 85.000000 18.000000 
0.000000 85.000000 19.000000 
0.000000 85.000000 20.000000 
0.000000 85.000000 21.000000 
0.000000 85.000000 22.000000 
0.000000 85.000000 23.000000 
0.000000 85.000000 24.000000 
0.000000 85.000000 25.000000 
0.000000 85.000000 26.000000 
0.000000 85.000000 27.000000 
0.000000 85.000000 28.000000 
0.000000 85.000000 29.000000 
0.000000 85.000000 30.000000 
0.000000 85.000000 31.000000 
0.000000 85.000000 32.000000 
0.000000 85.000000 33.000000 
0.000000 85.000000 34.000000 
0.000000 85.000000 35.000000 
0.000000 85.000000 36.000000 
0.000000 85.000000 37.000000 
0.000000 85.000000 38.000000 
0.000000 85.000000 39.000000 
0.000000 85.000000 40.000000 
0.000000 85.000000 41.000000 
0.000000 85.000000 42.000000 
0.000000 85.000000 43.000000 
0.000000 85.000000 44.000000 
0.000000 85.000000 45.000000 
0.000000 85.000000 46.000000 
0.000000 85.000000 47.000000 
0.000000 85.000000 48.000000 
0.000000 85.000000 49.000000 
0.000000 85.000000 50.000000 
0.000000 85.000000 51.000000 
0.000000 85.000000 52.000000 
0.000000 85.000000 53.000000 
0.000000 85.000000 54.000000 
0.000000 85.000000 55.000000 
0.000000 85.000000 56.000000 
0.000000 85.000000 57.000000 
0.000000 85.000000 58.000000 
0.000000 85.000000 59.000000 
0.000000 85.000000 60.000000 
0.000000 85.000000 61.000000 
0.000000 85.000000 62.000000 
0.000000 85.000000 63.000000 
0.000000 85.000000 64.000000 
0.000000 85.000000 65.000000 
0.000000 85.000000 66.000000 
0.000000 85.000000 67.000000 
0.000000 85.000000 68.000000 
0.000000 85.000000 69.000000 
0.000000 85.000000 70.000000 
0.000000 85.000000 71.000000 
0.000000 85.000000 72.000000 
0.000000 85.000000 73.000000 
0.000000 85.000000 74.000000 
0.000000 85.000000 75.000000 
0.000000 85.000000 76.000000 
0.000000 85.000000 77.000000 
0.000000 85.000000 78.000000 
0.000000 85.000000 79.000000 
0.000000 85.000000 80.000000 
0.000000 85.000000 81.000000 
0.000000 85.000000 82.000000 
0.000000 85.000000 83.000000 
0.000000 85.000000 84.000000 
0.000000 85.000000 85.000000 
0.000000 85.000000 86.000000 
0.000000 85.000000 87.000000 
0.000000 85.000000 88.000000 
0.000000 85.000000 89.000000 
0.000000 85.000000 90.000000 
0.000000 85.000000 91.000000 
0.000000 85.000000 92.000000 
0.000000 85.000000 93.000000 
0.000000 85.000000 94.000000 
0.000000 85.000000 95.000000 
0.000000 85.000000 96.000000 
0.000000 85.000000 97.000000 
0.000000 85.000000 98.000000 
0.000000 85.000000 99.000000 
0.000000 85.000000 100.000000 
0.000000 85.000000 101.000000 
0.000000 85.000000 102.000000 
0.000000 85.000000 103.000000 
0.000000 85.000000 104.000000 
0.000000 85.000000 105.000000 
0.000000 85.000000 106.000000 
0.000000 85.000000 107.000000 
0.000000 85.000000 108.000000 
0.000000 85.000000 109.000000 
0.000000 85.000000 110.000000 
0.000000 85.000000 111.000000 
0.000000 85.000000 112.000000 
0.000000 85.000000 113.000000 
0.000000 85.000000 114.000000 
0.000000 85.000000 115.000000 
0.000000 85.000000 116.000000 
0.000000 85.000000 117.000000 
0.000000 85.000000 118.000000 
0.000000 85.000000 119.000000 
0.000000 85.000000 120.000000 
0.000000 85.000000 121.000000 
0.000000 85.000000 122.000000 
0.000000 85.000000 123.000000 
0.000000 85.000000 124.000000 
0.000000 85.000000 125.000000 
0.000000 85.000000 126.000000 
0.000000 85.000000 127.000000 
0.000000 85.000000 128.000000 
0.000000 85.000000 129.000000 
0.000000 85.000000 130.000000 
0.000000 85.000000 131.000000 
0.000000 85.000000 132.000000 
0.000000 85.000000 133.000000 
0.000000 85.000000 134.000000 
0.000000 85.000000 135.000000 
0.000000 85.000000 136.000000 
0.000000 85.000000 137.000000 
0.000000 85.000000 138.000000 
0.000000 85.000000 139.000000 
0.000000 85.000000 140.000000 
0.000000 85.000000 141.000000 
0.000000 85.000000 142.000000 
0.000000 85.000000 143.000000 
0.000000 85.000000 144.000000 
0.000000 85.000000 145.000000 
0.000000 85.000000 146.000000 
0.000000 85.000000 147.000000 
0.000000 85.000000 148.000000 
0.000000 85.000000 149.000000 
0.000000 85.000000 150.000000 
0.000000 85.000000 151.000000 
0.000000 85.000000 152.000000 
0.000000 85.000000 153.000000 
0.000000 85.000000 154.000000 
0.000000 85.000000 155.000000 
0.000000 85.000000 156.000000 
0.000000 85.000000 157.000000 
0.000000 85.000000 158.000000 
0.000000 85.000000 159.000000 
0.000000 85.000000 160.000000 
0.000000 85.000000 161.000000 
0.000000 85.000000 162.000000 
0.000000 85.000000 163.000000 
0.000000 85.000000 164.000000 
0.000000 85.000000 165.000000 
0.000000 85.000000 166.000000 
0.000000 85.000000 167.000000 
0.000000 85.000000 168.000000 
0.000000 85.000000 169.000000 
0.000000 85.000000 170.000000 
0.000000 85.000000 171.000000 
0.000000 85.000000 172.000000 
0.000000 85.000000 173.000000 
0.000000 85.000000 174.000000 
0.000000 85.000000 175.000000 
0.000000 85.000000 176.000000 
0.000000 85.000000 177.000000 
0.000000 85.000000 178.000000 
0.000000 85.000000 179.000000 
0.000000 85.000000 180.000000 
0.000000 85.000000 181.000000 
0.000000 85.000000 182.000000 
0.000000 85.000000 183.000000 
0.000000 85.000000 184.000000 
0.000000 85.000000 185.000000 
0.000000 85.000000 186.000000 
0.000000 85.000000 187.000000 
0.000000 85.000000 188.000000 
0.000000 85.000000 189.000000 
0.000000 85.000000 190.000000 
0.000000 85.000000 191.000000 
0.000000 85.000000 192.000000 
0.000000 85.000000 193.000000 
0.000000 85.000000 194.000000 
0.000000 85.000000 195.000000 
0.000000 85.000000 196.000000 
0.000000 85.000000 197.000000 
0.000000 85.000000 198.000000 
0.000000 85.000000 199.000000 
0.000000 85.000000 200.000000 
0.000000 86.000000 0.000000 
0.000000 86.000000 1.000000 
0.000000 86.000000 2.000000 
0.000000 86.000000 3.000000 
0.000000 86.000000 4.000000 
0.000000 86.000000 5.000000 
0.000000 86.000000 6.000000 
0.000000 86.000000 7.000000 
0.000000 86.000000 8.000000 
0.000000 86.000000 9.000000 
0.000000 86.000000 10.000000 
0.000000 86.000000 11.000000 
0.000000 86.000000 12.000000 
0.000000 86.000000 13.000000 
0.000000 86.000000 14.000000 
0.000000 86.000000 15.000000 
0.000000 86.000000 16.000000 
0.000000 86.000000 17.000000 
0.000000 86.000000 18.000000 
0.000000 86.000000 19.000000 
0.000000 86.000000 20.000000 
0.000000 86.000000 21.000000 
0.000000 86.000000 22.000000 
0.000000 86.000000 23.000000 
0.000000 86.000000 24.000000 
0.000000 86.000000 25.000000 
0.000000 86.000000 26.000000 
0.000000 86.000000 27.000000 
0.000000 86.000000 28.000000 
0.000000 86.000000 29.000000 
0.000000 86.000000 30.000000 
0.000000 86.000000 31.000000 
0.000000 86.000000 32.000000 
0.000000 86.000000 33.000000 
0.000000 86.000000 34.000000 
0.000000 86.000000 35.000000 
0.000000 86.000000 36.000000 
0.000000 86.000000 37.000000 
0.000000 86.000000 38.000000 
0.000000 86.000000 39.000000 
0.000000 86.000000 40.000000 
0.000000 86.000000 41.000000 
0.000000 86.000000 42.000000 
0.000000 86.000000 43.000000 
0.000000 86.000000 44.000000 
0.000000 86.000000 45.000000 
0.000000 86.000000 46.000000 
0.000000 86.000000 47.000000 
0.000000 86.000000 48.000000 
0.000000 86.000000 49.000000 
0.000000 86.000000 50.000000 
0.000000 86.000000 51.000000 
0.000000 86.000000 52.000000 
0.000000 86.000000 53.000000 
0.000000 86.000000 54.000000 
0.000000 86.000000 55.000000 
0.000000 86.000000 56.000000 
0.000000 86.000000 57.000000 
0.000000 86.000000 58.000000 
0.000000 86.000000 59.000000 
0.000000 86.000000 60.000000 
0.000000 86.000000 61.000000 
0.000000 86.000000 62.000000 
0.000000 86.000000 63.000000 
0.000000 86.000000 64.000000 
0.000000 86.000000 65.000000 
0.000000 86.000000 66.000000 
0.000000 86.000000 67.000000 
0.000000 86.000000 68.000000 
0.000000 86.000000 69.000000 
0.000000 86.000000 70.000000 
0.000000 86.000000 71.000000 
0.000000 86.000000 72.000000 
0.000000 86.000000 73.000000 
0.000000 86.000000 74.000000 
0.000000 86.000000 75.000000 
0.000000 86.000000 76.000000 
0.000000 86.000000 77.000000 
0.000000 86.000000 78.000000 
0.000000 86.000000 79.000000 
0.000000 86.000000 80.000000 
0.000000 86.000000 81.000000 
0.000000 86.000000 82.000000 
0.000000 86.000000 83.000000 
0.000000 86.000000 84.000000 
0.000000 86.000000 85.000000 
0.000000 86.000000 86.000000 
0.000000 86.000000 87.000000 
0.000000 86.000000 88.000000 
0.000000 86.000000 89.000000 
0.000000 86.000000 90.000000 
0.000000 86.000000 91.000000 
0.000000 86.000000 92.000000 
0.000000 86.000000 93.000000 
0.000000 86.000000 94.000000 
0.000000 86.000000 95.000000 
0.000000 86.000000 96.000000 
0.000000 86.000000 97.000000 
0.000000 86.000000 98.000000 
0.000000 86.000000 99.000000 
0.000000 86.000000 100.000000 
0.000000 86.000000 101.000000 
0.000000 86.000000 102.000000 
0.000000 86.000000 103.000000 
0.000000 86.000000 104.000000 
0.000000 86.000000 105.000000 
0.000000 86.000000 106.000000 
0.000000 86.000000 107.000000 
0.000000 86.000000 108.000000 
0.000000 86.000000 109.000000 
0.000000 86.000000 110.000000 
0.000000 86.000000 111.000000 
0.000000 86.000000 112.000000 
0.000000 86.000000 113.000000 
0.000000 86.000000 114.000000 
0.000000 86.000000 115.000000 
0.000000 86.000000 116.000000 
0.000000 86.000000 117.000000 
0.000000 86.000000 118.000000 
0.000000 86.000000 119.000000 
0.000000 86.000000 120.000000 
0.000000 86.000000 121.000000 
0.000000 86.000000 122.000000 
0.000000 86.000000 123.000000 
0.000000 86.000000 124.000000 
0.000000 86.000000 125.000000 
0.000000 86.000000 126.000000 
0.000000 86.000000 127.000000 
0.000000 86.000000 128.000000 
0.000000 86.000000 129.000000 
0.000000 86.000000 130.000000 
0.000000 86.000000 131.000000 
0.000000 86.000000 132.000000 
0.000000 86.000000 133.000000 
0.000000 86.000000 134.000000 
0.000000 86.000000 135.000000 
0.000000 86.000000 136.000000 
0.000000 86.000000 137.000000 
0.000000 86.000000 138.000000 
0.000000 86.000000 139.000000 
0.000000 86.000000 140.000000 
0.000000 86.000000 141.000000 
0.000000 86.000000 142.000000 
0.000000 86.000000 143.000000 
0.000000 86.000000 144.000000 
0.000000 86.000000 145.000000 
0.000000 86.000000 146.000000 
0.000000 86.000000 147.000000 
0.000000 86.000000 148.000000 
0.000000 86.000000 149.000000 
0.000000 86.000000 150.000000 
0.000000 86.000000 151.000000 
0.000000 86.000000 152.000000 
0.000000 86.000000 153.000000 
0.000000 86.000000 154.000000 
0.000000 86.000000 155.000000 
0.000000 86.000000 156.000000 
0.000000 86.000000 157.000000 
0.000000 86.000000 158.000000 
0.000000 86.000000 159.000000 
0.000000 86.000000 160.000000 
0.000000 86.000000 161.000000 
0.000000 86.000000 162.000000 
0.000000 86.000000 163.000000 
0.000000 86.000000 164.000000 
0.000000 86.000000 165.000000 
0.000000 86.000000 166.000000 
0.000000 86.000000 167.000000 
0.000000 86.000000 168.000000 
0.000000 86.000000 169.000000 
0.000000 86.000000 170.000000 
0.000000 86.000000 171.000000 
0.000000 86.000000 172.000000 
0.000000 86.000000 173.000000 
0.000000 86.000000 174.000000 
0.000000 86.000000 175.000000 
0.000000 86.000000 176.000000 
0.000000 86.000000 177.000000 
0.000000 86.000000 178.000000 
0.000000 86.000000 179.000000 
0.000000 86.000000 180.000000 
0.000000 86.000000 181.000000 
0.000000 86.000000 182.000000 
0.000000 86.000000 183.000000 
0.000000 86.000000 184.000000 
0.000000 86.000000 185.000000 
0.000000 86.000000 186.000000 
0.000000 86.000000 187.000000 
0.000000 86.000000 188.000000 
0.000000 86.000000 189.000000 
0.000000 86.000000 190.000000 
0.000000 86.000000 191.000000 
0.000000 86.000000 192.000000 
0.000000 86.000000 193.000000 
0.000000 86.000000 194.000000 
0.000000 86.000000 195.000000 
0.000000 86.000000 196.000000 
0.000000 86.000000 197.000000 
0.000000 86.000000 198.000000 
0.000000 86.000000 199.000000 
0.000000 86.000000 200.000000 
0.000000 87.000000 0.000000 
0.000000 87.000000 1.000000 
0.000000 87.000000 2.000000 
0.000000 87.000000 3.000000 
0.000000 87.000000 4.000000 
0.000000 87.000000 5.000000 
0.000000 87.000000 6.000000 
0.000000 87.000000 7.000000 
0.000000 87.000000 8.000000 
0.000000 87.000000 9.000000 
0.000000 87.000000 10.000000 
0.000000 87.000000 11.000000 
0.000000 87.000000 12.000000 
0.000000 87.000000 13.000000 
0.000000 87.000000 14.000000 
0.000000 87.000000 15.000000 
0.000000 87.000000 16.000000 
0.000000 87.000000 17.000000 
0.000000 87.000000 18.000000 
0.000000 87.000000 19.000000 
0.000000 87.000000 20.000000 
0.000000 87.000000 21.000000 
0.000000 87.000000 22.000000 
0.000000 87.000000 23.000000 
0.000000 87.000000 24.000000 
0.000000 87.000000 25.000000 
0.000000 87.000000 26.000000 
0.000000 87.000000 27.000000 
0.000000 87.000000 28.000000 
0.000000 87.000000 29.000000 
0.000000 87.000000 30.000000 
0.000000 87.000000 31.000000 
0.000000 87.000000 32.000000 
0.000000 87.000000 33.000000 
0.000000 87.000000 34.000000 
0.000000 87.000000 35.000000 
0.000000 87.000000 36.000000 
0.000000 87.000000 37.000000 
0.000000 87.000000 38.000000 
0.000000 87.000000 39.000000 
0.000000 87.000000 40.000000 
0.000000 87.000000 41.000000 
0.000000 87.000000 42.000000 
0.000000 87.000000 43.000000 
0.000000 87.000000 44.000000 
0.000000 87.000000 45.000000 
0.000000 87.000000 46.000000 
0.000000 87.000000 47.000000 
0.000000 87.000000 48.000000 
0.000000 87.000000 49.000000 
0.000000 87.000000 50.000000 
0.000000 87.000000 51.000000 
0.000000 87.000000 52.000000 
0.000000 87.000000 53.000000 
0.000000 87.000000 54.000000 
0.000000 87.000000 55.000000 
0.000000 87.000000 56.000000 
0.000000 87.000000 57.000000 
0.000000 87.000000 58.000000 
0.000000 87.000000 59.000000 
0.000000 87.000000 60.000000 
0.000000 87.000000 61.000000 
0.000000 87.000000 62.000000 
0.000000 87.000000 63.000000 
0.000000 87.000000 64.000000 
0.000000 87.000000 65.000000 
0.000000 87.000000 66.000000 
0.000000 87.000000 67.000000 
0.000000 87.000000 68.000000 
0.000000 87.000000 69.000000 
0.000000 87.000000 70.000000 
0.000000 87.000000 71.000000 
0.000000 87.000000 72.000000 
0.000000 87.000000 73.000000 
0.000000 87.000000 74.000000 
0.000000 87.000000 75.000000 
0.000000 87.000000 76.000000 
0.000000 87.000000 77.000000 
0.000000 87.000000 78.000000 
0.000000 87.000000 79.000000 
0.000000 87.000000 80.000000 
0.000000 87.000000 81.000000 
0.000000 87.000000 82.000000 
0.000000 87.000000 83.000000 
0.000000 87.000000 84.000000 
0.000000 87.000000 85.000000 
0.000000 87.000000 86.000000 
0.000000 87.000000 87.000000 
0.000000 87.000000 88.000000 
0.000000 87.000000 89.000000 
0.000000 87.000000 90.000000 
0.000000 87.000000 91.000000 
0.000000 87.000000 92.000000 
0.000000 87.000000 93.000000 
0.000000 87.000000 94.000000 
0.000000 87.000000 95.000000 
0.000000 87.000000 96.000000 
0.000000 87.000000 97.000000 
0.000000 87.000000 98.000000 
0.000000 87.000000 99.000000 
0.000000 87.000000 100.000000 
0.000000 87.000000 101.000000 
0.000000 87.000000 102.000000 
0.000000 87.000000 103.000000 
0.000000 87.000000 104.000000 
0.000000 87.000000 105.000000 
0.000000 87.000000 106.000000 
0.000000 87.000000 107.000000 
0.000000 87.000000 108.000000 
0.000000 87.000000 109.000000 
0.000000 87.000000 110.000000 
0.000000 87.000000 111.000000 
0.000000 87.000000 112.000000 
0.000000 87.000000 113.000000 
0.000000 87.000000 114.000000 
0.000000 87.000000 115.000000 
0.000000 87.000000 116.000000 
0.000000 87.000000 117.000000 
0.000000 87.000000 118.000000 
0.000000 87.000000 119.000000 
0.000000 87.000000 120.000000 
0.000000 87.000000 121.000000 
0.000000 87.000000 122.000000 
0.000000 87.000000 123.000000 
0.000000 87.000000 124.000000 
0.000000 87.000000 125.000000 
0.000000 87.000000 126.000000 
0.000000 87.000000 127.000000 
0.000000 87.000000 128.000000 
0.000000 87.000000 129.000000 
0.000000 87.000000 130.000000 
0.000000 87.000000 131.000000 
0.000000 87.000000 132.000000 
0.000000 87.000000 133.000000 
0.000000 87.000000 134.000000 
0.000000 87.000000 135.000000 
0.000000 87.000000 136.000000 
0.000000 87.000000 137.000000 
0.000000 87.000000 138.000000 
0.000000 87.000000 139.000000 
0.000000 87.000000 140.000000 
0.000000 87.000000 141.000000 
0.000000 87.000000 142.000000 
0.000000 87.000000 143.000000 
0.000000 87.000000 144.000000 
0.000000 87.000000 145.000000 
0.000000 87.000000 146.000000 
0.000000 87.000000 147.000000 
0.000000 87.000000 148.000000 
0.000000 87.000000 149.000000 
0.000000 87.000000 150.000000 
0.000000 87.000000 151.000000 
0.000000 87.000000 152.000000 
0.000000 87.000000 153.000000 
0.000000 87.000000 154.000000 
0.000000 87.000000 155.000000 
0.000000 87.000000 156.000000 
0.000000 87.000000 157.000000 
0.000000 87.000000 158.000000 
0.000000 87.000000 159.000000 
0.000000 87.000000 160.000000 
0.000000 87.000000 161.000000 
0.000000 87.000000 162.000000 
0.000000 87.000000 163.000000 
0.000000 87.000000 164.000000 
0.000000 87.000000 165.000000 
0.000000 87.000000 166.000000 
0.000000 87.000000 167.000000 
0.000000 87.000000 168.000000 
0.000000 87.000000 169.000000 
0.000000 87.000000 170.000000 
0.000000 87.000000 171.000000 
0.000000 87.000000 172.000000 
0.000000 87.000000 173.000000 
0.000000 87.000000 174.000000 
0.000000 87.000000 175.000000 
0.000000 87.000000 176.000000 
0.000000 87.000000 177.000000 
0.000000 87.000000 178.000000 
0.000000 87.000000 179.000000 
0.000000 87.000000 180.000000 
0.000000 87.000000 181.000000 
0.000000 87.000000 182.000000 
0.000000 87.000000 183.000000 
0.000000 87.000000 184.000000 
0.000000 87.000000 185.000000 
0.000000 87.000000 186.000000 
0.000000 87.000000 187.000000 
0.000000 87.000000 188.000000 
0.000000 87.000000 189.000000 
0.000000 87.000000 190.000000 
0.000000 87.000000 191.000000 
0.000000 87.000000 192.000000 
0.000000 87.000000 193.000000 
0.000000 87.000000 194.000000 
0.000000 87.000000 195.000000 
0.000000 87.000000 196.000000 
0.000000 87.000000 197.000000 
0.000000 87.000000 198.000000 
0.000000 87.000000 199.000000 
0.000000 87.000000 200.000000 
0.000000 88.000000 0.000000 
0.000000 88.000000 1.000000 
0.000000 88.000000 2.000000 
0.000000 88.000000 3.000000 
0.000000 88.000000 4.000000 
0.000000 88.000000 5.000000 
0.000000 88.000000 6.000000 
0.000000 88.000000 7.000000 
0.000000 88.000000 8.000000 
0.000000 88.000000 9.000000 
0.000000 88.000000 10.000000 
0.000000 88.000000 11.000000 
0.000000 88.000000 12.000000 
0.000000 88.000000 13.000000 
0.000000 88.000000 14.000000 
0.000000 88.000000 15.000000 
0.000000 88.000000 16.000000 
0.000000 88.000000 17.000000 
0.000000 88.000000 18.000000 
0.000000 88.000000 19.000000 
0.000000 88.000000 20.000000 
0.000000 88.000000 21.000000 
0.000000 88.000000 22.000000 
0.000000 88.000000 23.000000 
0.000000 88.000000 24.000000 
0.000000 88.000000 25.000000 
0.000000 88.000000 26.000000 
0.000000 88.000000 27.000000 
0.000000 88.000000 28.000000 
0.000000 88.000000 29.000000 
0.000000 88.000000 30.000000 
0.000000 88.000000 31.000000 
0.000000 88.000000 32.000000 
0.000000 88.000000 33.000000 
0.000000 88.000000 34.000000 
0.000000 88.000000 35.000000 
0.000000 88.000000 36.000000 
0.000000 88.000000 37.000000 
0.000000 88.000000 38.000000 
0.000000 88.000000 39.000000 
0.000000 88.000000 40.000000 
0.000000 88.000000 41.000000 
0.000000 88.000000 42.000000 
0.000000 88.000000 43.000000 
0.000000 88.000000 44.000000 
0.000000 88.000000 45.000000 
0.000000 88.000000 46.000000 
0.000000 88.000000 47.000000 
0.000000 88.000000 48.000000 
0.000000 88.000000 49.000000 
0.000000 88.000000 50.000000 
0.000000 88.000000 51.000000 
0.000000 88.000000 52.000000 
0.000000 88.000000 53.000000 
0.000000 88.000000 54.000000 
0.000000 88.000000 55.000000 
0.000000 88.000000 56.000000 
0.000000 88.000000 57.000000 
0.000000 88.000000 58.000000 
0.000000 88.000000 59.000000 
0.000000 88.000000 60.000000 
0.000000 88.000000 61.000000 
0.000000 88.000000 62.000000 
0.000000 88.000000 63.000000 
0.000000 88.000000 64.000000 
0.000000 88.000000 65.000000 
0.000000 88.000000 66.000000 
0.000000 88.000000 67.000000 
0.000000 88.000000 68.000000 
0.000000 88.000000 69.000000 
0.000000 88.000000 70.000000 
0.000000 88.000000 71.000000 
0.000000 88.000000 72.000000 
0.000000 88.000000 73.000000 
0.000000 88.000000 74.000000 
0.000000 88.000000 75.000000 
0.000000 88.000000 76.000000 
0.000000 88.000000 77.000000 
0.000000 88.000000 78.000000 
0.000000 88.000000 79.000000 
0.000000 88.000000 80.000000 
0.000000 88.000000 81.000000 
0.000000 88.000000 82.000000 
0.000000 88.000000 83.000000 
0.000000 88.000000 84.000000 
0.000000 88.000000 85.000000 
0.000000 88.000000 86.000000 
0.000000 88.000000 87.000000 
0.000000 88.000000 88.000000 
0.000000 88.000000 89.000000 
0.000000 88.000000 90.000000 
0.000000 88.000000 91.000000 
0.000000 88.000000 92.000000 
0.000000 88.000000 93.000000 
0.000000 88.000000 94.000000 
0.000000 88.000000 95.000000 
0.000000 88.000000 96.000000 
0.000000 88.000000 97.000000 
0.000000 88.000000 98.000000 
0.000000 88.000000 99.000000 
0.000000 88.000000 100.000000 
0.000000 88.000000 101.000000 
0.000000 88.000000 102.000000 
0.000000 88.000000 103.000000 
0.000000 88.000000 104.000000 
0.000000 88.000000 105.000000 
0.000000 88.000000 106.000000 
0.000000 88.000000 107.000000 
0.000000 88.000000 108.000000 
0.000000 88.000000 109.000000 
0.000000 88.000000 110.000000 
0.000000 88.000000 111.000000 
0.000000 88.000000 112.000000 
0.000000 88.000000 113.000000 
0.000000 88.000000 114.000000 
0.000000 88.000000 115.000000 
0.000000 88.000000 116.000000 
0.000000 88.000000 117.000000 
0.000000 88.000000 118.000000 
0.000000 88.000000 119.000000 
0.000000 88.000000 120.000000 
0.000000 88.000000 121.000000 
0.000000 88.000000 122.000000 
0.000000 88.000000 123.000000 
0.000000 88.000000 124.000000 
0.000000 88.000000 125.000000 
0.000000 88.000000 126.000000 
0.000000 88.000000 127.000000 
0.000000 88.000000 128.000000 
0.000000 88.000000 129.000000 
0.000000 88.000000 130.000000 
0.000000 88.000000 131.000000 
0.000000 88.000000 132.000000 
0.000000 88.000000 133.000000 
0.000000 88.000000 134.000000 
0.000000 88.000000 135.000000 
0.000000 88.000000 136.000000 
0.000000 88.000000 137.000000 
0.000000 88.000000 138.000000 
0.000000 88.000000 139.000000 
0.000000 88.000000 140.000000 
0.000000 88.000000 141.000000 
0.000000 88.000000 142.000000 
0.000000 88.000000 143.000000 
0.000000 88.000000 144.000000 
0.000000 88.000000 145.000000 
0.000000 88.000000 146.000000 
0.000000 88.000000 147.000000 
0.000000 88.000000 148.000000 
0.000000 88.000000 149.000000 
0.000000 88.000000 150.000000 
0.000000 88.000000 151.000000 
0.000000 88.000000 152.000000 
0.000000 88.000000 153.000000 
0.000000 88.000000 154.000000 
0.000000 88.000000 155.000000 
0.000000 88.000000 156.000000 
0.000000 88.000000 157.000000 
0.000000 88.000000 158.000000 
0.000000 88.000000 159.000000 
0.000000 88.000000 160.000000 
0.000000 88.000000 161.000000 
0.000000 88.000000 162.000000 
0.000000 88.000000 163.000000 
0.000000 88.000000 164.000000 
0.000000 88.000000 165.000000 
0.000000 88.000000 166.000000 
0.000000 88.000000 167.000000 
0.000000 88.000000 168.000000 
0.000000 88.000000 169.000000 
0.000000 88.000000 170.000000 
0.000000 88.000000 171.000000 
0.000000 88.000000 172.000000 
0.000000 88.000000 173.000000 
0.000000 88.000000 174.000000 
0.000000 88.000000 175.000000 
0.000000 88.000000 176.000000 
0.000000 88.000000 177.000000 
0.000000 88.000000 178.000000 
0.000000 88.000000 179.000000 
0.000000 88.000000 180.000000 
0.000000 88.000000 181.000000 
0.000000 88.000000 182.000000 
0.000000 88.000000 183.000000 
0.000000 88.000000 184.000000 
0.000000 88.000000 185.000000 
0.000000 88.000000 186.000000 
0.000000 88.000000 187.000000 
0.000000 88.000000 188.000000 
0.000000 88.000000 189.000000 
0.000000 88.000000 190.000000 
0.000000 88.000000 191.000000 
0.000000 88.000000 192.000000 
0.000000 88.000000 193.000000 
0.000000 88.000000 194.000000 
0.000000 88.000000 195.000000 
0.000000 88.000000 196.000000 
0.000000 88.000000 197.000000 
0.000000 88.000000 198.000000 
0.000000 88.000000 199.000000 
0.000000 88.000000 200.000000 
0.000000 89.000000 0.000000 
0.000000 89.000000 1.000000 
0.000000 89.000000 2.000000 
0.000000 89.000000 3.000000 
0.000000 89.000000 4.000000 
0.000000 89.000000 5.000000 
0.000000 89.000000 6.000000 
0.000000 89.000000 7.000000 
0.000000 89.000000 8.000000 
0.000000 89.000000 9.000000 
0.000000 89.000000 10.000000 
0.000000 89.000000 11.000000 
0.000000 89.000000 12.000000 
0.000000 89.000000 13.000000 
0.000000 89.000000 14.000000 
0.000000 89.000000 15.000000 
0.000000 89.000000 16.000000 
0.000000 89.000000 17.000000 
0.000000 89.000000 18.000000 
0.000000 89.000000 19.000000 
0.000000 89.000000 20.000000 
0.000000 89.000000 21.000000 
0.000000 89.000000 22.000000 
0.000000 89.000000 23.000000 
0.000000 89.000000 24.000000 
0.000000 89.000000 25.000000 
0.000000 89.000000 26.000000 
0.000000 89.000000 27.000000 
0.000000 89.000000 28.000000 
0.000000 89.000000 29.000000 
0.000000 89.000000 30.000000 
0.000000 89.000000 31.000000 
0.000000 89.000000 32.000000 
0.000000 89.000000 33.000000 
0.000000 89.000000 34.000000 
0.000000 89.000000 35.000000 
0.000000 89.000000 36.000000 
0.000000 89.000000 37.000000 
0.000000 89.000000 38.000000 
0.000000 89.000000 39.000000 
0.000000 89.000000 40.000000 
0.000000 89.000000 41.000000 
0.000000 89.000000 42.000000 
0.000000 89.000000 43.000000 
0.000000 89.000000 44.000000 
0.000000 89.000000 45.000000 
0.000000 89.000000 46.000000 
0.000000 89.000000 47.000000 
0.000000 89.000000 48.000000 
0.000000 89.000000 49.000000 
0.000000 89.000000 50.000000 
0.000000 89.000000 51.000000 
0.000000 89.000000 52.000000 
0.000000 89.000000 53.000000 
0.000000 89.000000 54.000000 
0.000000 89.000000 55.000000 
0.000000 89.000000 56.000000 
0.000000 89.000000 57.000000 
0.000000 89.000000 58.000000 
0.000000 89.000000 59.000000 
0.000000 89.000000 60.000000 
0.000000 89.000000 61.000000 
0.000000 89.000000 62.000000 
0.000000 89.000000 63.000000 
0.000000 89.000000 64.000000 
0.000000 89.000000 65.000000 
0.000000 89.000000 66.000000 
0.000000 89.000000 67.000000 
0.000000 89.000000 68.000000 
0.000000 89.000000 69.000000 
0.000000 89.000000 70.000000 
0.000000 89.000000 71.000000 
0.000000 89.000000 72.000000 
0.000000 89.000000 73.000000 
0.000000 89.000000 74.000000 
0.000000 89.000000 75.000000 
0.000000 89.000000 76.000000 
0.000000 89.000000 77.000000 
0.000000 89.000000 78.000000 
0.000000 89.000000 79.000000 
0.000000 89.000000 80.000000 
0.000000 89.000000 81.000000 
0.000000 89.000000 82.000000 
0.000000 89.000000 83.000000 
0.000000 89.000000 84.000000 
0.000000 89.000000 85.000000 
0.000000 89.000000 86.000000 
0.000000 89.000000 87.000000 
0.000000 89.000000 88.000000 
0.000000 89.000000 89.000000 
0.000000 89.000000 90.000000 
0.000000 89.000000 91.000000 
0.000000 89.000000 92.000000 
0.000000 89.000000 93.000000 
0.000000 89.000000 94.000000 
0.000000 89.000000 95.000000 
0.000000 89.000000 96.000000 
0.000000 89.000000 97.000000 
0.000000 89.000000 98.000000 
0.000000 89.000000 99.000000 
0.000000 89.000000 100.000000 
0.000000 89.000000 101.000000 
0.000000 89.000000 102.000000 
0.000000 89.000000 103.000000 
0.000000 89.000000 104.000000 
0.000000 89.000000 105.000000 
0.000000 89.000000 106.000000 
0.000000 89.000000 107.000000 
0.000000 89.000000 108.000000 
0.000000 89.000000 109.000000 
0.000000 89.000000 110.000000 
0.000000 89.000000 111.000000 
0.000000 89.000000 112.000000 
0.000000 89.000000 113.000000 
0.000000 89.000000 114.000000 
0.000000 89.000000 115.000000 
0.000000 89.000000 116.000000 
0.000000 89.000000 117.000000 
0.000000 89.000000 118.000000 
0.000000 89.000000 119.000000 
0.000000 89.000000 120.000000 
0.000000 89.000000 121.000000 
0.000000 89.000000 122.000000 
0.000000 89.000000 123.000000 
0.000000 89.000000 124.000000 
0.000000 89.000000 125.000000 
0.000000 89.000000 126.000000 
0.000000 89.000000 127.000000 
0.000000 89.000000 128.000000 
0.000000 89.000000 129.000000 
0.000000 89.000000 130.000000 
0.000000 89.000000 131.000000 
0.000000 89.000000 132.000000 
0.000000 89.000000 133.000000 
0.000000 89.000000 134.000000 
0.000000 89.000000 135.000000 
0.000000 89.000000 136.000000 
0.000000 89.000000 137.000000 
0.000000 89.000000 138.000000 
0.000000 89.000000 139.000000 
0.000000 89.000000 140.000000 
0.000000 89.000000 141.000000 
0.000000 89.000000 142.000000 
0.000000 89.000000 143.000000 
0.000000 89.000000 144.000000 
0.000000 89.000000 145.000000 
0.000000 89.000000 146.000000 
0.000000 89.000000 147.000000 
0.000000 89.000000 148.000000 
0.000000 89.000000 149.000000 
0.000000 89.000000 150.000000 
0.000000 89.000000 151.000000 
0.000000 89.000000 152.000000 
0.000000 89.000000 153.000000 
0.000000 89.000000 154.000000 
0.000000 89.000000 155.000000 
0.000000 89.000000 156.000000 
0.000000 89.000000 157.000000 
0.000000 89.000000 158.000000 
0.000000 89.000000 159.000000 
0.000000 89.000000 160.000000 
0.000000 89.000000 161.000000 
0.000000 89.000000 162.000000 
0.000000 89.000000 163.000000 
0.000000 89.000000 164.000000 
0.000000 89.000000 165.000000 
0.000000 89.000000 166.000000 
0.000000 89.000000 167.000000 
0.000000 89.000000 168.000000 
0.000000 89.000000 169.000000 
0.000000 89.000000 170.000000 
0.000000 89.000000 171.000000 
0.000000 89.000000 172.000000 
0.000000 89.000000 173.000000 
0.000000 89.000000 174.000000 
0.000000 89.000000 175.000000 
0.000000 89.000000 176.000000 
0.000000 89.000000 177.000000 
0.000000 89.000000 178.000000 
0.000000 89.000000 179.000000 
0.000000 89.000000 180.000000 
0.000000 89.000000 181.000000 
0.000000 89.000000 182.000000 
0.000000 89.000000 183.000000 
0.000000 89.000000 184.000000 
0.000000 89.000000 185.000000 
0.000000 89.000000 186.000000 
0.000000 89.000000 187.000000 
0.000000 89.000000 188.000000 
0.000000 89.000000 189.000000 
0.000000 89.000000 190.000000 
0.000000 89.000000 191.000000 
0.000000 89.000000 192.000000 
0.000000 89.000000 193.000000 
0.000000 89.000000 194.000000 
0.000000 89.000000 195.000000 
0.000000 89.000000 196.000000 
0.000000 89.000000 197.000000 
0.000000 89.000000 198.000000 
0.000000 89.000000 199.000000 
0.000000 89.000000 200.000000 
0.000000 90.000000 0.000000 
0.000000 90.000000 1.000000 
0.000000 90.000000 2.000000 
0.000000 90.000000 3.000000 
0.000000 90.000000 4.000000 
0.000000 90.000000 5.000000 
0.000000 90.000000 6.000000 
0.000000 90.000000 7.000000 
0.000000 90.000000 8.000000 
0.000000 90.000000 9.000000 
0.000000 90.000000 10.000000 
0.000000 90.000000 11.000000 
0.000000 90.000000 12.000000 
0.000000 90.000000 13.000000 
0.000000 90.000000 14.000000 
0.000000 90.000000 15.000000 
0.000000 90.000000 16.000000 
0.000000 90.000000 17.000000 
0.000000 90.000000 18.000000 
0.000000 90.000000 19.000000 
0.000000 90.000000 20.000000 
0.000000 90.000000 21.000000 
0.000000 90.000000 22.000000 
0.000000 90.000000 23.000000 
0.000000 90.000000 24.000000 
0.000000 90.000000 25.000000 
0.000000 90.000000 26.000000 
0.000000 90.000000 27.000000 
0.000000 90.000000 28.000000 
0.000000 90.000000 29.000000 
0.000000 90.000000 30.000000 
0.000000 90.000000 31.000000 
0.000000 90.000000 32.000000 
0.000000 90.000000 33.000000 
0.000000 90.000000 34.000000 
0.000000 90.000000 35.000000 
0.000000 90.000000 36.000000 
0.000000 90.000000 37.000000 
0.000000 90.000000 38.000000 
0.000000 90.000000 39.000000 
0.000000 90.000000 40.000000 
0.000000 90.000000 41.000000 
0.000000 90.000000 42.000000 
0.000000 90.000000 43.000000 
0.000000 90.000000 44.000000 
0.000000 90.000000 45.000000 
0.000000 90.000000 46.000000 
0.000000 90.000000 47.000000 
0.000000 90.000000 48.000000 
0.000000 90.000000 49.000000 
0.000000 90.000000 50.000000 
0.000000 90.000000 51.000000 
0.000000 90.000000 52.000000 
0.000000 90.000000 53.000000 
0.000000 90.000000 54.000000 
0.000000 90.000000 55.000000 
0.000000 90.000000 56.000000 
0.000000 90.000000 57.000000 
0.000000 90.000000 58.000000 
0.000000 90.000000 59.000000 
0.000000 90.000000 60.000000 
0.000000 90.000000 61.000000 
0.000000 90.000000 62.000000 
0.000000 90.000000 63.000000 
0.000000 90.000000 64.000000 
0.000000 90.000000 65.000000 
0.000000 90.000000 66.000000 
0.000000 90.000000 67.000000 
0.000000 90.000000 68.000000 
0.000000 90.000000 69.000000 
0.000000 90.000000 70.000000 
0.000000 90.000000 71.000000 
0.000000 90.000000 72.000000 
0.000000 90.000000 73.000000 
0.000000 90.000000 74.000000 
0.000000 90.000000 75.000000 
0.000000 90.000000 76.000000 
0.000000 90.000000 77.000000 
0.000000 90.000000 78.000000 
0.000000 90.000000 79.000000 
0.000000 90.000000 80.000000 
0.000000 90.000000 81.000000 
0.000000 90.000000 82.000000 
0.000000 90.000000 83.000000 
0.000000 90.000000 84.000000 
0.000000 90.000000 85.000000 
0.000000 90.000000 86.000000 
0.000000 90.000000 87.000000 
0.000000 90.000000 88.000000 
0.000000 90.000000 89.000000 
0.000000 90.000000 90.000000 
0.000000 90.000000 91.000000 
0.000000 90.000000 92.000000 
0.000000 90.000000 93.000000 
0.000000 90.000000 94.000000 
0.000000 90.000000 95.000000 
0.000000 90.000000 96.000000 
0.000000 90.000000 97.000000 
0.000000 90.000000 98.000000 
0.000000 90.000000 99.000000 
0.000000 90.000000 100.000000 
0.000000 90.000000 101.000000 
0.000000 90.000000 102.000000 
0.000000 90.000000 103.000000 
0.000000 90.000000 104.000000 
0.000000 90.000000 105.000000 
0.000000 90.000000 106.000000 
0.000000 90.000000 107.000000 
0.000000 90.000000 108.000000 
0.000000 90.000000 109.000000 
0.000000 90.000000 110.000000 
0.000000 90.000000 111.000000 
0.000000 90.000000 112.000000 
0.000000 90.000000 113.000000 
0.000000 90.000000 114.000000 
0.000000 90.000000 115.000000 
0.000000 90.000000 116.000000 
0.000000 90.000000 117.000000 
0.000000 90.000000 118.000000 
0.000000 90.000000 119.000000 
0.000000 90.000000 120.000000 
0.000000 90.000000 121.000000 
0.000000 90.000000 122.000000 
0.000000 90.000000 123.000000 
0.000000 90.000000 124.000000 
0.000000 90.000000 125.000000 
0.000000 90.000000 126.000000 
0.000000 90.000000 127.000000 
0.000000 90.000000 128.000000 
0.000000 90.000000 129.000000 
0.000000 90.000000 130.000000 
0.000000 90.000000 131.000000 
0.000000 90.000000 132.000000 
0.000000 90.000000 133.000000 
0.000000 90.000000 134.000000 
0.000000 90.000000 135.000000 
0.000000 90.000000 136.000000 
0.000000 90.000000 137.000000 
0.000000 90.000000 138.000000 
0.000000 90.000000 139.000000 
0.000000 90.000000 140.000000 
0.000000 90.000000 141.000000 
0.000000 90.000000 142.000000 
0.000000 90.000000 143.000000 
0.000000 90.000000 144.000000 
0.000000 90.000000 145.000000 
0.000000 90.000000 146.000000 
0.000000 90.000000 147.000000 
0.000000 90.000000 148.000000 
0.000000 90.000000 149.000000 
0.000000 90.000000 150.000000 
0.000000 90.000000 151.000000 
0.000000 90.000000 152.000000 
0.000000 90.000000 153.000000 
0.000000 90.000000 154.000000 
0.000000 90.000000 155.000000 
0.000000 90.000000 156.000000 
0.000000 90.000000 157.000000 
0.000000 90.000000 158.000000 
0.000000 90.000000 159.000000 
0.000000 90.000000 160.000000 
0.000000 90.000000 161.000000 
0.000000 90.000000 162.000000 
0.000000 90.000000 163.000000 
0.000000 90.000000 164.000000 
0.000000 90.000000 165.000000 
0.000000 90.000000 166.000000 
0.000000 90.000000 167.000000 
0.000000 90.000000 168.000000 
0.000000 90.000000 169.000000 
0.000000 90.000000 170.000000 
0.000000 90.000000 171.000000 
0.000000 90.000000 172.000000 
0.000000 90.000000 173.000000 
0.000000 90.000000 174.000000 
0.000000 90.000000 175.000000 
0.000000 90.000000 176.000000 
0.000000 90.000000 177.000000 
0.000000 90.000000 178.000000 
0.000000 90.000000 179.000000 
0.000000 90.000000 180.000000 
0.000000 90.000000 181.000000 
0.000000 90.000000 182.000000 
0.000000 90.000000 183.000000 
0.000000 90.000000 184.000000 
0.000000 90.000000 185.000000 
0.000000 90.000000 186.000000 
0.000000 90.000000 187.000000 
0.000000 90.000000 188.000000 
0.000000 90.000000 189.000000 
0.000000 90.000000 190.000000 
0.000000 90.000000 191.000000 
0.000000 90.000000 192.000000 
0.000000 90.000000 193.000000 
0.000000 90.000000 194.000000 
0.000000 90.000000 195.000000 
0.000000 90.000000 196.000000 
0.000000 90.000000 197.000000 
0.000000 90.000000 198.000000 
0.000000 90.000000 199.000000 
0.000000 90.000000 200.000000 
0.000000 91.000000 0.000000 
0.000000 91.000000 1.000000 
0.000000 91.000000 2.000000 
0.000000 91.000000 3.000000 
0.000000 91.000000 4.000000 
0.000000 91.000000 5.000000 
0.000000 91.000000 6.000000 
0.000000 91.000000 7.000000 
0.000000 91.000000 8.000000 
0.000000 91.000000 9.000000 
0.000000 91.000000 10.000000 
0.000000 91.000000 11.000000 
0.000000 91.000000 12.000000 
0.000000 91.000000 13.000000 
0.000000 91.000000 14.000000 
0.000000 91.000000 15.000000 
0.000000 91.000000 16.000000 
0.000000 91.000000 17.000000 
0.000000 91.000000 18.000000 
0.000000 91.000000 19.000000 
0.000000 91.000000 20.000000 
0.000000 91.000000 21.000000 
0.000000 91.000000 22.000000 
0.000000 91.000000 23.000000 
0.000000 91.000000 24.000000 
0.000000 91.000000 25.000000 
0.000000 91.000000 26.000000 
0.000000 91.000000 27.000000 
0.000000 91.000000 28.000000 
0.000000 91.000000 29.000000 
0.000000 91.000000 30.000000 
0.000000 91.000000 31.000000 
0.000000 91.000000 32.000000 
0.000000 91.000000 33.000000 
0.000000 91.000000 34.000000 
0.000000 91.000000 35.000000 
0.000000 91.000000 36.000000 
0.000000 91.000000 37.000000 
0.000000 91.000000 38.000000 
0.000000 91.000000 39.000000 
0.000000 91.000000 40.000000 
0.000000 91.000000 41.000000 
0.000000 91.000000 42.000000 
0.000000 91.000000 43.000000 
0.000000 91.000000 44.000000 
0.000000 91.000000 45.000000 
0.000000 91.000000 46.000000 
0.000000 91.000000 47.000000 
0.000000 91.000000 48.000000 
0.000000 91.000000 49.000000 
0.000000 91.000000 50.000000 
0.000000 91.000000 51.000000 
0.000000 91.000000 52.000000 
0.000000 91.000000 53.000000 
0.000000 91.000000 54.000000 
0.000000 91.000000 55.000000 
0.000000 91.000000 56.000000 
0.000000 91.000000 57.000000 
0.000000 91.000000 58.000000 
0.000000 91.000000 59.000000 
0.000000 91.000000 60.000000 
0.000000 91.000000 61.000000 
0.000000 91.000000 62.000000 
0.000000 91.000000 63.000000 
0.000000 91.000000 64.000000 
0.000000 91.000000 65.000000 
0.000000 91.000000 66.000000 
0.000000 91.000000 67.000000 
0.000000 91.000000 68.000000 
0.000000 91.000000 69.000000 
0.000000 91.000000 70.000000 
0.000000 91.000000 71.000000 
0.000000 91.000000 72.000000 
0.000000 91.000000 73.000000 
0.000000 91.000000 74.000000 
0.000000 91.000000 75.000000 
0.000000 91.000000 76.000000 
0.000000 91.000000 77.000000 
0.000000 91.000000 78.000000 
0.000000 91.000000 79.000000 
0.000000 91.000000 80.000000 
0.000000 91.000000 81.000000 
0.000000 91.000000 82.000000 
0.000000 91.000000 83.000000 
0.000000 91.000000 84.000000 
0.000000 91.000000 85.000000 
0.000000 91.000000 86.000000 
0.000000 91.000000 87.000000 
0.000000 91.000000 88.000000 
0.000000 91.000000 89.000000 
0.000000 91.000000 90.000000 
0.000000 91.000000 91.000000 
0.000000 91.000000 92.000000 
0.000000 91.000000 93.000000 
0.000000 91.000000 94.000000 
0.000000 91.000000 95.000000 
0.000000 91.000000 96.000000 
0.000000 91.000000 97.000000 
0.000000 91.000000 98.000000 
0.000000 91.000000 99.000000 
0.000000 91.000000 100.000000 
0.000000 91.000000 101.000000 
0.000000 91.000000 102.000000 
0.000000 91.000000 103.000000 
0.000000 91.000000 104.000000 
0.000000 91.000000 105.000000 
0.000000 91.000000 106.000000 
0.000000 91.000000 107.000000 
0.000000 91.000000 108.000000 
0.000000 91.000000 109.000000 
0.000000 91.000000 110.000000 
0.000000 91.000000 111.000000 
0.000000 91.000000 112.000000 
0.000000 91.000000 113.000000 
0.000000 91.000000 114.000000 
0.000000 91.000000 115.000000 
0.000000 91.000000 116.000000 
0.000000 91.000000 117.000000 
0.000000 91.000000 118.000000 
0.000000 91.000000 119.000000 
0.000000 91.000000 120.000000 
0.000000 91.000000 121.000000 
0.000000 91.000000 122.000000 
0.000000 91.000000 123.000000 
0.000000 91.000000 124.000000 
0.000000 91.000000 125.000000 
0.000000 91.000000 126.000000 
0.000000 91.000000 127.000000 
0.000000 91.000000 128.000000 
0.000000 91.000000 129.000000 
0.000000 91.000000 130.000000 
0.000000 91.000000 131.000000 
0.000000 91.000000 132.000000 
0.000000 91.000000 133.000000 
0.000000 91.000000 134.000000 
0.000000 91.000000 135.000000 
0.000000 91.000000 136.000000 
0.000000 91.000000 137.000000 
0.000000 91.000000 138.000000 
0.000000 91.000000 139.000000 
0.000000 91.000000 140.000000 
0.000000 91.000000 141.000000 
0.000000 91.000000 142.000000 
0.000000 91.000000 143.000000 
0.000000 91.000000 144.000000 
0.000000 91.000000 145.000000 
0.000000 91.000000 146.000000 
0.000000 91.000000 147.000000 
0.000000 91.000000 148.000000 
0.000000 91.000000 149.000000 
0.000000 91.000000 150.000000 
0.000000 91.000000 151.000000 
0.000000 91.000000 152.000000 
0.000000 91.000000 153.000000 
0.000000 91.000000 154.000000 
0.000000 91.000000 155.000000 
0.000000 91.000000 156.000000 
0.000000 91.000000 157.000000 
0.000000 91.000000 158.000000 
0.000000 91.000000 159.000000 
0.000000 91.000000 160.000000 
0.000000 91.000000 161.000000 
0.000000 91.000000 162.000000 
0.000000 91.000000 163.000000 
0.000000 91.000000 164.000000 
0.000000 91.000000 165.000000 
0.000000 91.000000 166.000000 
0.000000 91.000000 167.000000 
0.000000 91.000000 168.000000 
0.000000 91.000000 169.000000 
0.000000 91.000000 170.000000 
0.000000 91.000000 171.000000 
0.000000 91.000000 172.000000 
0.000000 91.000000 173.000000 
0.000000 91.000000 174.000000 
0.000000 91.000000 175.000000 
0.000000 91.000000 176.000000 
0.000000 91.000000 177.000000 
0.000000 91.000000 178.000000 
0.000000 91.000000 179.000000 
0.000000 91.000000 180.000000 
0.000000 91.000000 181.000000 
0.000000 91.000000 182.000000 
0.000000 91.000000 183.000000 
0.000000 91.000000 184.000000 
0.000000 91.000000 185.000000 
0.000000 91.000000 186.000000 
0.000000 91.000000 187.000000 
0.000000 91.000000 188.000000 
0.000000 91.000000 189.000000 
0.000000 91.000000 190.000000 
0.000000 91.000000 191.000000 
0.000000 91.000000 192.000000 
0.000000 91.000000 193.000000 
0.000000 91.000000 194.000000 
0.000000 91.000000 195.000000 
0.000000 91.000000 196.000000 
0.000000 91.000000 197.000000 
0.000000 91.000000 198.000000 
0.000000 91.000000 199.000000 
0.000000 91.000000 200.000000 
0.000000 92.000000 0.000000 
0.000000 92.000000 1.000000 
0.000000 92.000000 2.000000 
0.000000 92.000000 3.000000 
0.000000 92.000000 4.000000 
0.000000 92.000000 5.000000 
0.000000 92.000000 6.000000 
0.000000 92.000000 7.000000 
0.000000 92.000000 8.000000 
0.000000 92.000000 9.000000 
0.000000 92.000000 10.000000 
0.000000 92.000000 11.000000 
0.000000 92.000000 12.000000 
0.000000 92.000000 13.000000 
0.000000 92.000000 14.000000 
0.000000 92.000000 15.000000 
0.000000 92.000000 16.000000 
0.000000 92.000000 17.000000 
0.000000 92.000000 18.000000 
0.000000 92.000000 19.000000 
0.000000 92.000000 20.000000 
0.000000 92.000000 21.000000 
0.000000 92.000000 22.000000 
0.000000 92.000000 23.000000 
0.000000 92.000000 24.000000 
0.000000 92.000000 25.000000 
0.000000 92.000000 26.000000 
0.000000 92.000000 27.000000 
0.000000 92.000000 28.000000 
0.000000 92.000000 29.000000 
0.000000 92.000000 30.000000 
0.000000 92.000000 31.000000 
0.000000 92.000000 32.000000 
0.000000 92.000000 33.000000 
0.000000 92.000000 34.000000 
0.000000 92.000000 35.000000 
0.000000 92.000000 36.000000 
0.000000 92.000000 37.000000 
0.000000 92.000000 38.000000 
0.000000 92.000000 39.000000 
0.000000 92.000000 40.000000 
0.000000 92.000000 41.000000 
0.000000 92.000000 42.000000 
0.000000 92.000000 43.000000 
0.000000 92.000000 44.000000 
0.000000 92.000000 45.000000 
0.000000 92.000000 46.000000 
0.000000 92.000000 47.000000 
0.000000 92.000000 48.000000 
0.000000 92.000000 49.000000 
0.000000 92.000000 50.000000 
0.000000 92.000000 51.000000 
0.000000 92.000000 52.000000 
0.000000 92.000000 53.000000 
0.000000 92.000000 54.000000 
0.000000 92.000000 55.000000 
0.000000 92.000000 56.000000 
0.000000 92.000000 57.000000 
0.000000 92.000000 58.000000 
0.000000 92.000000 59.000000 
0.000000 92.000000 60.000000 
0.000000 92.000000 61.000000 
0.000000 92.000000 62.000000 
0.000000 92.000000 63.000000 
0.000000 92.000000 64.000000 
0.000000 92.000000 65.000000 
0.000000 92.000000 66.000000 
0.000000 92.000000 67.000000 
0.000000 92.000000 68.000000 
0.000000 92.000000 69.000000 
0.000000 92.000000 70.000000 
0.000000 92.000000 71.000000 
0.000000 92.000000 72.000000 
0.000000 92.000000 73.000000 
0.000000 92.000000 74.000000 
0.000000 92.000000 75.000000 
0.000000 92.000000 76.000000 
0.000000 92.000000 77.000000 
0.000000 92.000000 78.000000 
0.000000 92.000000 79.000000 
0.000000 92.000000 80.000000 
0.000000 92.000000 81.000000 
0.000000 92.000000 82.000000 
0.000000 92.000000 83.000000 
0.000000 92.000000 84.000000 
0.000000 92.000000 85.000000 
0.000000 92.000000 86.000000 
0.000000 92.000000 87.000000 
0.000000 92.000000 88.000000 
0.000000 92.000000 89.000000 
0.000000 92.000000 90.000000 
0.000000 92.000000 91.000000 
0.000000 92.000000 92.000000 
0.000000 92.000000 93.000000 
0.000000 92.000000 94.000000 
0.000000 92.000000 95.000000 
0.000000 92.000000 96.000000 
0.000000 92.000000 97.000000 
0.000000 92.000000 98.000000 
0.000000 92.000000 99.000000 
0.000000 92.000000 100.000000 
0.000000 92.000000 101.000000 
0.000000 92.000000 102.000000 
0.000000 92.000000 103.000000 
0.000000 92.000000 104.000000 
0.000000 92.000000 105.000000 
0.000000 92.000000 106.000000 
0.000000 92.000000 107.000000 
0.000000 92.000000 108.000000 
0.000000 92.000000 109.000000 
0.000000 92.000000 110.000000 
0.000000 92.000000 111.000000 
0.000000 92.000000 112.000000 
0.000000 92.000000 113.000000 
0.000000 92.000000 114.000000 
0.000000 92.000000 115.000000 
0.000000 92.000000 116.000000 
0.000000 92.000000 117.000000 
0.000000 92.000000 118.000000 
0.000000 92.000000 119.000000 
0.000000 92.000000 120.000000 
0.000000 92.000000 121.000000 
0.000000 92.000000 122.000000 
0.000000 92.000000 123.000000 
0.000000 92.000000 124.000000 
0.000000 92.000000 125.000000 
0.000000 92.000000 126.000000 
0.000000 92.000000 127.000000 
0.000000 92.000000 128.000000 
0.000000 92.000000 129.000000 
0.000000 92.000000 130.000000 
0.000000 92.000000 131.000000 
0.000000 92.000000 132.000000 
0.000000 92.000000 133.000000 
0.000000 92.000000 134.000000 
0.000000 92.000000 135.000000 
0.000000 92.000000 136.000000 
0.000000 92.000000 137.000000 
0.000000 92.000000 138.000000 
0.000000 92.000000 139.000000 
0.000000 92.000000 140.000000 
0.000000 92.000000 141.000000 
0.000000 92.000000 142.000000 
0.000000 92.000000 143.000000 
0.000000 92.000000 144.000000 
0.000000 92.000000 145.000000 
0.000000 92.000000 146.000000 
0.000000 92.000000 147.000000 
0.000000 92.000000 148.000000 
0.000000 92.000000 149.000000 
0.000000 92.000000 150.000000 
0.000000 92.000000 151.000000 
0.000000 92.000000 152.000000 
0.000000 92.000000 153.000000 
0.000000 92.000000 154.000000 
0.000000 92.000000 155.000000 
0.000000 92.000000 156.000000 
0.000000 92.000000 157.000000 
0.000000 92.000000 158.000000 
0.000000 92.000000 159.000000 
0.000000 92.000000 160.000000 
0.000000 92.000000 161.000000 
0.000000 92.000000 162.000000 
0.000000 92.000000 163.000000 
0.000000 92.000000 164.000000 
0.000000 92.000000 165.000000 
0.000000 92.000000 166.000000 
0.000000 92.000000 167.000000 
0.000000 92.000000 168.000000 
0.000000 92.000000 169.000000 
0.000000 92.000000 170.000000 
0.000000 92.000000 171.000000 
0.000000 92.000000 172.000000 
0.000000 92.000000 173.000000 
0.000000 92.000000 174.000000 
0.000000 92.000000 175.000000 
0.000000 92.000000 176.000000 
0.000000 92.000000 177.000000 
0.000000 92.000000 178.000000 
0.000000 92.000000 179.000000 
0.000000 92.000000 180.000000 
0.000000 92.000000 181.000000 
0.000000 92.000000 182.000000 
0.000000 92.000000 183.000000 
0.000000 92.000000 184.000000 
0.000000 92.000000 185.000000 
0.000000 92.000000 186.000000 
0.000000 92.000000 187.000000 
0.000000 92.000000 188.000000 
0.000000 92.000000 189.000000 
0.000000 92.000000 190.000000 
0.000000 92.000000 191.000000 
0.000000 92.000000 192.000000 
0.000000 92.000000 193.000000 
0.000000 92.000000 194.000000 
0.000000 92.000000 195.000000 
0.000000 92.000000 196.000000 
0.000000 92.000000 197.000000 
0.000000 92.000000 198.000000 
0.000000 92.000000 199.000000 
0.000000 92.000000 200.000000 
0.000000 93.000000 0.000000 
0.000000 93.000000 1.000000 
0.000000 93.000000 2.000000 
0.000000 93.000000 3.000000 
0.000000 93.000000 4.000000 
0.000000 93.000000 5.000000 
0.000000 93.000000 6.000000 
0.000000 93.000000 7.000000 
0.000000 93.000000 8.000000 
0.000000 93.000000 9.000000 
0.000000 93.000000 10.000000 
0.000000 93.000000 11.000000 
0.000000 93.000000 12.000000 
0.000000 93.000000 13.000000 
0.000000 93.000000 14.000000 
0.000000 93.000000 15.000000 
0.000000 93.000000 16.000000 
0.000000 93.000000 17.000000 
0.000000 93.000000 18.000000 
0.000000 93.000000 19.000000 
0.000000 93.000000 20.000000 
0.000000 93.000000 21.000000 
0.000000 93.000000 22.000000 
0.000000 93.000000 23.000000 
0.000000 93.000000 24.000000 
0.000000 93.000000 25.000000 
0.000000 93.000000 26.000000 
0.000000 93.000000 27.000000 
0.000000 93.000000 28.000000 
0.000000 93.000000 29.000000 
0.000000 93.000000 30.000000 
0.000000 93.000000 31.000000 
0.000000 93.000000 32.000000 
0.000000 93.000000 33.000000 
0.000000 93.000000 34.000000 
0.000000 93.000000 35.000000 
0.000000 93.000000 36.000000 
0.000000 93.000000 37.000000 
0.000000 93.000000 38.000000 
0.000000 93.000000 39.000000 
0.000000 93.000000 40.000000 
0.000000 93.000000 41.000000 
0.000000 93.000000 42.000000 
0.000000 93.000000 43.000000 
0.000000 93.000000 44.000000 
0.000000 93.000000 45.000000 
0.000000 93.000000 46.000000 
0.000000 93.000000 47.000000 
0.000000 93.000000 48.000000 
0.000000 93.000000 49.000000 
0.000000 93.000000 50.000000 
0.000000 93.000000 51.000000 
0.000000 93.000000 52.000000 
0.000000 93.000000 53.000000 
0.000000 93.000000 54.000000 
0.000000 93.000000 55.000000 
0.000000 93.000000 56.000000 
0.000000 93.000000 57.000000 
0.000000 93.000000 58.000000 
0.000000 93.000000 59.000000 
0.000000 93.000000 60.000000 
0.000000 93.000000 61.000000 
0.000000 93.000000 62.000000 
0.000000 93.000000 63.000000 
0.000000 93.000000 64.000000 
0.000000 93.000000 65.000000 
0.000000 93.000000 66.000000 
0.000000 93.000000 67.000000 
0.000000 93.000000 68.000000 
0.000000 93.000000 69.000000 
0.000000 93.000000 70.000000 
0.000000 93.000000 71.000000 
0.000000 93.000000 72.000000 
0.000000 93.000000 73.000000 
0.000000 93.000000 74.000000 
0.000000 93.000000 75.000000 
0.000000 93.000000 76.000000 
0.000000 93.000000 77.000000 
0.000000 93.000000 78.000000 
0.000000 93.000000 79.000000 
0.000000 93.000000 80.000000 
0.000000 93.000000 81.000000 
0.000000 93.000000 82.000000 
0.000000 93.000000 83.000000 
0.000000 93.000000 84.000000 
0.000000 93.000000 85.000000 
0.000000 93.000000 86.000000 
0.000000 93.000000 87.000000 
0.000000 93.000000 88.000000 
0.000000 93.000000 89.000000 
0.000000 93.000000 90.000000 
0.000000 93.000000 91.000000 
0.000000 93.000000 92.000000 
0.000000 93.000000 93.000000 
0.000000 93.000000 94.000000 
0.000000 93.000000 95.000000 
0.000000 93.000000 96.000000 
0.000000 93.000000 97.000000 
0.000000 93.000000 98.000000 
0.000000 93.000000 99.000000 
0.000000 93.000000 100.000000 
0.000000 93.000000 101.000000 
0.000000 93.000000 102.000000 
0.000000 93.000000 103.000000 
0.000000 93.000000 104.000000 
0.000000 93.000000 105.000000 
0.000000 93.000000 106.000000 
0.000000 93.000000 107.000000 
0.000000 93.000000 108.000000 
0.000000 93.000000 109.000000 
0.000000 93.000000 110.000000 
0.000000 93.000000 111.000000 
0.000000 93.000000 112.000000 
0.000000 93.000000 113.000000 
0.000000 93.000000 114.000000 
0.000000 93.000000 115.000000 
0.000000 93.000000 116.000000 
0.000000 93.000000 117.000000 
0.000000 93.000000 118.000000 
0.000000 93.000000 119.000000 
0.000000 93.000000 120.000000 
0.000000 93.000000 121.000000 
0.000000 93.000000 122.000000 
0.000000 93.000000 123.000000 
0.000000 93.000000 124.000000 
0.000000 93.000000 125.000000 
0.000000 93.000000 126.000000 
0.000000 93.000000 127.000000 
0.000000 93.000000 128.000000 
0.000000 93.000000 129.000000 
0.000000 93.000000 130.000000 
0.000000 93.000000 131.000000 
0.000000 93.000000 132.000000 
0.000000 93.000000 133.000000 
0.000000 93.000000 134.000000 
0.000000 93.000000 135.000000 
0.000000 93.000000 136.000000 
0.000000 93.000000 137.000000 
0.000000 93.000000 138.000000 
0.000000 93.000000 139.000000 
0.000000 93.000000 140.000000 
0.000000 93.000000 141.000000 
0.000000 93.000000 142.000000 
0.000000 93.000000 143.000000 
0.000000 93.000000 144.000000 
0.000000 93.000000 145.000000 
0.000000 93.000000 146.000000 
0.000000 93.000000 147.000000 
0.000000 93.000000 148.000000 
0.000000 93.000000 149.000000 
0.000000 93.000000 150.000000 
0.000000 93.000000 151.000000 
0.000000 93.000000 152.000000 
0.000000 93.000000 153.000000 
0.000000 93.000000 154.000000 
0.000000 93.000000 155.000000 
0.000000 93.000000 156.000000 
0.000000 93.000000 157.000000 
0.000000 93.000000 158.000000 
0.000000 93.000000 159.000000 
0.000000 93.000000 160.000000 
0.000000 93.000000 161.000000 
0.000000 93.000000 162.000000 
0.000000 93.000000 163.000000 
0.000000 93.000000 164.000000 
0.000000 93.000000 165.000000 
0.000000 93.000000 166.000000 
0.000000 93.000000 167.000000 
0.000000 93.000000 168.000000 
0.000000 93.000000 169.000000 
0.000000 93.000000 170.000000 
0.000000 93.000000 171.000000 
0.000000 93.000000 172.000000 
0.000000 93.000000 173.000000 
0.000000 93.000000 174.000000 
0.000000 93.000000 175.000000 
0.000000 93.000000 176.000000 
0.000000 93.000000 177.000000 
0.000000 93.000000 178.000000 
0.000000 93.000000 179.000000 
0.000000 93.000000 180.000000 
0.000000 93.000000 181.000000 
0.000000 93.000000 182.000000 
0.000000 93.000000 183.000000 
0.000000 93.000000 184.000000 
0.000000 93.000000 185.000000 
0.000000 93.000000 186.000000 
0.000000 93.000000 187.000000 
0.000000 93.000000 188.000000 
0.000000 93.000000 189.000000 
0.000000 93.000000 190.000000 
0.000000 93.000000 191.000000 
0.000000 93.000000 192.000000 
0.000000 93.000000 193.000000 
0.000000 93.000000 194.000000 
0.000000 93.000000 195.000000 
0.000000 93.000000 196.000000 
0.000000 93.000000 197.000000 
0.000000 93.000000 198.000000 
0.000000 93.000000 199.000000 
0.000000 93.000000 200.000000 
0.000000 94.000000 0.000000 
0.000000 94.000000 1.000000 
0.000000 94.000000 2.000000 
0.000000 94.000000 3.000000 
0.000000 94.000000 4.000000 
0.000000 94.000000 5.000000 
0.000000 94.000000 6.000000 
0.000000 94.000000 7.000000 
0.000000 94.000000 8.000000 
0.000000 94.000000 9.000000 
0.000000 94.000000 10.000000 
0.000000 94.000000 11.000000 
0.000000 94.000000 12.000000 
0.000000 94.000000 13.000000 
0.000000 94.000000 14.000000 
0.000000 94.000000 15.000000 
0.000000 94.000000 16.000000 
0.000000 94.000000 17.000000 
0.000000 94.000000 18.000000 
0.000000 94.000000 19.000000 
0.000000 94.000000 20.000000 
0.000000 94.000000 21.000000 
0.000000 94.000000 22.000000 
0.000000 94.000000 23.000000 
0.000000 94.000000 24.000000 
0.000000 94.000000 25.000000 
0.000000 94.000000 26.000000 
0.000000 94.000000 27.000000 
0.000000 94.000000 28.000000 
0.000000 94.000000 29.000000 
0.000000 94.000000 30.000000 
0.000000 94.000000 31.000000 
0.000000 94.000000 32.000000 
0.000000 94.000000 33.000000 
0.000000 94.000000 34.000000 
0.000000 94.000000 35.000000 
0.000000 94.000000 36.000000 
0.000000 94.000000 37.000000 
0.000000 94.000000 38.000000 
0.000000 94.000000 39.000000 
0.000000 94.000000 40.000000 
0.000000 94.000000 41.000000 
0.000000 94.000000 42.000000 
0.000000 94.000000 43.000000 
0.000000 94.000000 44.000000 
0.000000 94.000000 45.000000 
0.000000 94.000000 46.000000 
0.000000 94.000000 47.000000 
0.000000 94.000000 48.000000 
0.000000 94.000000 49.000000 
0.000000 94.000000 50.000000 
0.000000 94.000000 51.000000 
0.000000 94.000000 52.000000 
0.000000 94.000000 53.000000 
0.000000 94.000000 54.000000 
0.000000 94.000000 55.000000 
0.000000 94.000000 56.000000 
0.000000 94.000000 57.000000 
0.000000 94.000000 58.000000 
0.000000 94.000000 59.000000 
0.000000 94.000000 60.000000 
0.000000 94.000000 61.000000 
0.000000 94.000000 62.000000 
0.000000 94.000000 63.000000 
0.000000 94.000000 64.000000 
0.000000 94.000000 65.000000 
0.000000 94.000000 66.000000 
0.000000 94.000000 67.000000 
0.000000 94.000000 68.000000 
0.000000 94.000000 69.000000 
0.000000 94.000000 70.000000 
0.000000 94.000000 71.000000 
0.000000 94.000000 72.000000 
0.000000 94.000000 73.000000 
0.000000 94.000000 74.000000 
0.000000 94.000000 75.000000 
0.000000 94.000000 76.000000 
0.000000 94.000000 77.000000 
0.000000 94.000000 78.000000 
0.000000 94.000000 79.000000 
0.000000 94.000000 80.000000 
0.000000 94.000000 81.000000 
0.000000 94.000000 82.000000 
0.000000 94.000000 83.000000 
0.000000 94.000000 84.000000 
0.000000 94.000000 85.000000 
0.000000 94.000000 86.000000 
0.000000 94.000000 87.000000 
0.000000 94.000000 88.000000 
0.000000 94.000000 89.000000 
0.000000 94.000000 90.000000 
0.000000 94.000000 91.000000 
0.000000 94.000000 92.000000 
0.000000 94.000000 93.000000 
0.000000 94.000000 94.000000 
0.000000 94.000000 95.000000 
0.000000 94.000000 96.000000 
0.000000 94.000000 97.000000 
0.000000 94.000000 98.000000 
0.000000 94.000000 99.000000 
0.000000 94.000000 100.000000 
0.000000 94.000000 101.000000 
0.000000 94.000000 102.000000 
0.000000 94.000000 103.000000 
0.000000 94.000000 104.000000 
0.000000 94.000000 105.000000 
0.000000 94.000000 106.000000 
0.000000 94.000000 107.000000 
0.000000 94.000000 108.000000 
0.000000 94.000000 109.000000 
0.000000 94.000000 110.000000 
0.000000 94.000000 111.000000 
0.000000 94.000000 112.000000 
0.000000 94.000000 113.000000 
0.000000 94.000000 114.000000 
0.000000 94.000000 115.000000 
0.000000 94.000000 116.000000 
0.000000 94.000000 117.000000 
0.000000 94.000000 118.000000 
0.000000 94.000000 119.000000 
0.000000 94.000000 120.000000 
0.000000 94.000000 121.000000 
0.000000 94.000000 122.000000 
0.000000 94.000000 123.000000 
0.000000 94.000000 124.000000 
0.000000 94.000000 125.000000 
0.000000 94.000000 126.000000 
0.000000 94.000000 127.000000 
0.000000 94.000000 128.000000 
0.000000 94.000000 129.000000 
0.000000 94.000000 130.000000 
0.000000 94.000000 131.000000 
0.000000 94.000000 132.000000 
0.000000 94.000000 133.000000 
0.000000 94.000000 134.000000 
0.000000 94.000000 135.000000 
0.000000 94.000000 136.000000 
0.000000 94.000000 137.000000 
0.000000 94.000000 138.000000 
0.000000 94.000000 139.000000 
0.000000 94.000000 140.000000 
0.000000 94.000000 141.000000 
0.000000 94.000000 142.000000 
0.000000 94.000000 143.000000 
0.000000 94.000000 144.000000 
0.000000 94.000000 145.000000 
0.000000 94.000000 146.000000 
0.000000 94.000000 147.000000 
0.000000 94.000000 148.000000 
0.000000 94.000000 149.000000 
0.000000 94.000000 150.000000 
0.000000 94.000000 151.000000 
0.000000 94.000000 152.000000 
0.000000 94.000000 153.000000 
0.000000 94.000000 154.000000 
0.000000 94.000000 155.000000 
0.000000 94.000000 156.000000 
0.000000 94.000000 157.000000 
0.000000 94.000000 158.000000 
0.000000 94.000000 159.000000 
0.000000 94.000000 160.000000 
0.000000 94.000000 161.000000 
0.000000 94.000000 162.000000 
0.000000 94.000000 163.000000 
0.000000 94.000000 164.000000 
0.000000 94.000000 165.000000 
0.000000 94.000000 166.000000 
0.000000 94.000000 167.000000 
0.000000 94.000000 168.000000 
0.000000 94.000000 169.000000 
0.000000 94.000000 170.000000 
0.000000 94.000000 171.000000 
0.000000 94.000000 172.000000 
0.000000 94.000000 173.000000 
0.000000 94.000000 174.000000 
0.000000 94.000000 175.000000 
0.000000 94.000000 176.000000 
0.000000 94.000000 177.000000 
0.000000 94.000000 178.000000 
0.000000 94.000000 179.000000 
0.000000 94.000000 180.000000 
0.000000 94.000000 181.000000 
0.000000 94.000000 182.000000 
0.000000 94.000000 183.000000 
0.000000 94.000000 184.000000 
0.000000 94.000000 185.000000 
0.000000 94.000000 186.000000 
0.000000 94.000000 187.000000 
0.000000 94.000000 188.000000 
0.000000 94.000000 189.000000 
0.000000 94.000000 190.000000 
0.000000 94.000000 191.000000 
0.000000 94.000000 192.000000 
0.000000 94.000000 193.000000 
0.000000 94.000000 194.000000 
0.000000 94.000000 195.000000 
0.000000 94.000000 196.000000 
0.000000 94.000000 197.000000 
0.000000 94.000000 198.000000 
0.000000 94.000000 199.000000 
0.000000 94.000000 200.000000 
0.000000 95.000000 0.000000 
0.000000 95.000000 1.000000 
0.000000 95.000000 2.000000 
0.000000 95.000000 3.000000 
0.000000 95.000000 4.000000 
0.000000 95.000000 5.000000 
0.000000 95.000000 6.000000 
0.000000 95.000000 7.000000 
0.000000 95.000000 8.000000 
0.000000 95.000000 9.000000 
0.000000 95.000000 10.000000 
0.000000 95.000000 11.000000 
0.000000 95.000000 12.000000 
0.000000 95.000000 13.000000 
0.000000 95.000000 14.000000 
0.000000 95.000000 15.000000 
0.000000 95.000000 16.000000 
0.000000 95.000000 17.000000 
0.000000 95.000000 18.000000 
0.000000 95.000000 19.000000 
0.000000 95.000000 20.000000 
0.000000 95.000000 21.000000 
0.000000 95.000000 22.000000 
0.000000 95.000000 23.000000 
0.000000 95.000000 24.000000 
0.000000 95.000000 25.000000 
0.000000 95.000000 26.000000 
0.000000 95.000000 27.000000 
0.000000 95.000000 28.000000 
0.000000 95.000000 29.000000 
0.000000 95.000000 30.000000 
0.000000 95.000000 31.000000 
0.000000 95.000000 32.000000 
0.000000 95.000000 33.000000 
0.000000 95.000000 34.000000 
0.000000 95.000000 35.000000 
0.000000 95.000000 36.000000 
0.000000 95.000000 37.000000 
0.000000 95.000000 38.000000 
0.000000 95.000000 39.000000 
0.000000 95.000000 40.000000 
0.000000 95.000000 41.000000 
0.000000 95.000000 42.000000 
0.000000 95.000000 43.000000 
0.000000 95.000000 44.000000 
0.000000 95.000000 45.000000 
0.000000 95.000000 46.000000 
0.000000 95.000000 47.000000 
0.000000 95.000000 48.000000 
0.000000 95.000000 49.000000 
0.000000 95.000000 50.000000 
0.000000 95.000000 51.000000 
0.000000 95.000000 52.000000 
0.000000 95.000000 53.000000 
0.000000 95.000000 54.000000 
0.000000 95.000000 55.000000 
0.000000 95.000000 56.000000 
0.000000 95.000000 57.000000 
0.000000 95.000000 58.000000 
0.000000 95.000000 59.000000 
0.000000 95.000000 60.000000 
0.000000 95.000000 61.000000 
0.000000 95.000000 62.000000 
0.000000 95.000000 63.000000 
0.000000 95.000000 64.000000 
0.000000 95.000000 65.000000 
0.000000 95.000000 66.000000 
0.000000 95.000000 67.000000 
0.000000 95.000000 68.000000 
0.000000 95.000000 69.000000 
0.000000 95.000000 70.000000 
0.000000 95.000000 71.000000 
0.000000 95.000000 72.000000 
0.000000 95.000000 73.000000 
0.000000 95.000000 74.000000 
0.000000 95.000000 75.000000 
0.000000 95.000000 76.000000 
0.000000 95.000000 77.000000 
0.000000 95.000000 78.000000 
0.000000 95.000000 79.000000 
0.000000 95.000000 80.000000 
0.000000 95.000000 81.000000 
0.000000 95.000000 82.000000 
0.000000 95.000000 83.000000 
0.000000 95.000000 84.000000 
0.000000 95.000000 85.000000 
0.000000 95.000000 86.000000 
0.000000 95.000000 87.000000 
0.000000 95.000000 88.000000 
0.000000 95.000000 89.000000 
0.000000 95.000000 90.000000 
0.000000 95.000000 91.000000 
0.000000 95.000000 92.000000 
0.000000 95.000000 93.000000 
0.000000 95.000000 94.000000 
0.000000 95.000000 95.000000 
0.000000 95.000000 96.000000 
0.000000 95.000000 97.000000 
0.000000 95.000000 98.000000 
0.000000 95.000000 99.000000 
0.000000 95.000000 100.000000 
0.000000 95.000000 101.000000 
0.000000 95.000000 102.000000 
0.000000 95.000000 103.000000 
0.000000 95.000000 104.000000 
0.000000 95.000000 105.000000 
0.000000 95.000000 106.000000 
0.000000 95.000000 107.000000 
0.000000 95.000000 108.000000 
0.000000 95.000000 109.000000 
0.000000 95.000000 110.000000 
0.000000 95.000000 111.000000 
0.000000 95.000000 112.000000 
0.000000 95.000000 113.000000 
0.000000 95.000000 114.000000 
0.000000 95.000000 115.000000 
0.000000 95.000000 116.000000 
0.000000 95.000000 117.000000 
0.000000 95.000000 118.000000 
0.000000 95.000000 119.000000 
0.000000 95.000000 120.000000 
0.000000 95.000000 121.000000 
0.000000 95.000000 122.000000 
0.000000 95.000000 123.000000 
0.000000 95.000000 124.000000 
0.000000 95.000000 125.000000 
0.000000 95.000000 126.000000 
0.000000 95.000000 127.000000 
0.000000 95.000000 128.000000 
0.000000 95.000000 129.000000 
0.000000 95.000000 130.000000 
0.000000 95.000000 131.000000 
0.000000 95.000000 132.000000 
0.000000 95.000000 133.000000 
0.000000 95.000000 134.000000 
0.000000 95.000000 135.000000 
0.000000 95.000000 136.000000 
0.000000 95.000000 137.000000 
0.000000 95.000000 138.000000 
0.000000 95.000000 139.000000 
0.000000 95.000000 140.000000 
0.000000 95.000000 141.000000 
0.000000 95.000000 142.000000 
0.000000 95.000000 143.000000 
0.000000 95.000000 144.000000 
0.000000 95.000000 145.000000 
0.000000 95.000000 146.000000 
0.000000 95.000000 147.000000 
0.000000 95.000000 148.000000 
0.000000 95.000000 149.000000 
0.000000 95.000000 150.000000 
0.000000 95.000000 151.000000 
0.000000 95.000000 152.000000 
0.000000 95.000000 153.000000 
0.000000 95.000000 154.000000 
0.000000 95.000000 155.000000 
0.000000 95.000000 156.000000 
0.000000 95.000000 157.000000 
0.000000 95.000000 158.000000 
0.000000 95.000000 159.000000 
0.000000 95.000000 160.000000 
0.000000 95.000000 161.000000 
0.000000 95.000000 162.000000 
0.000000 95.000000 163.000000 
0.000000 95.000000 164.000000 
0.000000 95.000000 165.000000 
0.000000 95.000000 166.000000 
0.000000 95.000000 167.000000 
0.000000 95.000000 168.000000 
0.000000 95.000000 169.000000 
0.000000 95.000000 170.000000 
0.000000 95.000000 171.000000 
0.000000 95.000000 172.000000 
0.000000 95.000000 173.000000 
0.000000 95.000000 174.000000 
0.000000 95.000000 175.000000 
0.000000 95.000000 176.000000 
0.000000 95.000000 177.000000 
0.000000 95.000000 178.000000 
0.000000 95.000000 179.000000 
0.000000 95.000000 180.000000 
0.000000 95.000000 181.000000 
0.000000 95.000000 182.000000 
0.000000 95.000000 183.000000 
0.000000 95.000000 184.000000 
0.000000 95.000000 185.000000 
0.000000 95.000000 186.000000 
0.000000 95.000000 187.000000 
0.000000 95.000000 188.000000 
0.000000 95.000000 189.000000 
0.000000 95.000000 190.000000 
0.000000 95.000000 191.000000 
0.000000 95.000000 192.000000 
0.000000 95.000000 193.000000 
0.000000 95.000000 194.000000 
0.000000 95.000000 195.000000 
0.000000 95.000000 196.000000 
0.000000 95.000000 197.000000 
0.000000 95.000000 198.000000 
0.000000 95.000000 199.000000 
0.000000 95.000000 200.000000 
0.000000 96.000000 0.000000 
0.000000 96.000000 1.000000 
0.000000 96.000000 2.000000 
0.000000 96.000000 3.000000 
0.000000 96.000000 4.000000 
0.000000 96.000000 5.000000 
0.000000 96.000000 6.000000 
0.000000 96.000000 7.000000 
0.000000 96.000000 8.000000 
0.000000 96.000000 9.000000 
0.000000 96.000000 10.000000 
0.000000 96.000000 11.000000 
0.000000 96.000000 12.000000 
0.000000 96.000000 13.000000 
0.000000 96.000000 14.000000 
0.000000 96.000000 15.000000 
0.000000 96.000000 16.000000 
0.000000 96.000000 17.000000 
0.000000 96.000000 18.000000 
0.000000 96.000000 19.000000 
0.000000 96.000000 20.000000 
0.000000 96.000000 21.000000 
0.000000 96.000000 22.000000 
0.000000 96.000000 23.000000 
0.000000 96.000000 24.000000 
0.000000 96.000000 25.000000 
0.000000 96.000000 26.000000 
0.000000 96.000000 27.000000 
0.000000 96.000000 28.000000 
0.000000 96.000000 29.000000 
0.000000 96.000000 30.000000 
0.000000 96.000000 31.000000 
0.000000 96.000000 32.000000 
0.000000 96.000000 33.000000 
0.000000 96.000000 34.000000 
0.000000 96.000000 35.000000 
0.000000 96.000000 36.000000 
0.000000 96.000000 37.000000 
0.000000 96.000000 38.000000 
0.000000 96.000000 39.000000 
0.000000 96.000000 40.000000 
0.000000 96.000000 41.000000 
0.000000 96.000000 42.000000 
0.000000 96.000000 43.000000 
0.000000 96.000000 44.000000 
0.000000 96.000000 45.000000 
0.000000 96.000000 46.000000 
0.000000 96.000000 47.000000 
0.000000 96.000000 48.000000 
0.000000 96.000000 49.000000 
0.000000 96.000000 50.000000 
0.000000 96.000000 51.000000 
0.000000 96.000000 52.000000 
0.000000 96.000000 53.000000 
0.000000 96.000000 54.000000 
0.000000 96.000000 55.000000 
0.000000 96.000000 56.000000 
0.000000 96.000000 57.000000 
0.000000 96.000000 58.000000 
0.000000 96.000000 59.000000 
0.000000 96.000000 60.000000 
0.000000 96.000000 61.000000 
0.000000 96.000000 62.000000 
0.000000 96.000000 63.000000 
0.000000 96.000000 64.000000 
0.000000 96.000000 65.000000 
0.000000 96.000000 66.000000 
0.000000 96.000000 67.000000 
0.000000 96.000000 68.000000 
0.000000 96.000000 69.000000 
0.000000 96.000000 70.000000 
0.000000 96.000000 71.000000 
0.000000 96.000000 72.000000 
0.000000 96.000000 73.000000 
0.000000 96.000000 74.000000 
0.000000 96.000000 75.000000 
0.000000 96.000000 76.000000 
0.000000 96.000000 77.000000 
0.000000 96.000000 78.000000 
0.000000 96.000000 79.000000 
0.000000 96.000000 80.000000 
0.000000 96.000000 81.000000 
0.000000 96.000000 82.000000 
0.000000 96.000000 83.000000 
0.000000 96.000000 84.000000 
0.000000 96.000000 85.000000 
0.000000 96.000000 86.000000 
0.000000 96.000000 87.000000 
0.000000 96.000000 88.000000 
0.000000 96.000000 89.000000 
0.000000 96.000000 90.000000 
0.000000 96.000000 91.000000 
0.000000 96.000000 92.000000 
0.000000 96.000000 93.000000 
0.000000 96.000000 94.000000 
0.000000 96.000000 95.000000 
0.000000 96.000000 96.000000 
0.000000 96.000000 97.000000 
0.000000 96.000000 98.000000 
0.000000 96.000000 99.000000 
0.000000 96.000000 100.000000 
0.000000 96.000000 101.000000 
0.000000 96.000000 102.000000 
0.000000 96.000000 103.000000 
0.000000 96.000000 104.000000 
0.000000 96.000000 105.000000 
0.000000 96.000000 106.000000 
0.000000 96.000000 107.000000 
0.000000 96.000000 108.000000 
0.000000 96.000000 109.000000 
0.000000 96.000000 110.000000 
0.000000 96.000000 111.000000 
0.000000 96.000000 112.000000 
0.000000 96.000000 113.000000 
0.000000 96.000000 114.000000 
0.000000 96.000000 115.000000 
0.000000 96.000000 116.000000 
0.000000 96.000000 117.000000 
0.000000 96.000000 118.000000 
0.000000 96.000000 119.000000 
0.000000 96.000000 120.000000 
0.000000 96.000000 121.000000 
0.000000 96.000000 122.000000 
0.000000 96.000000 123.000000 
0.000000 96.000000 124.000000 
0.000000 96.000000 125.000000 
0.000000 96.000000 126.000000 
0.000000 96.000000 127.000000 
0.000000 96.000000 128.000000 
0.000000 96.000000 129.000000 
0.000000 96.000000 130.000000 
0.000000 96.000000 131.000000 
0.000000 96.000000 132.000000 
0.000000 96.000000 133.000000 
0.000000 96.000000 134.000000 
0.000000 96.000000 135.000000 
0.000000 96.000000 136.000000 
0.000000 96.000000 137.000000 
0.000000 96.000000 138.000000 
0.000000 96.000000 139.000000 
0.000000 96.000000 140.000000 
0.000000 96.000000 141.000000 
0.000000 96.000000 142.000000 
0.000000 96.000000 143.000000 
0.000000 96.000000 144.000000 
0.000000 96.000000 145.000000 
0.000000 96.000000 146.000000 
0.000000 96.000000 147.000000 
0.000000 96.000000 148.000000 
0.000000 96.000000 149.000000 
0.000000 96.000000 150.000000 
0.000000 96.000000 151.000000 
0.000000 96.000000 152.000000 
0.000000 96.000000 153.000000 
0.000000 96.000000 154.000000 
0.000000 96.000000 155.000000 
0.000000 96.000000 156.000000 
0.000000 96.000000 157.000000 
0.000000 96.000000 158.000000 
0.000000 96.000000 159.000000 
0.000000 96.000000 160.000000 
0.000000 96.000000 161.000000 
0.000000 96.000000 162.000000 
0.000000 96.000000 163.000000 
0.000000 96.000000 164.000000 
0.000000 96.000000 165.000000 
0.000000 96.000000 166.000000 
0.000000 96.000000 167.000000 
0.000000 96.000000 168.000000 
0.000000 96.000000 169.000000 
0.000000 96.000000 170.000000 
0.000000 96.000000 171.000000 
0.000000 96.000000 172.000000 
0.000000 96.000000 173.000000 
0.000000 96.000000 174.000000 
0.000000 96.000000 175.000000 
0.000000 96.000000 176.000000 
0.000000 96.000000 177.000000 
0.000000 96.000000 178.000000 
0.000000 96.000000 179.000000 
0.000000 96.000000 180.000000 
0.000000 96.000000 181.000000 
0.000000 96.000000 182.000000 
0.000000 96.000000 183.000000 
0.000000 96.000000 184.000000 
0.000000 96.000000 185.000000 
0.000000 96.000000 186.000000 
0.000000 96.000000 187.000000 
0.000000 96.000000 188.000000 
0.000000 96.000000 189.000000 
0.000000 96.000000 190.000000 
0.000000 96.000000 191.000000 
0.000000 96.000000 192.000000 
0.000000 96.000000 193.000000 
0.000000 96.000000 194.000000 
0.000000 96.000000 195.000000 
0.000000 96.000000 196.000000 
0.000000 96.000000 197.000000 
0.000000 96.000000 198.000000 
0.000000 96.000000 199.000000 
0.000000 96.000000 200.000000 
0.000000 97.000000 0.000000 
0.000000 97.000000 1.000000 
0.000000 97.000000 2.000000 
0.000000 97.000000 3.000000 
0.000000 97.000000 4.000000 
0.000000 97.000000 5.000000 
0.000000 97.000000 6.000000 
0.000000 97.000000 7.000000 
0.000000 97.000000 8.000000 
0.000000 97.000000 9.000000 
0.000000 97.000000 10.000000 
0.000000 97.000000 11.000000 
0.000000 97.000000 12.000000 
0.000000 97.000000 13.000000 
0.000000 97.000000 14.000000 
0.000000 97.000000 15.000000 
0.000000 97.000000 16.000000 
0.000000 97.000000 17.000000 
0.000000 97.000000 18.000000 
0.000000 97.000000 19.000000 
0.000000 97.000000 20.000000 
0.000000 97.000000 21.000000 
0.000000 97.000000 22.000000 
0.000000 97.000000 23.000000 
0.000000 97.000000 24.000000 
0.000000 97.000000 25.000000 
0.000000 97.000000 26.000000 
0.000000 97.000000 27.000000 
0.000000 97.000000 28.000000 
0.000000 97.000000 29.000000 
0.000000 97.000000 30.000000 
0.000000 97.000000 31.000000 
0.000000 97.000000 32.000000 
0.000000 97.000000 33.000000 
0.000000 97.000000 34.000000 
0.000000 97.000000 35.000000 
0.000000 97.000000 36.000000 
0.000000 97.000000 37.000000 
0.000000 97.000000 38.000000 
0.000000 97.000000 39.000000 
0.000000 97.000000 40.000000 
0.000000 97.000000 41.000000 
0.000000 97.000000 42.000000 
0.000000 97.000000 43.000000 
0.000000 97.000000 44.000000 
0.000000 97.000000 45.000000 
0.000000 97.000000 46.000000 
0.000000 97.000000 47.000000 
0.000000 97.000000 48.000000 
0.000000 97.000000 49.000000 
0.000000 97.000000 50.000000 
0.000000 97.000000 51.000000 
0.000000 97.000000 52.000000 
0.000000 97.000000 53.000000 
0.000000 97.000000 54.000000 
0.000000 97.000000 55.000000 
0.000000 97.000000 56.000000 
0.000000 97.000000 57.000000 
0.000000 97.000000 58.000000 
0.000000 97.000000 59.000000 
0.000000 97.000000 60.000000 
0.000000 97.000000 61.000000 
0.000000 97.000000 62.000000 
0.000000 97.000000 63.000000 
0.000000 97.000000 64.000000 
0.000000 97.000000 65.000000 
0.000000 97.000000 66.000000 
0.000000 97.000000 67.000000 
0.000000 97.000000 68.000000 
0.000000 97.000000 69.000000 
0.000000 97.000000 70.000000 
0.000000 97.000000 71.000000 
0.000000 97.000000 72.000000 
0.000000 97.000000 73.000000 
0.000000 97.000000 74.000000 
0.000000 97.000000 75.000000 
0.000000 97.000000 76.000000 
0.000000 97.000000 77.000000 
0.000000 97.000000 78.000000 
0.000000 97.000000 79.000000 
0.000000 97.000000 80.000000 
0.000000 97.000000 81.000000 
0.000000 97.000000 82.000000 
0.000000 97.000000 83.000000 
0.000000 97.000000 84.000000 
0.000000 97.000000 85.000000 
0.000000 97.000000 86.000000 
0.000000 97.000000 87.000000 
0.000000 97.000000 88.000000 
0.000000 97.000000 89.000000 
0.000000 97.000000 90.000000 
0.000000 97.000000 91.000000 
0.000000 97.000000 92.000000 
0.000000 97.000000 93.000000 
0.000000 97.000000 94.000000 
0.000000 97.000000 95.000000 
0.000000 97.000000 96.000000 
0.000000 97.000000 97.000000 
0.000000 97.000000 98.000000 
0.000000 97.000000 99.000000 
0.000000 97.000000 100.000000 
0.000000 97.000000 101.000000 
0.000000 97.000000 102.000000 
0.000000 97.000000 103.000000 
0.000000 97.000000 104.000000 
0.000000 97.000000 105.000000 
0.000000 97.000000 106.000000 
0.000000 97.000000 107.000000 
0.000000 97.000000 108.000000 
0.000000 97.000000 109.000000 
0.000000 97.000000 110.000000 
0.000000 97.000000 111.000000 
0.000000 97.000000 112.000000 
0.000000 97.000000 113.000000 
0.000000 97.000000 114.000000 
0.000000 97.000000 115.000000 
0.000000 97.000000 116.000000 
0.000000 97.000000 117.000000 
0.000000 97.000000 118.000000 
0.000000 97.000000 119.000000 
0.000000 97.000000 120.000000 
0.000000 97.000000 121.000000 
0.000000 97.000000 122.000000 
0.000000 97.000000 123.000000 
0.000000 97.000000 124.000000 
0.000000 97.000000 125.000000 
0.000000 97.000000 126.000000 
0.000000 97.000000 127.000000 
0.000000 97.000000 128.000000 
0.000000 97.000000 129.000000 
0.000000 97.000000 130.000000 
0.000000 97.000000 131.000000 
0.000000 97.000000 132.000000 
0.000000 97.000000 133.000000 
0.000000 97.000000 134.000000 
0.000000 97.000000 135.000000 
0.000000 97.000000 136.000000 
0.000000 97.000000 137.000000 
0.000000 97.000000 138.000000 
0.000000 97.000000 139.000000 
0.000000 97.000000 140.000000 
0.000000 97.000000 141.000000 
0.000000 97.000000 142.000000 
0.000000 97.000000 143.000000 
0.000000 97.000000 144.000000 
0.000000 97.000000 145.000000 
0.000000 97.000000 146.000000 
0.000000 97.000000 147.000000 
0.000000 97.000000 148.000000 
0.000000 97.000000 149.000000 
0.000000 97.000000 150.000000 
0.000000 97.000000 151.000000 
0.000000 97.000000 152.000000 
0.000000 97.000000 153.000000 
0.000000 97.000000 154.000000 
0.000000 97.000000 155.000000 
0.000000 97.000000 156.000000 
0.000000 97.000000 157.000000 
0.000000 97.000000 158.000000 
0.000000 97.000000 159.000000 
0.000000 97.000000 160.000000 
0.000000 97.000000 161.000000 
0.000000 97.000000 162.000000 
0.000000 97.000000 163.000000 
0.000000 97.000000 164.000000 
0.000000 97.000000 165.000000 
0.000000 97.000000 166.000000 
0.000000 97.000000 167.000000 
0.000000 97.000000 168.000000 
0.000000 97.000000 169.000000 
0.000000 97.000000 170.000000 
0.000000 97.000000 171.000000 
0.000000 97.000000 172.000000 
0.000000 97.000000 173.000000 
0.000000 97.000000 174.000000 
0.000000 97.000000 175.000000 
0.000000 97.000000 176.000000 
0.000000 97.000000 177.000000 
0.000000 97.000000 178.000000 
0.000000 97.000000 179.000000 
0.000000 97.000000 180.000000 
0.000000 97.000000 181.000000 
0.000000 97.000000 182.000000 
0.000000 97.000000 183.000000 
0.000000 97.000000 184.000000 
0.000000 97.000000 185.000000 
0.000000 97.000000 186.000000 
0.000000 97.000000 187.000000 
0.000000 97.000000 188.000000 
0.000000 97.000000 189.000000 
0.000000 97.000000 190.000000 
0.000000 97.000000 191.000000 
0.000000 97.000000 192.000000 
0.000000 97.000000 193.000000 
0.000000 97.000000 194.000000 
0.000000 97.000000 195.000000 
0.000000 97.000000 196.000000 
0.000000 97.000000 197.000000 
0.000000 97.000000 198.000000 
0.000000 97.000000 199.000000 
0.000000 97.000000 200.000000 
0.000000 98.000000 0.000000 
0.000000 98.000000 1.000000 
0.000000 98.000000 2.000000 
0.000000 98.000000 3.000000 
0.000000 98.000000 4.000000 
0.000000 98.000000 5.000000 
0.000000 98.000000 6.000000 
0.000000 98.000000 7.000000 
0.000000 98.000000 8.000000 
0.000000 98.000000 9.000000 
0.000000 98.000000 10.000000 
0.000000 98.000000 11.000000 
0.000000 98.000000 12.000000 
0.000000 98.000000 13.000000 
0.000000 98.000000 14.000000 
0.000000 98.000000 15.000000 
0.000000 98.000000 16.000000 
0.000000 98.000000 17.000000 
0.000000 98.000000 18.000000 
0.000000 98.000000 19.000000 
0.000000 98.000000 20.000000 
0.000000 98.000000 21.000000 
0.000000 98.000000 22.000000 
0.000000 98.000000 23.000000 
0.000000 98.000000 24.000000 
0.000000 98.000000 25.000000 
0.000000 98.000000 26.000000 
0.000000 98.000000 27.000000 
0.000000 98.000000 28.000000 
0.000000 98.000000 29.000000 
0.000000 98.000000 30.000000 
0.000000 98.000000 31.000000 
0.000000 98.000000 32.000000 
0.000000 98.000000 33.000000 
0.000000 98.000000 34.000000 
0.000000 98.000000 35.000000 
0.000000 98.000000 36.000000 
0.000000 98.000000 37.000000 
0.000000 98.000000 38.000000 
0.000000 98.000000 39.000000 
0.000000 98.000000 40.000000 
0.000000 98.000000 41.000000 
0.000000 98.000000 42.000000 
0.000000 98.000000 43.000000 
0.000000 98.000000 44.000000 
0.000000 98.000000 45.000000 
0.000000 98.000000 46.000000 
0.000000 98.000000 47.000000 
0.000000 98.000000 48.000000 
0.000000 98.000000 49.000000 
0.000000 98.000000 50.000000 
0.000000 98.000000 51.000000 
0.000000 98.000000 52.000000 
0.000000 98.000000 53.000000 
0.000000 98.000000 54.000000 
0.000000 98.000000 55.000000 
0.000000 98.000000 56.000000 
0.000000 98.000000 57.000000 
0.000000 98.000000 58.000000 
0.000000 98.000000 59.000000 
0.000000 98.000000 60.000000 
0.000000 98.000000 61.000000 
0.000000 98.000000 62.000000 
0.000000 98.000000 63.000000 
0.000000 98.000000 64.000000 
0.000000 98.000000 65.000000 
0.000000 98.000000 66.000000 
0.000000 98.000000 67.000000 
0.000000 98.000000 68.000000 
0.000000 98.000000 69.000000 
0.000000 98.000000 70.000000 
0.000000 98.000000 71.000000 
0.000000 98.000000 72.000000 
0.000000 98.000000 73.000000 
0.000000 98.000000 74.000000 
0.000000 98.000000 75.000000 
0.000000 98.000000 76.000000 
0.000000 98.000000 77.000000 
0.000000 98.000000 78.000000 
0.000000 98.000000 79.000000 
0.000000 98.000000 80.000000 
0.000000 98.000000 81.000000 
0.000000 98.000000 82.000000 
0.000000 98.000000 83.000000 
0.000000 98.000000 84.000000 
0.000000 98.000000 85.000000 
0.000000 98.000000 86.000000 
0.000000 98.000000 87.000000 
0.000000 98.000000 88.000000 
0.000000 98.000000 89.000000 
0.000000 98.000000 90.000000 
0.000000 98.000000 91.000000 
0.000000 98.000000 92.000000 
0.000000 98.000000 93.000000 
0.000000 98.000000 94.000000 
0.000000 98.000000 95.000000 
0.000000 98.000000 96.000000 
0.000000 98.000000 97.000000 
0.000000 98.000000 98.000000 
0.000000 98.000000 99.000000 
0.000000 98.000000 100.000000 
0.000000 98.000000 101.000000 
0.000000 98.000000 102.000000 
0.000000 98.000000 103.000000 
0.000000 98.000000 104.000000 
0.000000 98.000000 105.000000 
0.000000 98.000000 106.000000 
0.000000 98.000000 107.000000 
0.000000 98.000000 108.000000 
0.000000 98.000000 109.000000 
0.000000 98.000000 110.000000 
0.000000 98.000000 111.000000 
0.000000 98.000000 112.000000 
0.000000 98.000000 113.000000 
0.000000 98.000000 114.000000 
0.000000 98.000000 115.000000 
0.000000 98.000000 116.000000 
0.000000 98.000000 117.000000 
0.000000 98.000000 118.000000 
0.000000 98.000000 119.000000 
0.000000 98.000000 120.000000 
0.000000 98.000000 121.000000 
0.000000 98.000000 122.000000 
0.000000 98.000000 123.000000 
0.000000 98.000000 124.000000 
0.000000 98.000000 125.000000 
0.000000 98.000000 126.000000 
0.000000 98.000000 127.000000 
0.000000 98.000000 128.000000 
0.000000 98.000000 129.000000 
0.000000 98.000000 130.000000 
0.000000 98.000000 131.000000 
0.000000 98.000000 132.000000 
0.000000 98.000000 133.000000 
0.000000 98.000000 134.000000 
0.000000 98.000000 135.000000 
0.000000 98.000000 136.000000 
0.000000 98.000000 137.000000 
0.000000 98.000000 138.000000 
0.000000 98.000000 139.000000 
0.000000 98.000000 140.000000 
0.000000 98.000000 141.000000 
0.000000 98.000000 142.000000 
0.000000 98.000000 143.000000 
0.000000 98.000000 144.000000 
0.000000 98.000000 145.000000 
0.000000 98.000000 146.000000 
0.000000 98.000000 147.000000 
0.000000 98.000000 148.000000 
0.000000 98.000000 149.000000 
0.000000 98.000000 150.000000 
0.000000 98.000000 151.000000 
0.000000 98.000000 152.000000 
0.000000 98.000000 153.000000 
0.000000 98.000000 154.000000 
0.000000 98.000000 155.000000 
0.000000 98.000000 156.000000 
0.000000 98.000000 157.000000 
0.000000 98.000000 158.000000 
0.000000 98.000000 159.000000 
0.000000 98.000000 160.000000 
0.000000 98.000000 161.000000 
0.000000 98.000000 162.000000 
0.000000 98.000000 163.000000 
0.000000 98.000000 164.000000 
0.000000 98.000000 165.000000 
0.000000 98.000000 166.000000 
0.000000 98.000000 167.000000 
0.000000 98.000000 168.000000 
0.000000 98.000000 169.000000 
0.000000 98.000000 170.000000 
0.000000 98.000000 171.000000 
0.000000 98.000000 172.000000 
0.000000 98.000000 173.000000 
0.000000 98.000000 174.000000 
0.000000 98.000000 175.000000 
0.000000 98.000000 176.000000 
0.000000 98.000000 177.000000 
0.000000 98.000000 178.000000 
0.000000 98.000000 179.000000 
0.000000 98.000000 180.000000 
0.000000 98.000000 181.000000 
0.000000 98.000000 182.000000 
0.000000 98.000000 183.000000 
0.000000 98.000000 184.000000 
0.000000 98.000000 185.000000 
0.000000 98.000000 186.000000 
0.000000 98.000000 187.000000 
0.000000 98.000000 188.000000 
0.000000 98.000000 189.000000 
0.000000 98.000000 190.000000 
0.000000 98.000000 191.000000 
0.000000 98.000000 192.000000 
0.000000 98.000000 193.000000 
0.000000 98.000000 194.000000 
0.000000 98.000000 195.000000 
0.000000 98.000000 196.000000 
0.000000 98.000000 197.000000 
0.000000 98.000000 198.000000 
0.000000 98.000000 199.000000 
0.000000 98.000000 200.000000 
0.000000 99.000000 0.000000 
0.000000 99.000000 1.000000 
0.000000 99.000000 2.000000 
0.000000 99.000000 3.000000 
0.000000 99.000000 4.000000 
0.000000 99.000000 5.000000 
0.000000 99.000000 6.000000 
0.000000 99.000000 7.000000 
0.000000 99.000000 8.000000 
0.000000 99.000000 9.000000 
0.000000 99.000000 10.000000 
0.000000 99.000000 11.000000 
0.000000 99.000000 12.000000 
0.000000 99.000000 13.000000 
0.000000 99.000000 14.000000 
0.000000 99.000000 15.000000 
0.000000 99.000000 16.000000 
0.000000 99.000000 17.000000 
0.000000 99.000000 18.000000 
0.000000 99.000000 19.000000 
0.000000 99.000000 20.000000 
0.000000 99.000000 21.000000 
0.000000 99.000000 22.000000 
0.000000 99.000000 23.000000 
0.000000 99.000000 24.000000 
0.000000 99.000000 25.000000 
0.000000 99.000000 26.000000 
0.000000 99.000000 27.000000 
0.000000 99.000000 28.000000 
0.000000 99.000000 29.000000 
0.000000 99.000000 30.000000 
0.000000 99.000000 31.000000 
0.000000 99.000000 32.000000 
0.000000 99.000000 33.000000 
0.000000 99.000000 34.000000 
0.000000 99.000000 35.000000 
0.000000 99.000000 36.000000 
0.000000 99.000000 37.000000 
0.000000 99.000000 38.000000 
0.000000 99.000000 39.000000 
0.000000 99.000000 40.000000 
0.000000 99.000000 41.000000 
0.000000 99.000000 42.000000 
0.000000 99.000000 43.000000 
0.000000 99.000000 44.000000 
0.000000 99.000000 45.000000 
0.000000 99.000000 46.000000 
0.000000 99.000000 47.000000 
0.000000 99.000000 48.000000 
0.000000 99.000000 49.000000 
0.000000 99.000000 50.000000 
0.000000 99.000000 51.000000 
0.000000 99.000000 52.000000 
0.000000 99.000000 53.000000 
0.000000 99.000000 54.000000 
0.000000 99.000000 55.000000 
0.000000 99.000000 56.000000 
0.000000 99.000000 57.000000 
0.000000 99.000000 58.000000 
0.000000 99.000000 59.000000 
0.000000 99.000000 60.000000 
0.000000 99.000000 61.000000 
0.000000 99.000000 62.000000 
0.000000 99.000000 63.000000 
0.000000 99.000000 64.000000 
0.000000 99.000000 65.000000 
0.000000 99.000000 66.000000 
0.000000 99.000000 67.000000 
0.000000 99.000000 68.000000 
0.000000 99.000000 69.000000 
0.000000 99.000000 70.000000 
0.000000 99.000000 71.000000 
0.000000 99.000000 72.000000 
0.000000 99.000000 73.000000 
0.000000 99.000000 74.000000 
0.000000 99.000000 75.000000 
0.000000 99.000000 76.000000 
0.000000 99.000000 77.000000 
0.000000 99.000000 78.000000 
0.000000 99.000000 79.000000 
0.000000 99.000000 80.000000 
0.000000 99.000000 81.000000 
0.000000 99.000000 82.000000 
0.000000 99.000000 83.000000 
0.000000 99.000000 84.000000 
0.000000 99.000000 85.000000 
0.000000 99.000000 86.000000 
0.000000 99.000000 87.000000 
0.000000 99.000000 88.000000 
0.000000 99.000000 89.000000 
0.000000 99.000000 90.000000 
0.000000 99.000000 91.000000 
0.000000 99.000000 92.000000 
0.000000 99.000000 93.000000 
0.000000 99.000000 94.000000 
0.000000 99.000000 95.000000 
0.000000 99.000000 96.000000 
0.000000 99.000000 97.000000 
0.000000 99.000000 98.000000 
0.000000 99.000000 99.000000 
0.000000 99.000000 100.000000 
0.000000 99.000000 101.000000 
0.000000 99.000000 102.000000 
0.000000 99.000000 103.000000 
0.000000 99.000000 104.000000 
0.000000 99.000000 105.000000 
0.000000 99.000000 106.000000 
0.000000 99.000000 107.000000 
0.000000 99.000000 108.000000 
0.000000 99.000000 109.000000 
0.000000 99.000000 110.000000 
0.000000 99.000000 111.000000 
0.000000 99.000000 112.000000 
0.000000 99.000000 113.000000 
0.000000 99.000000 114.000000 
0.000000 99.000000 115.000000 
0.000000 99.000000 116.000000 
0.000000 99.000000 117.000000 
0.000000 99.000000 118.000000 
0.000000 99.000000 119.000000 
0.000000 99.000000 120.000000 
0.000000 99.000000 121.000000 
0.000000 99.000000 122.000000 
0.000000 99.000000 123.000000 
0.000000 99.000000 124.000000 
0.000000 99.000000 125.000000 
0.000000 99.000000 126.000000 
0.000000 99.000000 127.000000 
0.000000 99.000000 128.000000 
0.000000 99.000000 129.000000 
0.000000 99.000000 130.000000 
0.000000 99.000000 131.000000 
0.000000 99.000000 132.000000 
0.000000 99.000000 133.000000 
0.000000 99.000000 134.000000 
0.000000 99.000000 135.000000 
0.000000 99.000000 136.000000 
0.000000 99.000000 137.000000 
0.000000 99.000000 138.000000 
0.000000 99.000000 139.000000 
0.000000 99.000000 140.000000 
0.000000 99.000000 141.000000 
0.000000 99.000000 142.000000 
0.000000 99.000000 143.000000 
0.000000 99.000000 144.000000 
0.000000 99.000000 145.000000 
0.000000 99.000000 146.000000 
0.000000 99.000000 147.000000 
0.000000 99.000000 148.000000 
0.000000 99.000000 149.000000 
0.000000 99.000000 150.000000 
0.000000 99.000000 151.000000 
0.000000 99.000000 152.000000 
0.000000 99.000000 153.000000 
0.000000 99.000000 154.000000 
0.000000 99.000000 155.000000 
0.000000 99.000000 156.000000 
0.000000 99.000000 157.000000 
0.000000 99.000000 158.000000 
0.000000 99.000000 159.000000 
0.000000 99.000000 160.000000 
0.000000 99.000000 161.000000 
0.000000 99.000000 162.000000 
0.000000 99.000000 163.000000 
0.000000 99.000000 164.000000 
0.000000 99.000000 165.000000 
0.000000 99.000000 166.000000 
0.000000 99.000000 167.000000 
0.000000 99.000000 168.000000 
0.000000 99.000000 169.000000 
0.000000 99.000000 170.000000 
0.000000 99.000000 171.000000 
0.000000 99.000000 172.000000 
0.000000 99.000000 173.000000 
0.000000 99.000000 174.000000 
0.000000 99.000000 175.000000 
0.000000 99.000000 176.000000 
0.000000 99.000000 177.000000 
0.000000 99.000000 178.000000 
0.000000 99.000000 179.000000 
0.000000 99.000000 180.000000 
0.000000 99.000000 181.000000 
0.000000 99.000000 182.000000 
0.000000 99.000000 183.000000 
0.000000 99.000000 184.000000 
0.000000 99.000000 185.000000 
0.000000 99.000000 186.000000 
0.000000 99.000000 187.000000 
0.000000 99.000000 188.000000 
0.000000 99.000000 189.000000 
0.000000 99.000000 190.000000 
0.000000 99.000000 191.000000 
0.000000 99.000000 192.000000 
0.000000 99.000000 193.000000 
0.000000 99.000000 194.000000 
0.000000 99.000000 195.000000 
0.000000 99.000000 196.000000 
0.000000 99.000000 197.000000 
0.000000 99.000000 198.000000 
0.000000 99.000000 199.000000 
0.000000 99.000000 200.000000 
0.000000 100.000000 0.000000 
0.000000 100.000000 1.000000 
0.000000 100.000000 2.000000 
0.000000 100.000000 3.000000 
0.000000 100.000000 4.000000 
0.000000 100.000000 5.000000 
0.000000 100.000000 6.000000 
0.000000 100.000000 7.000000 
0.000000 100.000000 8.000000 
0.000000 100.000000 9.000000 
0.000000 100.000000 10.000000 
0.000000 100.000000 11.000000 
0.000000 100.000000 12.000000 
0.000000 100.000000 13.000000 
0.000000 100.000000 14.000000 
0.000000 100.000000 15.000000 
0.000000 100.000000 16.000000 
0.000000 100.000000 17.000000 
0.000000 100.000000 18.000000 
0.000000 100.000000 19.000000 
0.000000 100.000000 20.000000 
0.000000 100.000000 21.000000 
0.000000 100.000000 22.000000 
0.000000 100.000000 23.000000 
0.000000 100.000000 24.000000 
0.000000 100.000000 25.000000 
0.000000 100.000000 26.000000 
0.000000 100.000000 27.000000 
0.000000 100.000000 28.000000 
0.000000 100.000000 29.000000 
0.000000 100.000000 30.000000 
0.000000 100.000000 31.000000 
0.000000 100.000000 32.000000 
0.000000 100.000000 33.000000 
0.000000 100.000000 34.000000 
0.000000 100.000000 35.000000 
0.000000 100.000000 36.000000 
0.000000 100.000000 37.000000 
0.000000 100.000000 38.000000 
0.000000 100.000000 39.000000 
0.000000 100.000000 40.000000 
0.000000 100.000000 41.000000 
0.000000 100.000000 42.000000 
0.000000 100.000000 43.000000 
0.000000 100.000000 44.000000 
0.000000 100.000000 45.000000 
0.000000 100.000000 46.000000 
0.000000 100.000000 47.000000 
0.000000 100.000000 48.000000 
0.000000 100.000000 49.000000 
0.000000 100.000000 50.000000 
0.000000 100.000000 51.000000 
0.000000 100.000000 52.000000 
0.000000 100.000000 53.000000 
0.000000 100.000000 54.000000 
0.000000 100.000000 55.000000 
0.000000 100.000000 56.000000 
0.000000 100.000000 57.000000 
0.000000 100.000000 58.000000 
0.000000 100.000000 59.000000 
0.000000 100.000000 60.000000 
0.000000 100.000000 61.000000 
0.000000 100.000000 62.000000 
0.000000 100.000000 63.000000 
0.000000 100.000000 64.000000 
0.000000 100.000000 65.000000 
0.000000 100.000000 66.000000 
0.000000 100.000000 67.000000 
0.000000 100.000000 68.000000 
0.000000 100.000000 69.000000 
0.000000 100.000000 70.000000 
0.000000 100.000000 71.000000 
0.000000 100.000000 72.000000 
0.000000 100.000000 73.000000 
0.000000 100.000000 74.000000 
0.000000 100.000000 75.000000 
0.000000 100.000000 76.000000 
0.000000 100.000000 77.000000 
0.000000 100.000000 78.000000 
0.000000 100.000000 79.000000 
0.000000 100.000000 80.000000 
0.000000 100.000000 81.000000 
0.000000 100.000000 82.000000 
0.000000 100.000000 83.000000 
0.000000 100.000000 84.000000 
0.000000 100.000000 85.000000 
0.000000 100.000000 86.000000 
0.000000 100.000000 87.000000 
0.000000 100.000000 88.000000 
0.000000 100.000000 89.000000 
0.000000 100.000000 90.000000 
0.000000 100.000000 91.000000 
0.000000 100.000000 92.000000 
0.000000 100.000000 93.000000 
0.000000 100.000000 94.000000 
0.000000 100.000000 95.000000 
0.000000 100.000000 96.000000 
0.000000 100.000000 97.000000 
0.000000 100.000000 98.000000 
0.000000 100.000000 99.000000 
0.000000 100.000000 100.000000 
0.000000 100.000000 101.000000 
0.000000 100.000000 102.000000 
0.000000 100.000000 103.000000 
0.000000 100.000000 104.000000 
0.000000 100.000000 105.000000 
0.000000 100.000000 106.000000 
0.000000 100.000000 107.000000 
0.000000 100.000000 108.000000 
0.000000 100.000000 109.000000 
0.000000 100.000000 110.000000 
0.000000 100.000000 111.000000 
0.000000 100.000000 112.000000 
0.000000 100.000000 113.000000 
0.000000 100.000000 114.000000 
0.000000 100.000000 115.000000 
0.000000 100.000000 116.000000 
0.000000 100.000000 117.000000 
0.000000 100.000000 118.000000 
0.000000 100.000000 119.000000 
0.000000 100.000000 120.000000 
0.000000 100.000000 121.000000 
0.000000 100.000000 122.000000 
0.000000 100.000000 123.000000 
0.000000 100.000000 124.000000 
0.000000 100.000000 125.000000 
0.000000 100.000000 126.000000 
0.000000 100.000000 127.000000 
0.000000 100.000000 128.000000 
0.000000 100.000000 129.000000 
0.000000 100.000000 130.000000 
0.000000 100.000000 131.000000 
0.000000 100.000000 132.000000 
0.000000 100.000000 133.000000 
0.000000 100.000000 134.000000 
0.000000 100.000000 135.000000 
0.000000 100.000000 136.000000 
0.000000 100.000000 137.000000 
0.000000 100.000000 138.000000 
0.000000 100.000000 139.000000 
0.000000 100.000000 140.000000 
0.000000 100.000000 141.000000 
0.000000 100.000000 142.000000 
0.000000 100.000000 143.000000 
0.000000 100.000000 144.000000 
0.000000 100.000000 145.000000 
0.000000 100.000000 146.000000 
0.000000 100.000000 147.000000 
0.000000 100.000000 148.000000 
0.000000 100.000000 149.000000 
0.000000 100.000000 150.000000 
0.000000 100.000000 151.000000 
0.000000 100.000000 152.000000 
0.000000 100.000000 153.000000 
0.000000 100.000000 154.000000 
0.000000 100.000000 155.000000 
0.000000 100.000000 156.000000 
0.000000 100.000000 157.000000 
0.000000 100.000000 158.000000 
0.000000 100.000000 159.000000 
0.000000 100.000000 160.000000 
0.000000 100.000000 161.000000 
0.000000 100.000000 162.000000 
0.000000 100.000000 163.000000 
0.000000 100.000000 164.000000 
0.000000 100.000000 165.000000 
0.000000 100.000000 166.000000 
0.000000 100.000000 167.000000 
0.000000 100.000000 168.000000 
0.000000 100.000000 169.000000 
0.000000 100.000000 170.000000 
0.000000 100.000000 171.000000 
0.000000 100.000000 172.000000 
0.000000 100.000000 173.000000 
0.000000 100.000000 174.000000 
0.000000 100.000000 175.000000 
0.000000 100.000000 176.000000 
0.000000 100.000000 177.000000 
0.000000 100.000000 178.000000 
0.000000 100.000000 179.000000 
0.000000 100.000000 180.000000 
0.000000 100.000000 181.000000 
0.000000 100.000000 182.000000 
0.000000 100.000000 183.000000 
0.000000 100.000000 184.000000 
0.000000 100.000000 185.000000 
0.000000 100.000000 186.000000 
0.000000 100.000000 187.000000 
0.000000 100.000000 188.000000 
0.000000 100.000000 189.000000 
0.000000 100.000000 190.000000 
0.000000 100.000000 191.000000 
0.000000 100.000000 192.000000 
0.000000 100.000000 193.000000 
0.000000 100.000000 194.000000 
0.000000 100.000000 195.000000 
0.000000 100.000000 196.000000 
0.000000 100.000000 197.000000 
0.000000 100.000000 198.000000 
0.000000 100.000000 199.000000 
0.000000 100.000000 200.000000 
0.000000 CELLS 20000 100000 
4 0 201 202 1 
4 1 202 203 2 
4 2 203 204 3 
4 3 204 205 4 
4 4 205 206 5 
4 5 206 207 6 
4 6 207 208 7 
4 7 208 209 8 
4 8 209 210 9 
4 9 210 211 10 
4 10 211 212 11 
4 11 212 213 12 
4 12 213 214 13 
4 13 214 215 14 
4 14 215 216 15 
4 15 216 217 16 
4 16 217 218 17 
4 17 218 219 18 
4 18 219 220 19 
4 19 220 221 20 
4 20 221 222 21 
4 21 222 223 22 
4 22 223 224 23 
4 23 224 225 24 
4 24 225 226 25 
4 25 226 227 26 
4 26 227 228 27 
4 27 228 229 28 
4 28 229 230 29 
4 29 230 231 30 
4 30 231 232 31 
4 31 232 233 32 
4 32 233 234 33 
4 33 234 235 34 
4 34 235 236 35 
4 35 236 237 36 
4 36 237 238 37 
4 37 238 239 38 
4 38 239 240 39 
4 39 240 241 40 
4 40 241 242 41 
4 41 242 243 42 
4 42 243 244 43 
4 43 244 245 44 
4 44 245 246 45 
4 45 246 247 46 
4 46 247 248 47 
4 47 248 249 48 
4 48 249 250 49 
4 49 250 251 50 
4 50 251 252 51 
4 51 252 253 52 
4 52 253 254 53 
4 53 254 255 54 
4 54 255 256 55 
4 55 256 257 56 
4 56 257 258 57 
4 57 258 259 58 
4 58 259 260 59 
4 59 260 261 60 
4 60 261 262 61 
4 61 262 263 62 
4 62 263 264 63 
4 63 264 265 64 
4 64 265 266 65 
4 65 266 267 66 
4 66 267 268 67 
4 67 268 269 68 
4 68 269 270 69 
4 69 270 271 70 
4 70 271 272 71 
4 71 272 273 72 
4 72 273 274 73 
4 73 274 275 74 
4 74 275 276 75 
4 75 276 277 76 
4 76 277 278 77 
4 77 278 279 78 
4 78 279 280 79 
4 79 280 281 80 
4 80 281 282 81 
4 81 282 283 82 
4 82 283 284 83 
4 83 284 285 84 
4 84 285 286 85 
4 85 286 287 86 
4 86 287 288 87 
4 87 288 289 88 
4 88 289 290 89 
4 89 290 291 90 
4 90 291 292 91 
4 91 292 293 92 
4 92 293 294 93 
4 93 294 295 94 
4 94 295 296 95 
4 95 296 297 96 
4 96 297 298 97 
4 97 298 299 98 
4 98 299 300 99 
4 99 300 301 100 
4 100 301 302 101 
4 101 302 303 102 
4 102 303 304 103 
4 103 304 305 104 
4 104 305 306 105 
4 105 306 307 106 
4 106 307 308 107 
4 107 308 309 108 
4 108 309 310 109 
4 109 310 311 110 
4 110 311 312 111 
4 111 312 313 112 
4 112 313 314 113 
4 113 314 315 114 
4 114 315 316 115 
4 115 316 317 116 
4 116 317 318 117 
4 117 318 319 118 
4 118 319 320 119 
4 119 320 321 120 
4 120 321 322 121 
4 121 322 323 122 
4 122 323 324 123 
4 123 324 325 124 
4 124 325 326 125 
4 125 326 327 126 
4 126 327 328 127 
4 127 328 329 128 
4 128 329 330 129 
4 129 330 331 130 
4 130 331 332 131 
4 131 332 333 132 
4 132 333 334 133 
4 133 334 335 134 
4 134 335 336 135 
4 135 336 337 136 
4 136 337 338 137 
4 137 338 339 138 
4 138 339 340 139 
4 139 340 341 140 
4 140 341 342 141 
4 141 342 343 142 
4 142 343 344 143 
4 143 344 345 144 
4 144 345 346 145 
4 145 346 347 146 
4 146 347 348 147 
4 147 348 349 148 
4 148 349 350 149 
4 149 350 351 150 
4 150 351 352 151 
4 151 352 353 152 
4 152 353 354 153 
4 153 354 355 154 
4 154 355 356 155 
4 155 356 357 156 
4 156 357 358 157 
4 157 358 359 158 
4 158 359 360 159 
4 159 360 361 160 
4 160 361 362 161 
4 161 362 363 162 
4 162 363 364 163 
4 163 364 365 164 
4 164 365 366 165 
4 165 366 367 166 
4 166 367 368 167 
4 167 368 369 168 
4 168 369 370 169 
4 169 370 371 170 
4 170 371 372 171 
4 171 372 373 172 
4 172 373 374 173 
4 173 374 375 174 
4 174 375 376 175 
4 175 376 377 176 
4 176 377 378 177 
4 177 378 379 178 
4 178 379 380 179 
4 179 380 381 180 
4 180 381 382 181 
4 181 382 383 182 
4 182 383 384 183 
4 183 384 385 184 
4 184 385 386 185 
4 185 386 387 186 
4 186 387 388 187 
4 187 388 389 188 
4 188 389 390 189 
4 189 390 391 190 
4 190 391 392 191 
4 191 392 393 192 
4 192 393 394 193 
4 193 394 395 194 
4 194 395 396 195 
4 195 396 397 196 
4 196 397 398 197 
4 197 398 399 198 
4 198 399 400 199 
4 199 400 401 200 
4 201 402 403 202 
4 202 403 404 203 
4 203 404 405 204 
4 204 405 406 205 
4 205 406 407 206 
4 206 407 408 207 
4 207 408 409 208 
4 208 409 410 209 
4 209 410 411 210 
4 210 411 412 211 
4 211 412 413 212 
4 212 413 414 213 
4 213 414 415 214 
4 214 415 416 215 
4 215 416 417 216 
4 216 417 418 217 
4 217 418 419 218 
4 218 419 420 219 
4 219 420 421 220 
4 220 421 422 221 
4 221 422 423 222 
4 222 423 424 223 
4 223 424 425 224 
4 224 425 426 225 
4 225 426 427 226 
4 226 427 428 227 
4 227 428 429 228 
4 228 429 430 229 
4 229 430 431 230 
4 230 431 432 231 
4 231 432 433 232 
4 232 433 434 233 
4 233 434 435 234 
4 234 435 436 235 
4 235 436 437 236 
4 236 437 438 237 
4 237 438 439 238 
4 238 439 440 239 
4 239 440 441 240 
4 240 441 442 241 
4 241 442 443 242 
4 242 443 444 243 
4 243 444 445 244 
4 244 445 446 245 
4 245 446 447 246 
4 246 447 448 247 
4 247 448 449 248 
4 248 449 450 249 
4 249 450 451 250 
4 250 451 452 251 
4 251 452 453 252 
4 252 453 454 253 
4 253 454 455 254 
4 254 455 456 255 
4 255 456 457 256 
4 256 457 458 257 
4 257 458 459 258 
4 258 459 460 259 
4 259 460 461 260 
4 260 461 462 261 
4 261 462 463 262 
4 262 463 464 263 
4 263 464 465 264 
4 264 465 466 265 
4 265 466 467 266 
4 266 467 468 267 
4 267 468 469 268 
4 268 469 470 269 
4 269 470 471 270 
4 270 471 472 271 
4 271 472 473 272 
4 272 473 474 273 
4 273 474 475 274 
4 274 475 476 275 
4 275 476 477 276 
4 276 477 478 277 
4 277 478 479 278 
4 278 479 480 279 
4 279 480 481 280 
4 280 481 482 281 
4 281 482 483 282 
4 282 483 484 283 
4 283 484 485 284 
4 284 485 486 285 
4 285 486 487 286 
4 286 487 488 287 
4 287 488 489 288 
4 288 489 490 289 
4 289 490 491 290 
4 290 491 492 291 
4 291 492 493 292 
4 292 493 494 293 
4 293 494 495 294 
4 294 495 496 295 
4 295 496 497 296 
4 296 497 498 297 
4 297 498 499 298 
4 298 499 500 299 
4 299 500 501 300 
4 300 501 502 301 
4 301 502 503 302 
4 302 503 504 303 
4 303 504 505 304 
4 304 505 506 305 
4 305 506 507 306 
4 306 507 508 307 
4 307 508 509 308 
4 308 509 510 309 
4 309 510 511 310 
4 310 511 512 311 
4 311 512 513 312 
4 312 513 514 313 
4 313 514 515 314 
4 314 515 516 315 
4 315 516 517 316 
4 316 517 518 317 
4 317 518 519 318 
4 318 519 520 319 
4 319 520 521 320 
4 320 521 522 321 
4 321 522 523 322 
4 322 523 524 323 
4 323 524 525 324 
4 324 525 526 325 
4 325 526 527 326 
4 326 527 528 327 
4 327 528 529 328 
4 328 529 530 329 
4 329 530 531 330 
4 330 531 532 331 
4 331 532 533 332 
4 332 533 534 333 
4 333 534 535 334 
4 334 535 536 335 
4 335 536 537 336 
4 336 537 538 337 
4 337 538 539 338 
4 338 539 540 339 
4 339 540 541 340 
4 340 541 542 341 
4 341 542 543 342 
4 342 543 544 343 
4 343 544 545 344 
4 344 545 546 345 
4 345 546 547 346 
4 346 547 548 347 
4 347 548 549 348 
4 348 549 550 349 
4 349 550 551 350 
4 350 551 552 351 
4 351 552 553 352 
4 352 553 554 353 
4 353 554 555 354 
4 354 555 556 355 
4 355 556 557 356 
4 356 557 558 357 
4 357 558 559 358 
4 358 559 560 359 
4 359 560 561 360 
4 360 561 562 361 
4 361 562 563 362 
4 362 563 564 363 
4 363 564 565 364 
4 364 565 566 365 
4 365 566 567 366 
4 366 567 568 367 
4 367 568 569 368 
4 368 569 570 369 
4 369 570 571 370 
4 370 571 572 371 
4 371 572 573 372 
4 372 573 574 373 
4 373 574 575 374 
4 374 575 576 375 
4 375 576 577 376 
4 376 577 578 377 
4 377 578 579 378 
4 378 579 580 379 
4 379 580 581 380 
4 380 581 582 381 
4 381 582 583 382 
4 382 583 584 383 
4 383 584 585 384 
4 384 585 586 385 
4 385 586 587 386 
4 386 587 588 387 
4 387 588 589 388 
4 388 589 590 389 
4 389 590 591 390 
4 390 591 592 391 
4 391 592 593 392 
4 392 593 594 393 
4 393 594 595 394 
4 394 595 596 395 
4 395 596 597 396 
4 396 597 598 397 
4 397 598 599 398 
4 398 599 600 399 
4 399 600 601 400 
4 400 601 602 401 
4 402 603 604 403 
4 403 604 605 404 
4 404 605 606 405 
4 405 606 607 406 
4 406 607 608 407 
4 407 608 609 408 
4 408 609 610 409 
4 409 610 611 410 
4 410 611 612 411 
4 411 612 613 412 
4 412 613 614 413 
4 413 614 615 414 
4 414 615 616 415 
4 415 616 617 416 
4 416 617 618 417 
4 417 618 619 418 
4 418 619 620 419 
4 419 620 621 420 
4 420 621 622 421 
4 421 622 623 422 
4 422 623 624 423 
4 423 624 625 424 
4 424 625 626 425 
4 425 626 627 426 
4 426 627 628 427 
4 427 628 629 428 
4 428 629 630 429 
4 429 630 631 430 
4 430 631 632 431 
4 431 632 633 432 
4 432 633 634 433 
4 433 634 635 434 
4 434 635 636 435 
4 435 636 637 436 
4 436 637 638 437 
4 437 638 639 438 
4 438 639 640 439 
4 439 640 641 440 
4 440 641 642 441 
4 441 642 643 442 
4 442 643 644 443 
4 443 644 645 444 
4 444 645 646 445 
4 445 646 647 446 
4 446 647 648 447 
4 447 648 649 448 
4 448 649 650 449 
4 449 650 651 450 
4 450 651 652 451 
4 451 652 653 452 
4 452 653 654 453 
4 453 654 655 454 
4 454 655 656 455 
4 455 656 657 456 
4 456 657 658 457 
4 457 658 659 458 
4 458 659 660 459 
4 459 660 661 460 
4 460 661 662 461 
4 461 662 663 462 
4 462 663 664 463 
4 463 664 665 464 
4 464 665 666 465 
4 465 666 667 466 
4 466 667 668 467 
4 467 668 669 468 
4 468 669 670 469 
4 469 670 671 470 
4 470 671 672 471 
4 471 672 673 472 
4 472 673 674 473 
4 473 674 675 474 
4 474 675 676 475 
4 475 676 677 476 
4 476 677 678 477 
4 477 678 679 478 
4 478 679 680 479 
4 479 680 681 480 
4 480 681 682 481 
4 481 682 683 482 
4 482 683 684 483 
4 483 684 685 484 
4 484 685 686 485 
4 485 686 687 486 
4 486 687 688 487 
4 487 688 689 488 
4 488 689 690 489 
4 489 690 691 490 
4 490 691 692 491 
4 491 692 693 492 
4 492 693 694 493 
4 493 694 695 494 
4 494 695 696 495 
4 495 696 697 496 
4 496 697 698 497 
4 497 698 699 498 
4 498 699 700 499 
4 499 700 701 500 
4 500 701 702 501 
4 501 702 703 502 
4 502 703 704 503 
4 503 704 705 504 
4 504 705 706 505 
4 505 706 707 506 
4 506 707 708 507 
4 507 708 709 508 
4 508 709 710 509 
4 509 710 711 510 
4 510 711 712 511 
4 511 712 713 512 
4 512 713 714 513 
4 513 714 715 514 
4 514 715 716 515 
4 515 716 717 516 
4 516 717 718 517 
4 517 718 719 518 
4 518 719 720 519 
4 519 720 721 520 
4 520 721 722 521 
4 521 722 723 522 
4 522 723 724 523 
4 523 724 725 524 
4 524 725 726 525 
4 525 726 727 526 
4 526 727 728 527 
4 527 728 729 528 
4 528 729 730 529 
4 529 730 731 530 
4 530 731 732 531 
4 531 732 733 532 
4 532 733 734 533 
4 533 734 735 534 
4 534 735 736 535 
4 535 736 737 536 
4 536 737 738 537 
4 537 738 739 538 
4 538 739 740 539 
4 539 740 741 540 
4 540 741 742 541 
4 541 742 743 542 
4 542 743 744 543 
4 543 744 745 544 
4 544 745 746 545 
4 545 746 747 546 
4 546 747 748 547 
4 547 748 749 548 
4 548 749 750 549 
4 549 750 751 550 
4 550 751 752 551 
4 551 752 753 552 
4 552 753 754 553 
4 553 754 755 554 
4 554 755 756 555 
4 555 756 757 556 
4 556 757 758 557 
4 557 758 759 558 
4 558 759 760 559 
4 559 760 761 560 
4 560 761 762 561 
4 561 762 763 562 
4 562 763 764 563 
4 563 764 765 564 
4 564 765 766 565 
4 565 766 767 566 
4 566 767 768 567 
4 567 768 769 568 
4 568 769 770 569 
4 569 770 771 570 
4 570 771 772 571 
4 571 772 773 572 
4 572 773 774 573 
4 573 774 775 574 
4 574 775 776 575 
4 575 776 777 576 
4 576 777 778 577 
4 577 778 779 578 
4 578 779 780 579 
4 579 780 781 580 
4 580 781 782 581 
4 581 782 783 582 
4 582 783 784 583 
4 583 784 785 584 
4 584 785 786 585 
4 585 786 787 586 
4 586 787 788 587 
4 587 788 789 588 
4 588 789 790 589 
4 589 790 791 590 
4 590 791 792 591 
4 591 792 793 592 
4 592 793 794 593 
4 593 794 795 594 
4 594 795 796 595 
4 595 796 797 596 
4 596 797 798 597 
4 597 798 799 598 
4 598 799 800 599 
4 599 800 801 600 
4 600 801 802 601 
4 601 802 803 602 
4 603 804 805 604 
4 604 805 806 605 
4 605 806 807 606 
4 606 807 808 607 
4 607 808 809 608 
4 608 809 810 609 
4 609 810 811 610 
4 610 811 812 611 
4 611 812 813 612 
4 612 813 814 613 
4 613 814 815 614 
4 614 815 816 615 
4 615 816 817 616 
4 616 817 818 617 
4 617 818 819 618 
4 618 819 820 619 
4 619 820 821 620 
4 620 821 822 621 
4 621 822 823 622 
4 622 823 824 623 
4 623 824 825 624 
4 624 825 826 625 
4 625 826 827 626 
4 626 827 828 627 
4 627 828 829 628 
4 628 829 830 629 
4 629 830 831 630 
4 630 831 832 631 
4 631 832 833 632 
4 632 833 834 633 
4 633 834 835 634 
4 634 835 836 635 
4 635 836 837 636 
4 636 837 838 637 
4 637 838 839 638 
4 638 839 840 639 
4 639 840 841 640 
4 640 841 842 641 
4 641 842 843 642 
4 642 843 844 643 
4 643 844 845 644 
4 644 845 846 645 
4 645 846 847 646 
4 646 847 848 647 
4 647 848 849 648 
4 648 849 850 649 
4 649 850 851 650 
4 650 851 852 651 
4 651 852 853 652 
4 652 853 854 653 
4 653 854 855 654 
4 654 855 856 655 
4 655 856 857 656 
4 656 857 858 657 
4 657 858 859 658 
4 658 859 860 659 
4 659 860 861 660 
4 660 861 862 661 
4 661 862 863 662 
4 662 863 864 663 
4 663 864 865 664 
4 664 865 866 665 
4 665 866 867 666 
4 666 867 868 667 
4 667 868 869 668 
4 668 869 870 669 
4 669 870 871 670 
4 670 871 872 671 
4 671 872 873 672 
4 672 873 874 673 
4 673 874 875 674 
4 674 875 876 675 
4 675 876 877 676 
4 676 877 878 677 
4 677 878 879 678 
4 678 879 880 679 
4 679 880 881 680 
4 680 881 882 681 
4 681 882 883 682 
4 682 883 884 683 
4 683 884 885 684 
4 684 885 886 685 
4 685 886 887 686 
4 686 887 888 687 
4 687 888 889 688 
4 688 889 890 689 
4 689 890 891 690 
4 690 891 892 691 
4 691 892 893 692 
4 692 893 894 693 
4 693 894 895 694 
4 694 895 896 695 
4 695 896 897 696 
4 696 897 898 697 
4 697 898 899 698 
4 698 899 900 699 
4 699 900 901 700 
4 700 901 902 701 
4 701 902 903 702 
4 702 903 904 703 
4 703 904 905 704 
4 704 905 906 705 
4 705 906 907 706 
4 706 907 908 707 
4 707 908 909 708 
4 708 909 910 709 
4 709 910 911 710 
4 710 911 912 711 
4 711 912 913 712 
4 712 913 914 713 
4 713 914 915 714 
4 714 915 916 715 
4 715 916 917 716 
4 716 917 918 717 
4 717 918 919 718 
4 718 919 920 719 
4 719 920 921 720 
4 720 921 922 721 
4 721 922 923 722 
4 722 923 924 723 
4 723 924 925 724 
4 724 925 926 725 
4 725 926 927 726 
4 726 927 928 727 
4 727 928 929 728 
4 728 929 930 729 
4 729 930 931 730 
4 730 931 932 731 
4 731 932 933 732 
4 732 933 934 733 
4 733 934 935 734 
4 734 935 936 735 
4 735 936 937 736 
4 736 937 938 737 
4 737 938 939 738 
4 738 939 940 739 
4 739 940 941 740 
4 740 941 942 741 
4 741 942 943 742 
4 742 943 944 743 
4 743 944 945 744 
4 744 945 946 745 
4 745 946 947 746 
4 746 947 948 747 
4 747 948 949 748 
4 748 949 950 749 
4 749 950 951 750 
4 750 951 952 751 
4 751 952 953 752 
4 752 953 954 753 
4 753 954 955 754 
4 754 955 956 755 
4 755 956 957 756 
4 756 957 958 757 
4 757 958 959 758 
4 758 959 960 759 
4 759 960 961 760 
4 760 961 962 761 
4 761 962 963 762 
4 762 963 964 763 
4 763 964 965 764 
4 764 965 966 765 
4 765 966 967 766 
4 766 967 968 767 
4 767 968 969 768 
4 768 969 970 769 
4 769 970 971 770 
4 770 971 972 771 
4 771 972 973 772 
4 772 973 974 773 
4 773 974 975 774 
4 774 975 976 775 
4 775 976 977 776 
4 776 977 978 777 
4 777 978 979 778 
4 778 979 980 779 
4 779 980 981 780 
4 780 981 982 781 
4 781 982 983 782 
4 782 983 984 783 
4 783 984 985 784 
4 784 985 986 785 
4 785 986 987 786 
4 786 987 988 787 
4 787 988 989 788 
4 788 989 990 789 
4 789 990 991 790 
4 790 991 992 791 
4 791 992 993 792 
4 792 993 994 793 
4 793 994 995 794 
4 794 995 996 795 
4 795 996 997 796 
4 796 997 998 797 
4 797 998 999 798 
4 798 999 1000 799 
4 799 1000 1001 800 
4 800 1001 1002 801 
4 801 1002 1003 802 
4 802 1003 1004 803 
4 804 1005 1006 805 
4 805 1006 1007 806 
4 806 1007 1008 807 
4 807 1008 1009 808 
4 808 1009 1010 809 
4 809 1010 1011 810 
4 810 1011 1012 811 
4 811 1012 1013 812 
4 812 1013 1014 813 
4 813 1014 1015 814 
4 814 1015 1016 815 
4 815 1016 1017 816 
4 816 1017 1018 817 
4 817 1018 1019 818 
4 818 1019 1020 819 
4 819 1020 1021 820 
4 820 1021 1022 821 
4 821 1022 1023 822 
4 822 1023 1024 823 
4 823 1024 1025 824 
4 824 1025 1026 825 
4 825 1026 1027 826 
4 826 1027 1028 827 
4 827 1028 1029 828 
4 828 1029 1030 829 
4 829 1030 1031 830 
4 830 1031 1032 831 
4 831 1032 1033 832 
4 832 1033 1034 833 
4 833 1034 1035 834 
4 834 1035 1036 835 
4 835 1036 1037 836 
4 836 1037 1038 837 
4 837 1038 1039 838 
4 838 1039 1040 839 
4 839 1040 1041 840 
4 840 1041 1042 841 
4 841 1042 1043 842 
4 842 1043 1044 843 
4 843 1044 1045 844 
4 844 1045 1046 845 
4 845 1046 1047 846 
4 846 1047 1048 847 
4 847 1048 1049 848 
4 848 1049 1050 849 
4 849 1050 1051 850 
4 850 1051 1052 851 
4 851 1052 1053 852 
4 852 1053 1054 853 
4 853 1054 1055 854 
4 854 1055 1056 855 
4 855 1056 1057 856 
4 856 1057 1058 857 
4 857 1058 1059 858 
4 858 1059 1060 859 
4 859 1060 1061 860 
4 860 1061 1062 861 
4 861 1062 1063 862 
4 862 1063 1064 863 
4 863 1064 1065 864 
4 864 1065 1066 865 
4 865 1066 1067 866 
4 866 1067 1068 867 
4 867 1068 1069 868 
4 868 1069 1070 869 
4 869 1070 1071 870 
4 870 1071 1072 871 
4 871 1072 1073 872 
4 872 1073 1074 873 
4 873 1074 1075 874 
4 874 1075 1076 875 
4 875 1076 1077 876 
4 876 1077 1078 877 
4 877 1078 1079 878 
4 878 1079 1080 879 
4 879 1080 1081 880 
4 880 1081 1082 881 
4 881 1082 1083 882 
4 882 1083 1084 883 
4 883 1084 1085 884 
4 884 1085 1086 885 
4 885 1086 1087 886 
4 886 1087 1088 887 
4 887 1088 1089 888 
4 888 1089 1090 889 
4 889 1090 1091 890 
4 890 1091 1092 891 
4 891 1092 1093 892 
4 892 1093 1094 893 
4 893 1094 1095 894 
4 894 1095 1096 895 
4 895 1096 1097 896 
4 896 1097 1098 897 
4 897 1098 1099 898 
4 898 1099 1100 899 
4 899 1100 1101 900 
4 900 1101 1102 901 
4 901 1102 1103 902 
4 902 1103 1104 903 
4 903 1104 1105 904 
4 904 1105 1106 905 
4 905 1106 1107 906 
4 906 1107 1108 907 
4 907 1108 1109 908 
4 908 1109 1110 909 
4 909 1110 1111 910 
4 910 1111 1112 911 
4 911 1112 1113 912 
4 912 1113 1114 913 
4 913 1114 1115 914 
4 914 1115 1116 915 
4 915 1116 1117 916 
4 916 1117 1118 917 
4 917 1118 1119 918 
4 918 1119 1120 919 
4 919 1120 1121 920 
4 920 1121 1122 921 
4 921 1122 1123 922 
4 922 1123 1124 923 
4 923 1124 1125 924 
4 924 1125 1126 925 
4 925 1126 1127 926 
4 926 1127 1128 927 
4 927 1128 1129 928 
4 928 1129 1130 929 
4 929 1130 1131 930 
4 930 1131 1132 931 
4 931 1132 1133 932 
4 932 1133 1134 933 
4 933 1134 1135 934 
4 934 1135 1136 935 
4 935 1136 1137 936 
4 936 1137 1138 937 
4 937 1138 1139 938 
4 938 1139 1140 939 
4 939 1140 1141 940 
4 940 1141 1142 941 
4 941 1142 1143 942 
4 942 1143 1144 943 
4 943 1144 1145 944 
4 944 1145 1146 945 
4 945 1146 1147 946 
4 946 1147 1148 947 
4 947 1148 1149 948 
4 948 1149 1150 949 
4 949 1150 1151 950 
4 950 1151 1152 951 
4 951 1152 1153 952 
4 952 1153 1154 953 
4 953 1154 1155 954 
4 954 1155 1156 955 
4 955 1156 1157 956 
4 956 1157 1158 957 
4 957 1158 1159 958 
4 958 1159 1160 959 
4 959 1160 1161 960 
4 960 1161 1162 961 
4 961 1162 1163 962 
4 962 1163 1164 963 
4 963 1164 1165 964 
4 964 1165 1166 965 
4 965 1166 1167 966 
4 966 1167 1168 967 
4 967 1168 1169 968 
4 968 1169 1170 969 
4 969 1170 1171 970 
4 970 1171 1172 971 
4 971 1172 1173 972 
4 972 1173 1174 973 
4 973 1174 1175 974 
4 974 1175 1176 975 
4 975 1176 1177 976 
4 976 1177 1178 977 
4 977 1178 1179 978 
4 978 1179 1180 979 
4 979 1180 1181 980 
4 980 1181 1182 981 
4 981 1182 1183 982 
4 982 1183 1184 983 
4 983 1184 1185 984 
4 984 1185 1186 985 
4 985 1186 1187 986 
4 986 1187 1188 987 
4 987 1188 1189 988 
4 988 1189 1190 989 
4 989 1190 1191 990 
4 990 1191 1192 991 
4 991 1192 1193 992 
4 992 1193 1194 993 
4 993 1194 1195 994 
4 994 1195 1196 995 
4 995 1196 1197 996 
4 996 1197 1198 997 
4 997 1198 1199 998 
4 998 1199 1200 999 
4 999 1200 1201 1000 
4 1000 1201 1202 1001 
4 1001 1202 1203 1002 
4 1002 1203 1204 1003 
4 1003 1204 1205 1004 
4 1005 1206 1207 1006 
4 1006 1207 1208 1007 
4 1007 1208 1209 1008 
4 1008 1209 1210 1009 
4 1009 1210 1211 1010 
4 1010 1211 1212 1011 
4 1011 1212 1213 1012 
4 1012 1213 1214 1013 
4 1013 1214 1215 1014 
4 1014 1215 1216 1015 
4 1015 1216 1217 1016 
4 1016 1217 1218 1017 
4 1017 1218 1219 1018 
4 1018 1219 1220 1019 
4 1019 1220 1221 1020 
4 1020 1221 1222 1021 
4 1021 1222 1223 1022 
4 1022 1223 1224 1023 
4 1023 1224 1225 1024 
4 1024 1225 1226 1025 
4 1025 1226 1227 1026 
4 1026 1227 1228 1027 
4 1027 1228 1229 1028 
4 1028 1229 1230 1029 
4 1029 1230 1231 1030 
4 1030 1231 1232 1031 
4 1031 1232 1233 1032 
4 1032 1233 1234 1033 
4 1033 1234 1235 1034 
4 1034 1235 1236 1035 
4 1035 1236 1237 1036 
4 1036 1237 1238 1037 
4 1037 1238 1239 1038 
4 1038 1239 1240 1039 
4 1039 1240 1241 1040 
4 1040 1241 1242 1041 
4 1041 1242 1243 1042 
4 1042 1243 1244 1043 
4 1043 1244 1245 1044 
4 1044 1245 1246 1045 
4 1045 1246 1247 1046 
4 1046 1247 1248 1047 
4 1047 1248 1249 1048 
4 1048 1249 1250 1049 
4 1049 1250 1251 1050 
4 1050 1251 1252 1051 
4 1051 1252 1253 1052 
4 1052 1253 1254 1053 
4 1053 1254 1255 1054 
4 1054 1255 1256 1055 
4 1055 1256 1257 1056 
4 1056 1257 1258 1057 
4 1057 1258 1259 1058 
4 1058 1259 1260 1059 
4 1059 1260 1261 1060 
4 1060 1261 1262 1061 
4 1061 1262 1263 1062 
4 1062 1263 1264 1063 
4 1063 1264 1265 1064 
4 1064 1265 1266 1065 
4 1065 1266 1267 1066 
4 1066 1267 1268 1067 
4 1067 1268 1269 1068 
4 1068 1269 1270 1069 
4 1069 1270 1271 1070 
4 1070 1271 1272 1071 
4 1071 1272 1273 1072 
4 1072 1273 1274 1073 
4 1073 1274 1275 1074 
4 1074 1275 1276 1075 
4 1075 1276 1277 1076 
4 1076 1277 1278 1077 
4 1077 1278 1279 1078 
4 1078 1279 1280 1079 
4 1079 1280 1281 1080 
4 1080 1281 1282 1081 
4 1081 1282 1283 1082 
4 1082 1283 1284 1083 
4 1083 1284 1285 1084 
4 1084 1285 1286 1085 
4 1085 1286 1287 1086 
4 1086 1287 1288 1087 
4 1087 1288 1289 1088 
4 1088 1289 1290 1089 
4 1089 1290 1291 1090 
4 1090 1291 1292 1091 
4 1091 1292 1293 1092 
4 1092 1293 1294 1093 
4 1093 1294 1295 1094 
4 1094 1295 1296 1095 
4 1095 1296 1297 1096 
4 1096 1297 1298 1097 
4 1097 1298 1299 1098 
4 1098 1299 1300 1099 
4 1099 1300 1301 1100 
4 1100 1301 1302 1101 
4 1101 1302 1303 1102 
4 1102 1303 1304 1103 
4 1103 1304 1305 1104 
4 1104 1305 1306 1105 
4 1105 1306 1307 1106 
4 1106 1307 1308 1107 
4 1107 1308 1309 1108 
4 1108 1309 1310 1109 
4 1109 1310 1311 1110 
4 1110 1311 1312 1111 
4 1111 1312 1313 1112 
4 1112 1313 1314 1113 
4 1113 1314 1315 1114 
4 1114 1315 1316 1115 
4 1115 1316 1317 1116 
4 1116 1317 1318 1117 
4 1117 1318 1319 1118 
4 1118 1319 1320 1119 
4 1119 1320 1321 1120 
4 1120 1321 1322 1121 
4 1121 1322 1323 1122 
4 1122 1323 1324 1123 
4 1123 1324 1325 1124 
4 1124 1325 1326 1125 
4 1125 1326 1327 1126 
4 1126 1327 1328 1127 
4 1127 1328 1329 1128 
4 1128 1329 1330 1129 
4 1129 1330 1331 1130 
4 1130 1331 1332 1131 
4 1131 1332 1333 1132 
4 1132 1333 1334 1133 
4 1133 1334 1335 1134 
4 1134 1335 1336 1135 
4 1135 1336 1337 1136 
4 1136 1337 1338 1137 
4 1137 1338 1339 1138 
4 1138 1339 1340 1139 
4 1139 1340 1341 1140 
4 1140 1341 1342 1141 
4 1141 1342 1343 1142 
4 1142 1343 1344 1143 
4 1143 1344 1345 1144 
4 1144 1345 1346 1145 
4 1145 1346 1347 1146 
4 1146 1347 1348 1147 
4 1147 1348 1349 1148 
4 1148 1349 1350 1149 
4 1149 1350 1351 1150 
4 1150 1351 1352 1151 
4 1151 1352 1353 1152 
4 1152 1353 1354 1153 
4 1153 1354 1355 1154 
4 1154 1355 1356 1155 
4 1155 1356 1357 1156 
4 1156 1357 1358 1157 
4 1157 1358 1359 1158 
4 1158 1359 1360 1159 
4 1159 1360 1361 1160 
4 1160 1361 1362 1161 
4 1161 1362 1363 1162 
4 1162 1363 1364 1163 
4 1163 1364 1365 1164 
4 1164 1365 1366 1165 
4 1165 1366 1367 1166 
4 1166 1367 1368 1167 
4 1167 1368 1369 1168 
4 1168 1369 1370 1169 
4 1169 1370 1371 1170 
4 1170 1371 1372 1171 
4 1171 1372 1373 1172 
4 1172 1373 1374 1173 
4 1173 1374 1375 1174 
4 1174 1375 1376 1175 
4 1175 1376 1377 1176 
4 1176 1377 1378 1177 
4 1177 1378 1379 1178 
4 1178 1379 1380 1179 
4 1179 1380 1381 1180 
4 1180 1381 1382 1181 
4 1181 1382 1383 1182 
4 1182 1383 1384 1183 
4 1183 1384 1385 1184 
4 1184 1385 1386 1185 
4 1185 1386 1387 1186 
4 1186 1387 1388 1187 
4 1187 1388 1389 1188 
4 1188 1389 1390 1189 
4 1189 1390 1391 1190 
4 1190 1391 1392 1191 
4 1191 1392 1393 1192 
4 1192 1393 1394 1193 
4 1193 1394 1395 1194 
4 1194 1395 1396 1195 
4 1195 1396 1397 1196 
4 1196 1397 1398 1197 
4 1197 1398 1399 1198 
4 1198 1399 1400 1199 
4 1199 1400 1401 1200 
4 1200 1401 1402 1201 
4 1201 1402 1403 1202 
4 1202 1403 1404 1203 
4 1203 1404 1405 1204 
4 1204 1405 1406 1205 
4 1206 1407 1408 1207 
4 1207 1408 1409 1208 
4 1208 1409 1410 1209 
4 1209 1410 1411 1210 
4 1210 1411 1412 1211 
4 1211 1412 1413 1212 
4 1212 1413 1414 1213 
4 1213 1414 1415 1214 
4 1214 1415 1416 1215 
4 1215 1416 1417 1216 
4 1216 1417 1418 1217 
4 1217 1418 1419 1218 
4 1218 1419 1420 1219 
4 1219 1420 1421 1220 
4 1220 1421 1422 1221 
4 1221 1422 1423 1222 
4 1222 1423 1424 1223 
4 1223 1424 1425 1224 
4 1224 1425 1426 1225 
4 1225 1426 1427 1226 
4 1226 1427 1428 1227 
4 1227 1428 1429 1228 
4 1228 1429 1430 1229 
4 1229 1430 1431 1230 
4 1230 1431 1432 1231 
4 1231 1432 1433 1232 
4 1232 1433 1434 1233 
4 1233 1434 1435 1234 
4 1234 1435 1436 1235 
4 1235 1436 1437 1236 
4 1236 1437 1438 1237 
4 1237 1438 1439 1238 
4 1238 1439 1440 1239 
4 1239 1440 1441 1240 
4 1240 1441 1442 1241 
4 1241 1442 1443 1242 
4 1242 1443 1444 1243 
4 1243 1444 1445 1244 
4 1244 1445 1446 1245 
4 1245 1446 1447 1246 
4 1246 1447 1448 1247 
4 1247 1448 1449 1248 
4 1248 1449 1450 1249 
4 1249 1450 1451 1250 
4 1250 1451 1452 1251 
4 1251 1452 1453 1252 
4 1252 1453 1454 1253 
4 1253 1454 1455 1254 
4 1254 1455 1456 1255 
4 1255 1456 1457 1256 
4 1256 1457 1458 1257 
4 1257 1458 1459 1258 
4 1258 1459 1460 1259 
4 1259 1460 1461 1260 
4 1260 1461 1462 1261 
4 1261 1462 1463 1262 
4 1262 1463 1464 1263 
4 1263 1464 1465 1264 
4 1264 1465 1466 1265 
4 1265 1466 1467 1266 
4 1266 1467 1468 1267 
4 1267 1468 1469 1268 
4 1268 1469 1470 1269 
4 1269 1470 1471 1270 
4 1270 1471 1472 1271 
4 1271 1472 1473 1272 
4 1272 1473 1474 1273 
4 1273 1474 1475 1274 
4 1274 1475 1476 1275 
4 1275 1476 1477 1276 
4 1276 1477 1478 1277 
4 1277 1478 1479 1278 
4 1278 1479 1480 1279 
4 1279 1480 1481 1280 
4 1280 1481 1482 1281 
4 1281 1482 1483 1282 
4 1282 1483 1484 1283 
4 1283 1484 1485 1284 
4 1284 1485 1486 1285 
4 1285 1486 1487 1286 
4 1286 1487 1488 1287 
4 1287 1488 1489 1288 
4 1288 1489 1490 1289 
4 1289 1490 1491 1290 
4 1290 1491 1492 1291 
4 1291 1492 1493 1292 
4 1292 1493 1494 1293 
4 1293 1494 1495 1294 
4 1294 1495 1496 1295 
4 1295 1496 1497 1296 
4 1296 1497 1498 1297 
4 1297 1498 1499 1298 
4 1298 1499 1500 1299 
4 1299 1500 1501 1300 
4 1300 1501 1502 1301 
4 1301 1502 1503 1302 
4 1302 1503 1504 1303 
4 1303 1504 1505 1304 
4 1304 1505 1506 1305 
4 1305 1506 1507 1306 
4 1306 1507 1508 1307 
4 1307 1508 1509 1308 
4 1308 1509 1510 1309 
4 1309 1510 1511 1310 
4 1310 1511 1512 1311 
4 1311 1512 1513 1312 
4 1312 1513 1514 1313 
4 1313 1514 1515 1314 
4 1314 1515 1516 1315 
4 1315 1516 1517 1316 
4 1316 1517 1518 1317 
4 1317 1518 1519 1318 
4 1318 1519 1520 1319 
4 1319 1520 1521 1320 
4 1320 1521 1522 1321 
4 1321 1522 1523 1322 
4 1322 1523 1524 1323 
4 1323 1524 1525 1324 
4 1324 1525 1526 1325 
4 1325 1526 1527 1326 
4 1326 1527 1528 1327 
4 1327 1528 1529 1328 
4 1328 1529 1530 1329 
4 1329 1530 1531 1330 
4 1330 1531 1532 1331 
4 1331 1532 1533 1332 
4 1332 1533 1534 1333 
4 1333 1534 1535 1334 
4 1334 1535 1536 1335 
4 1335 1536 1537 1336 
4 1336 1537 1538 1337 
4 1337 1538 1539 1338 
4 1338 1539 1540 1339 
4 1339 1540 1541 1340 
4 1340 1541 1542 1341 
4 1341 1542 1543 1342 
4 1342 1543 1544 1343 
4 1343 1544 1545 1344 
4 1344 1545 1546 1345 
4 1345 1546 1547 1346 
4 1346 1547 1548 1347 
4 1347 1548 1549 1348 
4 1348 1549 1550 1349 
4 1349 1550 1551 1350 
4 1350 1551 1552 1351 
4 1351 1552 1553 1352 
4 1352 1553 1554 1353 
4 1353 1554 1555 1354 
4 1354 1555 1556 1355 
4 1355 1556 1557 1356 
4 1356 1557 1558 1357 
4 1357 1558 1559 1358 
4 1358 1559 1560 1359 
4 1359 1560 1561 1360 
4 1360 1561 1562 1361 
4 1361 1562 1563 1362 
4 1362 1563 1564 1363 
4 1363 1564 1565 1364 
4 1364 1565 1566 1365 
4 1365 1566 1567 1366 
4 1366 1567 1568 1367 
4 1367 1568 1569 1368 
4 1368 1569 1570 1369 
4 1369 1570 1571 1370 
4 1370 1571 1572 1371 
4 1371 1572 1573 1372 
4 1372 1573 1574 1373 
4 1373 1574 1575 1374 
4 1374 1575 1576 1375 
4 1375 1576 1577 1376 
4 1376 1577 1578 1377 
4 1377 1578 1579 1378 
4 1378 1579 1580 1379 
4 1379 1580 1581 1380 
4 1380 1581 1582 1381 
4 1381 1582 1583 1382 
4 1382 1583 1584 1383 
4 1383 1584 1585 1384 
4 1384 1585 1586 1385 
4 1385 1586 1587 1386 
4 1386 1587 1588 1387 
4 1387 1588 1589 1388 
4 1388 1589 1590 1389 
4 1389 1590 1591 1390 
4 1390 1591 1592 1391 
4 1391 1592 1593 1392 
4 1392 1593 1594 1393 
4 1393 1594 1595 1394 
4 1394 1595 1596 1395 
4 1395 1596 1597 1396 
4 1396 1597 1598 1397 
4 1397 1598 1599 1398 
4 1398 1599 1600 1399 
4 1399 1600 1601 1400 
4 1400 1601 1602 1401 
4 1401 1602 1603 1402 
4 1402 1603 1604 1403 
4 1403 1604 1605 1404 
4 1404 1605 1606 1405 
4 1405 1606 1607 1406 
4 1407 1608 1609 1408 
4 1408 1609 1610 1409 
4 1409 1610 1611 1410 
4 1410 1611 1612 1411 
4 1411 1612 1613 1412 
4 1412 1613 1614 1413 
4 1413 1614 1615 1414 
4 1414 1615 1616 1415 
4 1415 1616 1617 1416 
4 1416 1617 1618 1417 
4 1417 1618 1619 1418 
4 1418 1619 1620 1419 
4 1419 1620 1621 1420 
4 1420 1621 1622 1421 
4 1421 1622 1623 1422 
4 1422 1623 1624 1423 
4 1423 1624 1625 1424 
4 1424 1625 1626 1425 
4 1425 1626 1627 1426 
4 1426 1627 1628 1427 
4 1427 1628 1629 1428 
4 1428 1629 1630 1429 
4 1429 1630 1631 1430 
4 1430 1631 1632 1431 
4 1431 1632 1633 1432 
4 1432 1633 1634 1433 
4 1433 1634 1635 1434 
4 1434 1635 1636 1435 
4 1435 1636 1637 1436 
4 1436 1637 1638 1437 
4 1437 1638 1639 1438 
4 1438 1639 1640 1439 
4 1439 1640 1641 1440 
4 1440 1641 1642 1441 
4 1441 1642 1643 1442 
4 1442 1643 1644 1443 
4 1443 1644 1645 1444 
4 1444 1645 1646 1445 
4 1445 1646 1647 1446 
4 1446 1647 1648 1447 
4 1447 1648 1649 1448 
4 1448 1649 1650 1449 
4 1449 1650 1651 1450 
4 1450 1651 1652 1451 
4 1451 1652 1653 1452 
4 1452 1653 1654 1453 
4 1453 1654 1655 1454 
4 1454 1655 1656 1455 
4 1455 1656 1657 1456 
4 1456 1657 1658 1457 
4 1457 1658 1659 1458 
4 1458 1659 1660 1459 
4 1459 1660 1661 1460 
4 1460 1661 1662 1461 
4 1461 1662 1663 1462 
4 1462 1663 1664 1463 
4 1463 1664 1665 1464 
4 1464 1665 1666 1465 
4 1465 1666 1667 1466 
4 1466 1667 1668 1467 
4 1467 1668 1669 1468 
4 1468 1669 1670 1469 
4 1469 1670 1671 1470 
4 1470 1671 1672 1471 
4 1471 1672 1673 1472 
4 1472 1673 1674 1473 
4 1473 1674 1675 1474 
4 1474 1675 1676 1475 
4 1475 1676 1677 1476 
4 1476 1677 1678 1477 
4 1477 1678 1679 1478 
4 1478 1679 1680 1479 
4 1479 1680 1681 1480 
4 1480 1681 1682 1481 
4 1481 1682 1683 1482 
4 1482 1683 1684 1483 
4 1483 1684 1685 1484 
4 1484 1685 1686 1485 
4 1485 1686 1687 1486 
4 1486 1687 1688 1487 
4 1487 1688 1689 1488 
4 1488 1689 1690 1489 
4 1489 1690 1691 1490 
4 1490 1691 1692 1491 
4 1491 1692 1693 1492 
4 1492 1693 1694 1493 
4 1493 1694 1695 1494 
4 1494 1695 1696 1495 
4 1495 1696 1697 1496 
4 1496 1697 1698 1497 
4 1497 1698 1699 1498 
4 1498 1699 1700 1499 
4 1499 1700 1701 1500 
4 1500 1701 1702 1501 
4 1501 1702 1703 1502 
4 1502 1703 1704 1503 
4 1503 1704 1705 1504 
4 1504 1705 1706 1505 
4 1505 1706 1707 1506 
4 1506 1707 1708 1507 
4 1507 1708 1709 1508 
4 1508 1709 1710 1509 
4 1509 1710 1711 1510 
4 1510 1711 1712 1511 
4 1511 1712 1713 1512 
4 1512 1713 1714 1513 
4 1513 1714 1715 1514 
4 1514 1715 1716 1515 
4 1515 1716 1717 1516 
4 1516 1717 1718 1517 
4 1517 1718 1719 1518 
4 1518 1719 1720 1519 
4 1519 1720 1721 1520 
4 1520 1721 1722 1521 
4 1521 1722 1723 1522 
4 1522 1723 1724 1523 
4 1523 1724 1725 1524 
4 1524 1725 1726 1525 
4 1525 1726 1727 1526 
4 1526 1727 1728 1527 
4 1527 1728 1729 1528 
4 1528 1729 1730 1529 
4 1529 1730 1731 1530 
4 1530 1731 1732 1531 
4 1531 1732 1733 1532 
4 1532 1733 1734 1533 
4 1533 1734 1735 1534 
4 1534 1735 1736 1535 
4 1535 1736 1737 1536 
4 1536 1737 1738 1537 
4 1537 1738 1739 1538 
4 1538 1739 1740 1539 
4 1539 1740 1741 1540 
4 1540 1741 1742 1541 
4 1541 1742 1743 1542 
4 1542 1743 1744 1543 
4 1543 1744 1745 1544 
4 1544 1745 1746 1545 
4 1545 1746 1747 1546 
4 1546 1747 1748 1547 
4 1547 1748 1749 1548 
4 1548 1749 1750 1549 
4 1549 1750 1751 1550 
4 1550 1751 1752 1551 
4 1551 1752 1753 1552 
4 1552 1753 1754 1553 
4 1553 1754 1755 1554 
4 1554 1755 1756 1555 
4 1555 1756 1757 1556 
4 1556 1757 1758 1557 
4 1557 1758 1759 1558 
4 1558 1759 1760 1559 
4 1559 1760 1761 1560 
4 1560 1761 1762 1561 
4 1561 1762 1763 1562 
4 1562 1763 1764 1563 
4 1563 1764 1765 1564 
4 1564 1765 1766 1565 
4 1565 1766 1767 1566 
4 1566 1767 1768 1567 
4 1567 1768 1769 1568 
4 1568 1769 1770 1569 
4 1569 1770 1771 1570 
4 1570 1771 1772 1571 
4 1571 1772 1773 1572 
4 1572 1773 1774 1573 
4 1573 1774 1775 1574 
4 1574 1775 1776 1575 
4 1575 1776 1777 1576 
4 1576 1777 1778 1577 
4 1577 1778 1779 1578 
4 1578 1779 1780 1579 
4 1579 1780 1781 1580 
4 1580 1781 1782 1581 
4 1581 1782 1783 1582 
4 1582 1783 1784 1583 
4 1583 1784 1785 1584 
4 1584 1785 1786 1585 
4 1585 1786 1787 1586 
4 1586 1787 1788 1587 
4 1587 1788 1789 1588 
4 1588 1789 1790 1589 
4 1589 1790 1791 1590 
4 1590 1791 1792 1591 
4 1591 1792 1793 1592 
4 1592 1793 1794 1593 
4 1593 1794 1795 1594 
4 1594 1795 1796 1595 
4 1595 1796 1797 1596 
4 1596 1797 1798 1597 
4 1597 1798 1799 1598 
4 1598 1799 1800 1599 
4 1599 1800 1801 1600 
4 1600 1801 1802 1601 
4 1601 1802 1803 1602 
4 1602 1803 1804 1603 
4 1603 1804 1805 1604 
4 1604 1805 1806 1605 
4 1605 1806 1807 1606 
4 1606 1807 1808 1607 
4 1608 1809 1810 1609 
4 1609 1810 1811 1610 
4 1610 1811 1812 1611 
4 1611 1812 1813 1612 
4 1612 1813 1814 1613 
4 1613 1814 1815 1614 
4 1614 1815 1816 1615 
4 1615 1816 1817 1616 
4 1616 1817 1818 1617 
4 1617 1818 1819 1618 
4 1618 1819 1820 1619 
4 1619 1820 1821 1620 
4 1620 1821 1822 1621 
4 1621 1822 1823 1622 
4 1622 1823 1824 1623 
4 1623 1824 1825 1624 
4 1624 1825 1826 1625 
4 1625 1826 1827 1626 
4 1626 1827 1828 1627 
4 1627 1828 1829 1628 
4 1628 1829 1830 1629 
4 1629 1830 1831 1630 
4 1630 1831 1832 1631 
4 1631 1832 1833 1632 
4 1632 1833 1834 1633 
4 1633 1834 1835 1634 
4 1634 1835 1836 1635 
4 1635 1836 1837 1636 
4 1636 1837 1838 1637 
4 1637 1838 1839 1638 
4 1638 1839 1840 1639 
4 1639 1840 1841 1640 
4 1640 1841 1842 1641 
4 1641 1842 1843 1642 
4 1642 1843 1844 1643 
4 1643 1844 1845 1644 
4 1644 1845 1846 1645 
4 1645 1846 1847 1646 
4 1646 1847 1848 1647 
4 1647 1848 1849 1648 
4 1648 1849 1850 1649 
4 1649 1850 1851 1650 
4 1650 1851 1852 1651 
4 1651 1852 1853 1652 
4 1652 1853 1854 1653 
4 1653 1854 1855 1654 
4 1654 1855 1856 1655 
4 1655 1856 1857 1656 
4 1656 1857 1858 1657 
4 1657 1858 1859 1658 
4 1658 1859 1860 1659 
4 1659 1860 1861 1660 
4 1660 1861 1862 1661 
4 1661 1862 1863 1662 
4 1662 1863 1864 1663 
4 1663 1864 1865 1664 
4 1664 1865 1866 1665 
4 1665 1866 1867 1666 
4 1666 1867 1868 1667 
4 1667 1868 1869 1668 
4 1668 1869 1870 1669 
4 1669 1870 1871 1670 
4 1670 1871 1872 1671 
4 1671 1872 1873 1672 
4 1672 1873 1874 1673 
4 1673 1874 1875 1674 
4 1674 1875 1876 1675 
4 1675 1876 1877 1676 
4 1676 1877 1878 1677 
4 1677 1878 1879 1678 
4 1678 1879 1880 1679 
4 1679 1880 1881 1680 
4 1680 1881 1882 1681 
4 1681 1882 1883 1682 
4 1682 1883 1884 1683 
4 1683 1884 1885 1684 
4 1684 1885 1886 1685 
4 1685 1886 1887 1686 
4 1686 1887 1888 1687 
4 1687 1888 1889 1688 
4 1688 1889 1890 1689 
4 1689 1890 1891 1690 
4 1690 1891 1892 1691 
4 1691 1892 1893 1692 
4 1692 1893 1894 1693 
4 1693 1894 1895 1694 
4 1694 1895 1896 1695 
4 1695 1896 1897 1696 
4 1696 1897 1898 1697 
4 1697 1898 1899 1698 
4 1698 1899 1900 1699 
4 1699 1900 1901 1700 
4 1700 1901 1902 1701 
4 1701 1902 1903 1702 
4 1702 1903 1904 1703 
4 1703 1904 1905 1704 
4 1704 1905 1906 1705 
4 1705 1906 1907 1706 
4 1706 1907 1908 1707 
4 1707 1908 1909 1708 
4 1708 1909 1910 1709 
4 1709 1910 1911 1710 
4 1710 1911 1912 1711 
4 1711 1912 1913 1712 
4 1712 1913 1914 1713 
4 1713 1914 1915 1714 
4 1714 1915 1916 1715 
4 1715 1916 1917 1716 
4 1716 1917 1918 1717 
4 1717 1918 1919 1718 
4 1718 1919 1920 1719 
4 1719 1920 1921 1720 
4 1720 1921 1922 1721 
4 1721 1922 1923 1722 
4 1722 1923 1924 1723 
4 1723 1924 1925 1724 
4 1724 1925 1926 1725 
4 1725 1926 1927 1726 
4 1726 1927 1928 1727 
4 1727 1928 1929 1728 
4 1728 1929 1930 1729 
4 1729 1930 1931 1730 
4 1730 1931 1932 1731 
4 1731 1932 1933 1732 
4 1732 1933 1934 1733 
4 1733 1934 1935 1734 
4 1734 1935 1936 1735 
4 1735 1936 1937 1736 
4 1736 1937 1938 1737 
4 1737 1938 1939 1738 
4 1738 1939 1940 1739 
4 1739 1940 1941 1740 
4 1740 1941 1942 1741 
4 1741 1942 1943 1742 
4 1742 1943 1944 1743 
4 1743 1944 1945 1744 
4 1744 1945 1946 1745 
4 1745 1946 1947 1746 
4 1746 1947 1948 1747 
4 1747 1948 1949 1748 
4 1748 1949 1950 1749 
4 1749 1950 1951 1750 
4 1750 1951 1952 1751 
4 1751 1952 1953 1752 
4 1752 1953 1954 1753 
4 1753 1954 1955 1754 
4 1754 1955 1956 1755 
4 1755 1956 1957 1756 
4 1756 1957 1958 1757 
4 1757 1958 1959 1758 
4 1758 1959 1960 1759 
4 1759 1960 1961 1760 
4 1760 1961 1962 1761 
4 1761 1962 1963 1762 
4 1762 1963 1964 1763 
4 1763 1964 1965 1764 
4 1764 1965 1966 1765 
4 1765 1966 1967 1766 
4 1766 1967 1968 1767 
4 1767 1968 1969 1768 
4 1768 1969 1970 1769 
4 1769 1970 1971 1770 
4 1770 1971 1972 1771 
4 1771 1972 1973 1772 
4 1772 1973 1974 1773 
4 1773 1974 1975 1774 
4 1774 1975 1976 1775 
4 1775 1976 1977 1776 
4 1776 1977 1978 1777 
4 1777 1978 1979 1778 
4 1778 1979 1980 1779 
4 1779 1980 1981 1780 
4 1780 1981 1982 1781 
4 1781 1982 1983 1782 
4 1782 1983 1984 1783 
4 1783 1984 1985 1784 
4 1784 1985 1986 1785 
4 1785 1986 1987 1786 
4 1786 1987 1988 1787 
4 1787 1988 1989 1788 
4 1788 1989 1990 1789 
4 1789 1990 1991 1790 
4 1790 1991 1992 1791 
4 1791 1992 1993 1792 
4 1792 1993 1994 1793 
4 1793 1994 1995 1794 
4 1794 1995 1996 1795 
4 1795 1996 1997 1796 
4 1796 1997 1998 1797 
4 1797 1998 1999 1798 
4 1798 1999 2000 1799 
4 1799 2000 2001 1800 
4 1800 2001 2002 1801 
4 1801 2002 2003 1802 
4 1802 2003 2004 1803 
4 1803 2004 2005 1804 
4 1804 2005 2006 1805 
4 1805 2006 2007 1806 
4 1806 2007 2008 1807 
4 1807 2008 2009 1808 
4 1809 2010 2011 1810 
4 1810 2011 2012 1811 
4 1811 2012 2013 1812 
4 1812 2013 2014 1813 
4 1813 2014 2015 1814 
4 1814 2015 2016 1815 
4 1815 2016 2017 1816 
4 1816 2017 2018 1817 
4 1817 2018 2019 1818 
4 1818 2019 2020 1819 
4 1819 2020 2021 1820 
4 1820 2021 2022 1821 
4 1821 2022 2023 1822 
4 1822 2023 2024 1823 
4 1823 2024 2025 1824 
4 1824 2025 2026 1825 
4 1825 2026 2027 1826 
4 1826 2027 2028 1827 
4 1827 2028 2029 1828 
4 1828 2029 2030 1829 
4 1829 2030 2031 1830 
4 1830 2031 2032 1831 
4 1831 2032 2033 1832 
4 1832 2033 2034 1833 
4 1833 2034 2035 1834 
4 1834 2035 2036 1835 
4 1835 2036 2037 1836 
4 1836 2037 2038 1837 
4 1837 2038 2039 1838 
4 1838 2039 2040 1839 
4 1839 2040 2041 1840 
4 1840 2041 2042 1841 
4 1841 2042 2043 1842 
4 1842 2043 2044 1843 
4 1843 2044 2045 1844 
4 1844 2045 2046 1845 
4 1845 2046 2047 1846 
4 1846 2047 2048 1847 
4 1847 2048 2049 1848 
4 1848 2049 2050 1849 
4 1849 2050 2051 1850 
4 1850 2051 2052 1851 
4 1851 2052 2053 1852 
4 1852 2053 2054 1853 
4 1853 2054 2055 1854 
4 1854 2055 2056 1855 
4 1855 2056 2057 1856 
4 1856 2057 2058 1857 
4 1857 2058 2059 1858 
4 1858 2059 2060 1859 
4 1859 2060 2061 1860 
4 1860 2061 2062 1861 
4 1861 2062 2063 1862 
4 1862 2063 2064 1863 
4 1863 2064 2065 1864 
4 1864 2065 2066 1865 
4 1865 2066 2067 1866 
4 1866 2067 2068 1867 
4 1867 2068 2069 1868 
4 1868 2069 2070 1869 
4 1869 2070 2071 1870 
4 1870 2071 2072 1871 
4 1871 2072 2073 1872 
4 1872 2073 2074 1873 
4 1873 2074 2075 1874 
4 1874 2075 2076 1875 
4 1875 2076 2077 1876 
4 1876 2077 2078 1877 
4 1877 2078 2079 1878 
4 1878 2079 2080 1879 
4 1879 2080 2081 1880 
4 1880 2081 2082 1881 
4 1881 2082 2083 1882 
4 1882 2083 2084 1883 
4 1883 2084 2085 1884 
4 1884 2085 2086 1885 
4 1885 2086 2087 1886 
4 1886 2087 2088 1887 
4 1887 2088 2089 1888 
4 1888 2089 2090 1889 
4 1889 2090 2091 1890 
4 1890 2091 2092 1891 
4 1891 2092 2093 1892 
4 1892 2093 2094 1893 
4 1893 2094 2095 1894 
4 1894 2095 2096 1895 
4 1895 2096 2097 1896 
4 1896 2097 2098 1897 
4 1897 2098 2099 1898 
4 1898 2099 2100 1899 
4 1899 2100 2101 1900 
4 1900 2101 2102 1901 
4 1901 2102 2103 1902 
4 1902 2103 2104 1903 
4 1903 2104 2105 1904 
4 1904 2105 2106 1905 
4 1905 2106 2107 1906 
4 1906 2107 2108 1907 
4 1907 2108 2109 1908 
4 1908 2109 2110 1909 
4 1909 2110 2111 1910 
4 1910 2111 2112 1911 
4 1911 2112 2113 1912 
4 1912 2113 2114 1913 
4 1913 2114 2115 1914 
4 1914 2115 2116 1915 
4 1915 2116 2117 1916 
4 1916 2117 2118 1917 
4 1917 2118 2119 1918 
4 1918 2119 2120 1919 
4 1919 2120 2121 1920 
4 1920 2121 2122 1921 
4 1921 2122 2123 1922 
4 1922 2123 2124 1923 
4 1923 2124 2125 1924 
4 1924 2125 2126 1925 
4 1925 2126 2127 1926 
4 1926 2127 2128 1927 
4 1927 2128 2129 1928 
4 1928 2129 2130 1929 
4 1929 2130 2131 1930 
4 1930 2131 2132 1931 
4 1931 2132 2133 1932 
4 1932 2133 2134 1933 
4 1933 2134 2135 1934 
4 1934 2135 2136 1935 
4 1935 2136 2137 1936 
4 1936 2137 2138 1937 
4 1937 2138 2139 1938 
4 1938 2139 2140 1939 
4 1939 2140 2141 1940 
4 1940 2141 2142 1941 
4 1941 2142 2143 1942 
4 1942 2143 2144 1943 
4 1943 2144 2145 1944 
4 1944 2145 2146 1945 
4 1945 2146 2147 1946 
4 1946 2147 2148 1947 
4 1947 2148 2149 1948 
4 1948 2149 2150 1949 
4 1949 2150 2151 1950 
4 1950 2151 2152 1951 
4 1951 2152 2153 1952 
4 1952 2153 2154 1953 
4 1953 2154 2155 1954 
4 1954 2155 2156 1955 
4 1955 2156 2157 1956 
4 1956 2157 2158 1957 
4 1957 2158 2159 1958 
4 1958 2159 2160 1959 
4 1959 2160 2161 1960 
4 1960 2161 2162 1961 
4 1961 2162 2163 1962 
4 1962 2163 2164 1963 
4 1963 2164 2165 1964 
4 1964 2165 2166 1965 
4 1965 2166 2167 1966 
4 1966 2167 2168 1967 
4 1967 2168 2169 1968 
4 1968 2169 2170 1969 
4 1969 2170 2171 1970 
4 1970 2171 2172 1971 
4 1971 2172 2173 1972 
4 1972 2173 2174 1973 
4 1973 2174 2175 1974 
4 1974 2175 2176 1975 
4 1975 2176 2177 1976 
4 1976 2177 2178 1977 
4 1977 2178 2179 1978 
4 1978 2179 2180 1979 
4 1979 2180 2181 1980 
4 1980 2181 2182 1981 
4 1981 2182 2183 1982 
4 1982 2183 2184 1983 
4 1983 2184 2185 1984 
4 1984 2185 2186 1985 
4 1985 2186 2187 1986 
4 1986 2187 2188 1987 
4 1987 2188 2189 1988 
4 1988 2189 2190 1989 
4 1989 2190 2191 1990 
4 1990 2191 2192 1991 
4 1991 2192 2193 1992 
4 1992 2193 2194 1993 
4 1993 2194 2195 1994 
4 1994 2195 2196 1995 
4 1995 2196 2197 1996 
4 1996 2197 2198 1997 
4 1997 2198 2199 1998 
4 1998 2199 2200 1999 
4 1999 2200 2201 2000 
4 2000 2201 2202 2001 
4 2001 2202 2203 2002 
4 2002 2203 2204 2003 
4 2003 2204 2205 2004 
4 2004 2205 2206 2005 
4 2005 2206 2207 2006 
4 2006 2207 2208 2007 
4 2007 2208 2209 2008 
4 2008 2209 2210 2009 
4 2010 2211 2212 2011 
4 2011 2212 2213 2012 
4 2012 2213 2214 2013 
4 2013 2214 2215 2014 
4 2014 2215 2216 2015 
4 2015 2216 2217 2016 
4 2016 2217 2218 2017 
4 2017 2218 2219 2018 
4 2018 2219 2220 2019 
4 2019 2220 2221 2020 
4 2020 2221 2222 2021 
4 2021 2222 2223 2022 
4 2022 2223 2224 2023 
4 2023 2224 2225 2024 
4 2024 2225 2226 2025 
4 2025 2226 2227 2026 
4 2026 2227 2228 2027 
4 2027 2228 2229 2028 
4 2028 2229 2230 2029 
4 2029 2230 2231 2030 
4 2030 2231 2232 2031 
4 2031 2232 2233 2032 
4 2032 2233 2234 2033 
4 2033 2234 2235 2034 
4 2034 2235 2236 2035 
4 2035 2236 2237 2036 
4 2036 2237 2238 2037 
4 2037 2238 2239 2038 
4 2038 2239 2240 2039 
4 2039 2240 2241 2040 
4 2040 2241 2242 2041 
4 2041 2242 2243 2042 
4 2042 2243 2244 2043 
4 2043 2244 2245 2044 
4 2044 2245 2246 2045 
4 2045 2246 2247 2046 
4 2046 2247 2248 2047 
4 2047 2248 2249 2048 
4 2048 2249 2250 2049 
4 2049 2250 2251 2050 
4 2050 2251 2252 2051 
4 2051 2252 2253 2052 
4 2052 2253 2254 2053 
4 2053 2254 2255 2054 
4 2054 2255 2256 2055 
4 2055 2256 2257 2056 
4 2056 2257 2258 2057 
4 2057 2258 2259 2058 
4 2058 2259 2260 2059 
4 2059 2260 2261 2060 
4 2060 2261 2262 2061 
4 2061 2262 2263 2062 
4 2062 2263 2264 2063 
4 2063 2264 2265 2064 
4 2064 2265 2266 2065 
4 2065 2266 2267 2066 
4 2066 2267 2268 2067 
4 2067 2268 2269 2068 
4 2068 2269 2270 2069 
4 2069 2270 2271 2070 
4 2070 2271 2272 2071 
4 2071 2272 2273 2072 
4 2072 2273 2274 2073 
4 2073 2274 2275 2074 
4 2074 2275 2276 2075 
4 2075 2276 2277 2076 
4 2076 2277 2278 2077 
4 2077 2278 2279 2078 
4 2078 2279 2280 2079 
4 2079 2280 2281 2080 
4 2080 2281 2282 2081 
4 2081 2282 2283 2082 
4 2082 2283 2284 2083 
4 2083 2284 2285 2084 
4 2084 2285 2286 2085 
4 2085 2286 2287 2086 
4 2086 2287 2288 2087 
4 2087 2288 2289 2088 
4 2088 2289 2290 2089 
4 2089 2290 2291 2090 
4 2090 2291 2292 2091 
4 2091 2292 2293 2092 
4 2092 2293 2294 2093 
4 2093 2294 2295 2094 
4 2094 2295 2296 2095 
4 2095 2296 2297 2096 
4 2096 2297 2298 2097 
4 2097 2298 2299 2098 
4 2098 2299 2300 2099 
4 2099 2300 2301 2100 
4 2100 2301 2302 2101 
4 2101 2302 2303 2102 
4 2102 2303 2304 2103 
4 2103 2304 2305 2104 
4 2104 2305 2306 2105 
4 2105 2306 2307 2106 
4 2106 2307 2308 2107 
4 2107 2308 2309 2108 
4 2108 2309 2310 2109 
4 2109 2310 2311 2110 
4 2110 2311 2312 2111 
4 2111 2312 2313 2112 
4 2112 2313 2314 2113 
4 2113 2314 2315 2114 
4 2114 2315 2316 2115 
4 2115 2316 2317 2116 
4 2116 2317 2318 2117 
4 2117 2318 2319 2118 
4 2118 2319 2320 2119 
4 2119 2320 2321 2120 
4 2120 2321 2322 2121 
4 2121 2322 2323 2122 
4 2122 2323 2324 2123 
4 2123 2324 2325 2124 
4 2124 2325 2326 2125 
4 2125 2326 2327 2126 
4 2126 2327 2328 2127 
4 2127 2328 2329 2128 
4 2128 2329 2330 2129 
4 2129 2330 2331 2130 
4 2130 2331 2332 2131 
4 2131 2332 2333 2132 
4 2132 2333 2334 2133 
4 2133 2334 2335 2134 
4 2134 2335 2336 2135 
4 2135 2336 2337 2136 
4 2136 2337 2338 2137 
4 2137 2338 2339 2138 
4 2138 2339 2340 2139 
4 2139 2340 2341 2140 
4 2140 2341 2342 2141 
4 2141 2342 2343 2142 
4 2142 2343 2344 2143 
4 2143 2344 2345 2144 
4 2144 2345 2346 2145 
4 2145 2346 2347 2146 
4 2146 2347 2348 2147 
4 2147 2348 2349 2148 
4 2148 2349 2350 2149 
4 2149 2350 2351 2150 
4 2150 2351 2352 2151 
4 2151 2352 2353 2152 
4 2152 2353 2354 2153 
4 2153 2354 2355 2154 
4 2154 2355 2356 2155 
4 2155 2356 2357 2156 
4 2156 2357 2358 2157 
4 2157 2358 2359 2158 
4 2158 2359 2360 2159 
4 2159 2360 2361 2160 
4 2160 2361 2362 2161 
4 2161 2362 2363 2162 
4 2162 2363 2364 2163 
4 2163 2364 2365 2164 
4 2164 2365 2366 2165 
4 2165 2366 2367 2166 
4 2166 2367 2368 2167 
4 2167 2368 2369 2168 
4 2168 2369 2370 2169 
4 2169 2370 2371 2170 
4 2170 2371 2372 2171 
4 2171 2372 2373 2172 
4 2172 2373 2374 2173 
4 2173 2374 2375 2174 
4 2174 2375 2376 2175 
4 2175 2376 2377 2176 
4 2176 2377 2378 2177 
4 2177 2378 2379 2178 
4 2178 2379 2380 2179 
4 2179 2380 2381 2180 
4 2180 2381 2382 2181 
4 2181 2382 2383 2182 
4 2182 2383 2384 2183 
4 2183 2384 2385 2184 
4 2184 2385 2386 2185 
4 2185 2386 2387 2186 
4 2186 2387 2388 2187 
4 2187 2388 2389 2188 
4 2188 2389 2390 2189 
4 2189 2390 2391 2190 
4 2190 2391 2392 2191 
4 2191 2392 2393 2192 
4 2192 2393 2394 2193 
4 2193 2394 2395 2194 
4 2194 2395 2396 2195 
4 2195 2396 2397 2196 
4 2196 2397 2398 2197 
4 2197 2398 2399 2198 
4 2198 2399 2400 2199 
4 2199 2400 2401 2200 
4 2200 2401 2402 2201 
4 2201 2402 2403 2202 
4 2202 2403 2404 2203 
4 2203 2404 2405 2204 
4 2204 2405 2406 2205 
4 2205 2406 2407 2206 
4 2206 2407 2408 2207 
4 2207 2408 2409 2208 
4 2208 2409 2410 2209 
4 2209 2410 2411 2210 
4 2211 2412 2413 2212 
4 2212 2413 2414 2213 
4 2213 2414 2415 2214 
4 2214 2415 2416 2215 
4 2215 2416 2417 2216 
4 2216 2417 2418 2217 
4 2217 2418 2419 2218 
4 2218 2419 2420 2219 
4 2219 2420 2421 2220 
4 2220 2421 2422 2221 
4 2221 2422 2423 2222 
4 2222 2423 2424 2223 
4 2223 2424 2425 2224 
4 2224 2425 2426 2225 
4 2225 2426 2427 2226 
4 2226 2427 2428 2227 
4 2227 2428 2429 2228 
4 2228 2429 2430 2229 
4 2229 2430 2431 2230 
4 2230 2431 2432 2231 
4 2231 2432 2433 2232 
4 2232 2433 2434 2233 
4 2233 2434 2435 2234 
4 2234 2435 2436 2235 
4 2235 2436 2437 2236 
4 2236 2437 2438 2237 
4 2237 2438 2439 2238 
4 2238 2439 2440 2239 
4 2239 2440 2441 2240 
4 2240 2441 2442 2241 
4 2241 2442 2443 2242 
4 2242 2443 2444 2243 
4 2243 2444 2445 2244 
4 2244 2445 2446 2245 
4 2245 2446 2447 2246 
4 2246 2447 2448 2247 
4 2247 2448 2449 2248 
4 2248 2449 2450 2249 
4 2249 2450 2451 2250 
4 2250 2451 2452 2251 
4 2251 2452 2453 2252 
4 2252 2453 2454 2253 
4 2253 2454 2455 2254 
4 2254 2455 2456 2255 
4 2255 2456 2457 2256 
4 2256 2457 2458 2257 
4 2257 2458 2459 2258 
4 2258 2459 2460 2259 
4 2259 2460 2461 2260 
4 2260 2461 2462 2261 
4 2261 2462 2463 2262 
4 2262 2463 2464 2263 
4 2263 2464 2465 2264 
4 2264 2465 2466 2265 
4 2265 2466 2467 2266 
4 2266 2467 2468 2267 
4 2267 2468 2469 2268 
4 2268 2469 2470 2269 
4 2269 2470 2471 2270 
4 2270 2471 2472 2271 
4 2271 2472 2473 2272 
4 2272 2473 2474 2273 
4 2273 2474 2475 2274 
4 2274 2475 2476 2275 
4 2275 2476 2477 2276 
4 2276 2477 2478 2277 
4 2277 2478 2479 2278 
4 2278 2479 2480 2279 
4 2279 2480 2481 2280 
4 2280 2481 2482 2281 
4 2281 2482 2483 2282 
4 2282 2483 2484 2283 
4 2283 2484 2485 2284 
4 2284 2485 2486 2285 
4 2285 2486 2487 2286 
4 2286 2487 2488 2287 
4 2287 2488 2489 2288 
4 2288 2489 2490 2289 
4 2289 2490 2491 2290 
4 2290 2491 2492 2291 
4 2291 2492 2493 2292 
4 2292 2493 2494 2293 
4 2293 2494 2495 2294 
4 2294 2495 2496 2295 
4 2295 2496 2497 2296 
4 2296 2497 2498 2297 
4 2297 2498 2499 2298 
4 2298 2499 2500 2299 
4 2299 2500 2501 2300 
4 2300 2501 2502 2301 
4 2301 2502 2503 2302 
4 2302 2503 2504 2303 
4 2303 2504 2505 2304 
4 2304 2505 2506 2305 
4 2305 2506 2507 2306 
4 2306 2507 2508 2307 
4 2307 2508 2509 2308 
4 2308 2509 2510 2309 
4 2309 2510 2511 2310 
4 2310 2511 2512 2311 
4 2311 2512 2513 2312 
4 2312 2513 2514 2313 
4 2313 2514 2515 2314 
4 2314 2515 2516 2315 
4 2315 2516 2517 2316 
4 2316 2517 2518 2317 
4 2317 2518 2519 2318 
4 2318 2519 2520 2319 
4 2319 2520 2521 2320 
4 2320 2521 2522 2321 
4 2321 2522 2523 2322 
4 2322 2523 2524 2323 
4 2323 2524 2525 2324 
4 2324 2525 2526 2325 
4 2325 2526 2527 2326 
4 2326 2527 2528 2327 
4 2327 2528 2529 2328 
4 2328 2529 2530 2329 
4 2329 2530 2531 2330 
4 2330 2531 2532 2331 
4 2331 2532 2533 2332 
4 2332 2533 2534 2333 
4 2333 2534 2535 2334 
4 2334 2535 2536 2335 
4 2335 2536 2537 2336 
4 2336 2537 2538 2337 
4 2337 2538 2539 2338 
4 2338 2539 2540 2339 
4 2339 2540 2541 2340 
4 2340 2541 2542 2341 
4 2341 2542 2543 2342 
4 2342 2543 2544 2343 
4 2343 2544 2545 2344 
4 2344 2545 2546 2345 
4 2345 2546 2547 2346 
4 2346 2547 2548 2347 
4 2347 2548 2549 2348 
4 2348 2549 2550 2349 
4 2349 2550 2551 2350 
4 2350 2551 2552 2351 
4 2351 2552 2553 2352 
4 2352 2553 2554 2353 
4 2353 2554 2555 2354 
4 2354 2555 2556 2355 
4 2355 2556 2557 2356 
4 2356 2557 2558 2357 
4 2357 2558 2559 2358 
4 2358 2559 2560 2359 
4 2359 2560 2561 2360 
4 2360 2561 2562 2361 
4 2361 2562 2563 2362 
4 2362 2563 2564 2363 
4 2363 2564 2565 2364 
4 2364 2565 2566 2365 
4 2365 2566 2567 2366 
4 2366 2567 2568 2367 
4 2367 2568 2569 2368 
4 2368 2569 2570 2369 
4 2369 2570 2571 2370 
4 2370 2571 2572 2371 
4 2371 2572 2573 2372 
4 2372 2573 2574 2373 
4 2373 2574 2575 2374 
4 2374 2575 2576 2375 
4 2375 2576 2577 2376 
4 2376 2577 2578 2377 
4 2377 2578 2579 2378 
4 2378 2579 2580 2379 
4 2379 2580 2581 2380 
4 2380 2581 2582 2381 
4 2381 2582 2583 2382 
4 2382 2583 2584 2383 
4 2383 2584 2585 2384 
4 2384 2585 2586 2385 
4 2385 2586 2587 2386 
4 2386 2587 2588 2387 
4 2387 2588 2589 2388 
4 2388 2589 2590 2389 
4 2389 2590 2591 2390 
4 2390 2591 2592 2391 
4 2391 2592 2593 2392 
4 2392 2593 2594 2393 
4 2393 2594 2595 2394 
4 2394 2595 2596 2395 
4 2395 2596 2597 2396 
4 2396 2597 2598 2397 
4 2397 2598 2599 2398 
4 2398 2599 2600 2399 
4 2399 2600 2601 2400 
4 2400 2601 2602 2401 
4 2401 2602 2603 2402 
4 2402 2603 2604 2403 
4 2403 2604 2605 2404 
4 2404 2605 2606 2405 
4 2405 2606 2607 2406 
4 2406 2607 2608 2407 
4 2407 2608 2609 2408 
4 2408 2609 2610 2409 
4 2409 2610 2611 2410 
4 2410 2611 2612 2411 
4 2412 2613 2614 2413 
4 2413 2614 2615 2414 
4 2414 2615 2616 2415 
4 2415 2616 2617 2416 
4 2416 2617 2618 2417 
4 2417 2618 2619 2418 
4 2418 2619 2620 2419 
4 2419 2620 2621 2420 
4 2420 2621 2622 2421 
4 2421 2622 2623 2422 
4 2422 2623 2624 2423 
4 2423 2624 2625 2424 
4 2424 2625 2626 2425 
4 2425 2626 2627 2426 
4 2426 2627 2628 2427 
4 2427 2628 2629 2428 
4 2428 2629 2630 2429 
4 2429 2630 2631 2430 
4 2430 2631 2632 2431 
4 2431 2632 2633 2432 
4 2432 2633 2634 2433 
4 2433 2634 2635 2434 
4 2434 2635 2636 2435 
4 2435 2636 2637 2436 
4 2436 2637 2638 2437 
4 2437 2638 2639 2438 
4 2438 2639 2640 2439 
4 2439 2640 2641 2440 
4 2440 2641 2642 2441 
4 2441 2642 2643 2442 
4 2442 2643 2644 2443 
4 2443 2644 2645 2444 
4 2444 2645 2646 2445 
4 2445 2646 2647 2446 
4 2446 2647 2648 2447 
4 2447 2648 2649 2448 
4 2448 2649 2650 2449 
4 2449 2650 2651 2450 
4 2450 2651 2652 2451 
4 2451 2652 2653 2452 
4 2452 2653 2654 2453 
4 2453 2654 2655 2454 
4 2454 2655 2656 2455 
4 2455 2656 2657 2456 
4 2456 2657 2658 2457 
4 2457 2658 2659 2458 
4 2458 2659 2660 2459 
4 2459 2660 2661 2460 
4 2460 2661 2662 2461 
4 2461 2662 2663 2462 
4 2462 2663 2664 2463 
4 2463 2664 2665 2464 
4 2464 2665 2666 2465 
4 2465 2666 2667 2466 
4 2466 2667 2668 2467 
4 2467 2668 2669 2468 
4 2468 2669 2670 2469 
4 2469 2670 2671 2470 
4 2470 2671 2672 2471 
4 2471 2672 2673 2472 
4 2472 2673 2674 2473 
4 2473 2674 2675 2474 
4 2474 2675 2676 2475 
4 2475 2676 2677 2476 
4 2476 2677 2678 2477 
4 2477 2678 2679 2478 
4 2478 2679 2680 2479 
4 2479 2680 2681 2480 
4 2480 2681 2682 2481 
4 2481 2682 2683 2482 
4 2482 2683 2684 2483 
4 2483 2684 2685 2484 
4 2484 2685 2686 2485 
4 2485 2686 2687 2486 
4 2486 2687 2688 2487 
4 2487 2688 2689 2488 
4 2488 2689 2690 2489 
4 2489 2690 2691 2490 
4 2490 2691 2692 2491 
4 2491 2692 2693 2492 
4 2492 2693 2694 2493 
4 2493 2694 2695 2494 
4 2494 2695 2696 2495 
4 2495 2696 2697 2496 
4 2496 2697 2698 2497 
4 2497 2698 2699 2498 
4 2498 2699 2700 2499 
4 2499 2700 2701 2500 
4 2500 2701 2702 2501 
4 2501 2702 2703 2502 
4 2502 2703 2704 2503 
4 2503 2704 2705 2504 
4 2504 2705 2706 2505 
4 2505 2706 2707 2506 
4 2506 2707 2708 2507 
4 2507 2708 2709 2508 
4 2508 2709 2710 2509 
4 2509 2710 2711 2510 
4 2510 2711 2712 2511 
4 2511 2712 2713 2512 
4 2512 2713 2714 2513 
4 2513 2714 2715 2514 
4 2514 2715 2716 2515 
4 2515 2716 2717 2516 
4 2516 2717 2718 2517 
4 2517 2718 2719 2518 
4 2518 2719 2720 2519 
4 2519 2720 2721 2520 
4 2520 2721 2722 2521 
4 2521 2722 2723 2522 
4 2522 2723 2724 2523 
4 2523 2724 2725 2524 
4 2524 2725 2726 2525 
4 2525 2726 2727 2526 
4 2526 2727 2728 2527 
4 2527 2728 2729 2528 
4 2528 2729 2730 2529 
4 2529 2730 2731 2530 
4 2530 2731 2732 2531 
4 2531 2732 2733 2532 
4 2532 2733 2734 2533 
4 2533 2734 2735 2534 
4 2534 2735 2736 2535 
4 2535 2736 2737 2536 
4 2536 2737 2738 2537 
4 2537 2738 2739 2538 
4 2538 2739 2740 2539 
4 2539 2740 2741 2540 
4 2540 2741 2742 2541 
4 2541 2742 2743 2542 
4 2542 2743 2744 2543 
4 2543 2744 2745 2544 
4 2544 2745 2746 2545 
4 2545 2746 2747 2546 
4 2546 2747 2748 2547 
4 2547 2748 2749 2548 
4 2548 2749 2750 2549 
4 2549 2750 2751 2550 
4 2550 2751 2752 2551 
4 2551 2752 2753 2552 
4 2552 2753 2754 2553 
4 2553 2754 2755 2554 
4 2554 2755 2756 2555 
4 2555 2756 2757 2556 
4 2556 2757 2758 2557 
4 2557 2758 2759 2558 
4 2558 2759 2760 2559 
4 2559 2760 2761 2560 
4 2560 2761 2762 2561 
4 2561 2762 2763 2562 
4 2562 2763 2764 2563 
4 2563 2764 2765 2564 
4 2564 2765 2766 2565 
4 2565 2766 2767 2566 
4 2566 2767 2768 2567 
4 2567 2768 2769 2568 
4 2568 2769 2770 2569 
4 2569 2770 2771 2570 
4 2570 2771 2772 2571 
4 2571 2772 2773 2572 
4 2572 2773 2774 2573 
4 2573 2774 2775 2574 
4 2574 2775 2776 2575 
4 2575 2776 2777 2576 
4 2576 2777 2778 2577 
4 2577 2778 2779 2578 
4 2578 2779 2780 2579 
4 2579 2780 2781 2580 
4 2580 2781 2782 2581 
4 2581 2782 2783 2582 
4 2582 2783 2784 2583 
4 2583 2784 2785 2584 
4 2584 2785 2786 2585 
4 2585 2786 2787 2586 
4 2586 2787 2788 2587 
4 2587 2788 2789 2588 
4 2588 2789 2790 2589 
4 2589 2790 2791 2590 
4 2590 2791 2792 2591 
4 2591 2792 2793 2592 
4 2592 2793 2794 2593 
4 2593 2794 2795 2594 
4 2594 2795 2796 2595 
4 2595 2796 2797 2596 
4 2596 2797 2798 2597 
4 2597 2798 2799 2598 
4 2598 2799 2800 2599 
4 2599 2800 2801 2600 
4 2600 2801 2802 2601 
4 2601 2802 2803 2602 
4 2602 2803 2804 2603 
4 2603 2804 2805 2604 
4 2604 2805 2806 2605 
4 2605 2806 2807 2606 
4 2606 2807 2808 2607 
4 2607 2808 2809 2608 
4 2608 2809 2810 2609 
4 2609 2810 2811 2610 
4 2610 2811 2812 2611 
4 2611 2812 2813 2612 
4 2613 2814 2815 2614 
4 2614 2815 2816 2615 
4 2615 2816 2817 2616 
4 2616 2817 2818 2617 
4 2617 2818 2819 2618 
4 2618 2819 2820 2619 
4 2619 2820 2821 2620 
4 2620 2821 2822 2621 
4 2621 2822 2823 2622 
4 2622 2823 2824 2623 
4 2623 2824 2825 2624 
4 2624 2825 2826 2625 
4 2625 2826 2827 2626 
4 2626 2827 2828 2627 
4 2627 2828 2829 2628 
4 2628 2829 2830 2629 
4 2629 2830 2831 2630 
4 2630 2831 2832 2631 
4 2631 2832 2833 2632 
4 2632 2833 2834 2633 
4 2633 2834 2835 2634 
4 2634 2835 2836 2635 
4 2635 2836 2837 2636 
4 2636 2837 2838 2637 
4 2637 2838 2839 2638 
4 2638 2839 2840 2639 
4 2639 2840 2841 2640 
4 2640 2841 2842 2641 
4 2641 2842 2843 2642 
4 2642 2843 2844 2643 
4 2643 2844 2845 2644 
4 2644 2845 2846 2645 
4 2645 2846 2847 2646 
4 2646 2847 2848 2647 
4 2647 2848 2849 2648 
4 2648 2849 2850 2649 
4 2649 2850 2851 2650 
4 2650 2851 2852 2651 
4 2651 2852 2853 2652 
4 2652 2853 2854 2653 
4 2653 2854 2855 2654 
4 2654 2855 2856 2655 
4 2655 2856 2857 2656 
4 2656 2857 2858 2657 
4 2657 2858 2859 2658 
4 2658 2859 2860 2659 
4 2659 2860 2861 2660 
4 2660 2861 2862 2661 
4 2661 2862 2863 2662 
4 2662 2863 2864 2663 
4 2663 2864 2865 2664 
4 2664 2865 2866 2665 
4 2665 2866 2867 2666 
4 2666 2867 2868 2667 
4 2667 2868 2869 2668 
4 2668 2869 2870 2669 
4 2669 2870 2871 2670 
4 2670 2871 2872 2671 
4 2671 2872 2873 2672 
4 2672 2873 2874 2673 
4 2673 2874 2875 2674 
4 2674 2875 2876 2675 
4 2675 2876 2877 2676 
4 2676 2877 2878 2677 
4 2677 2878 2879 2678 
4 2678 2879 2880 2679 
4 2679 2880 2881 2680 
4 2680 2881 2882 2681 
4 2681 2882 2883 2682 
4 2682 2883 2884 2683 
4 2683 2884 2885 2684 
4 2684 2885 2886 2685 
4 2685 2886 2887 2686 
4 2686 2887 2888 2687 
4 2687 2888 2889 2688 
4 2688 2889 2890 2689 
4 2689 2890 2891 2690 
4 2690 2891 2892 2691 
4 2691 2892 2893 2692 
4 2692 2893 2894 2693 
4 2693 2894 2895 2694 
4 2694 2895 2896 2695 
4 2695 2896 2897 2696 
4 2696 2897 2898 2697 
4 2697 2898 2899 2698 
4 2698 2899 2900 2699 
4 2699 2900 2901 2700 
4 2700 2901 2902 2701 
4 2701 2902 2903 2702 
4 2702 2903 2904 2703 
4 2703 2904 2905 2704 
4 2704 2905 2906 2705 
4 2705 2906 2907 2706 
4 2706 2907 2908 2707 
4 2707 2908 2909 2708 
4 2708 2909 2910 2709 
4 2709 2910 2911 2710 
4 2710 2911 2912 2711 
4 2711 2912 2913 2712 
4 2712 2913 2914 2713 
4 2713 2914 2915 2714 
4 2714 2915 2916 2715 
4 2715 2916 2917 2716 
4 2716 2917 2918 2717 
4 2717 2918 2919 2718 
4 2718 2919 2920 2719 
4 2719 2920 2921 2720 
4 2720 2921 2922 2721 
4 2721 2922 2923 2722 
4 2722 2923 2924 2723 
4 2723 2924 2925 2724 
4 2724 2925 2926 2725 
4 2725 2926 2927 2726 
4 2726 2927 2928 2727 
4 2727 2928 2929 2728 
4 2728 2929 2930 2729 
4 2729 2930 2931 2730 
4 2730 2931 2932 2731 
4 2731 2932 2933 2732 
4 2732 2933 2934 2733 
4 2733 2934 2935 2734 
4 2734 2935 2936 2735 
4 2735 2936 2937 2736 
4 2736 2937 2938 2737 
4 2737 2938 2939 2738 
4 2738 2939 2940 2739 
4 2739 2940 2941 2740 
4 2740 2941 2942 2741 
4 2741 2942 2943 2742 
4 2742 2943 2944 2743 
4 2743 2944 2945 2744 
4 2744 2945 2946 2745 
4 2745 2946 2947 2746 
4 2746 2947 2948 2747 
4 2747 2948 2949 2748 
4 2748 2949 2950 2749 
4 2749 2950 2951 2750 
4 2750 2951 2952 2751 
4 2751 2952 2953 2752 
4 2752 2953 2954 2753 
4 2753 2954 2955 2754 
4 2754 2955 2956 2755 
4 2755 2956 2957 2756 
4 2756 2957 2958 2757 
4 2757 2958 2959 2758 
4 2758 2959 2960 2759 
4 2759 2960 2961 2760 
4 2760 2961 2962 2761 
4 2761 2962 2963 2762 
4 2762 2963 2964 2763 
4 2763 2964 2965 2764 
4 2764 2965 2966 2765 
4 2765 2966 2967 2766 
4 2766 2967 2968 2767 
4 2767 2968 2969 2768 
4 2768 2969 2970 2769 
4 2769 2970 2971 2770 
4 2770 2971 2972 2771 
4 2771 2972 2973 2772 
4 2772 2973 2974 2773 
4 2773 2974 2975 2774 
4 2774 2975 2976 2775 
4 2775 2976 2977 2776 
4 2776 2977 2978 2777 
4 2777 2978 2979 2778 
4 2778 2979 2980 2779 
4 2779 2980 2981 2780 
4 2780 2981 2982 2781 
4 2781 2982 2983 2782 
4 2782 2983 2984 2783 
4 2783 2984 2985 2784 
4 2784 2985 2986 2785 
4 2785 2986 2987 2786 
4 2786 2987 2988 2787 
4 2787 2988 2989 2788 
4 2788 2989 2990 2789 
4 2789 2990 2991 2790 
4 2790 2991 2992 2791 
4 2791 2992 2993 2792 
4 2792 2993 2994 2793 
4 2793 2994 2995 2794 
4 2794 2995 2996 2795 
4 2795 2996 2997 2796 
4 2796 2997 2998 2797 
4 2797 2998 2999 2798 
4 2798 2999 3000 2799 
4 2799 3000 3001 2800 
4 2800 3001 3002 2801 
4 2801 3002 3003 2802 
4 2802 3003 3004 2803 
4 2803 3004 3005 2804 
4 2804 3005 3006 2805 
4 2805 3006 3007 2806 
4 2806 3007 3008 2807 
4 2807 3008 3009 2808 
4 2808 3009 3010 2809 
4 2809 3010 3011 2810 
4 2810 3011 3012 2811 
4 2811 3012 3013 2812 
4 2812 3013 3014 2813 
4 2814 3015 3016 2815 
4 2815 3016 3017 2816 
4 2816 3017 3018 2817 
4 2817 3018 3019 2818 
4 2818 3019 3020 2819 
4 2819 3020 3021 2820 
4 2820 3021 3022 2821 
4 2821 3022 3023 2822 
4 2822 3023 3024 2823 
4 2823 3024 3025 2824 
4 2824 3025 3026 2825 
4 2825 3026 3027 2826 
4 2826 3027 3028 2827 
4 2827 3028 3029 2828 
4 2828 3029 3030 2829 
4 2829 3030 3031 2830 
4 2830 3031 3032 2831 
4 2831 3032 3033 2832 
4 2832 3033 3034 2833 
4 2833 3034 3035 2834 
4 2834 3035 3036 2835 
4 2835 3036 3037 2836 
4 2836 3037 3038 2837 
4 2837 3038 3039 2838 
4 2838 3039 3040 2839 
4 2839 3040 3041 2840 
4 2840 3041 3042 2841 
4 2841 3042 3043 2842 
4 2842 3043 3044 2843 
4 2843 3044 3045 2844 
4 2844 3045 3046 2845 
4 2845 3046 3047 2846 
4 2846 3047 3048 2847 
4 2847 3048 3049 2848 
4 2848 3049 3050 2849 
4 2849 3050 3051 2850 
4 2850 3051 3052 2851 
4 2851 3052 3053 2852 
4 2852 3053 3054 2853 
4 2853 3054 3055 2854 
4 2854 3055 3056 2855 
4 2855 3056 3057 2856 
4 2856 3057 3058 2857 
4 2857 3058 3059 2858 
4 2858 3059 3060 2859 
4 2859 3060 3061 2860 
4 2860 3061 3062 2861 
4 2861 3062 3063 2862 
4 2862 3063 3064 2863 
4 2863 3064 3065 2864 
4 2864 3065 3066 2865 
4 2865 3066 3067 2866 
4 2866 3067 3068 2867 
4 2867 3068 3069 2868 
4 2868 3069 3070 2869 
4 2869 3070 3071 2870 
4 2870 3071 3072 2871 
4 2871 3072 3073 2872 
4 2872 3073 3074 2873 
4 2873 3074 3075 2874 
4 2874 3075 3076 2875 
4 2875 3076 3077 2876 
4 2876 3077 3078 2877 
4 2877 3078 3079 2878 
4 2878 3079 3080 2879 
4 2879 3080 3081 2880 
4 2880 3081 3082 2881 
4 2881 3082 3083 2882 
4 2882 3083 3084 2883 
4 2883 3084 3085 2884 
4 2884 3085 3086 2885 
4 2885 3086 3087 2886 
4 2886 3087 3088 2887 
4 2887 3088 3089 2888 
4 2888 3089 3090 2889 
4 2889 3090 3091 2890 
4 2890 3091 3092 2891 
4 2891 3092 3093 2892 
4 2892 3093 3094 2893 
4 2893 3094 3095 2894 
4 2894 3095 3096 2895 
4 2895 3096 3097 2896 
4 2896 3097 3098 2897 
4 2897 3098 3099 2898 
4 2898 3099 3100 2899 
4 2899 3100 3101 2900 
4 2900 3101 3102 2901 
4 2901 3102 3103 2902 
4 2902 3103 3104 2903 
4 2903 3104 3105 2904 
4 2904 3105 3106 2905 
4 2905 3106 3107 2906 
4 2906 3107 3108 2907 
4 2907 3108 3109 2908 
4 2908 3109 3110 2909 
4 2909 3110 3111 2910 
4 2910 3111 3112 2911 
4 2911 3112 3113 2912 
4 2912 3113 3114 2913 
4 2913 3114 3115 2914 
4 2914 3115 3116 2915 
4 2915 3116 3117 2916 
4 2916 3117 3118 2917 
4 2917 3118 3119 2918 
4 2918 3119 3120 2919 
4 2919 3120 3121 2920 
4 2920 3121 3122 2921 
4 2921 3122 3123 2922 
4 2922 3123 3124 2923 
4 2923 3124 3125 2924 
4 2924 3125 3126 2925 
4 2925 3126 3127 2926 
4 2926 3127 3128 2927 
4 2927 3128 3129 2928 
4 2928 3129 3130 2929 
4 2929 3130 3131 2930 
4 2930 3131 3132 2931 
4 2931 3132 3133 2932 
4 2932 3133 3134 2933 
4 2933 3134 3135 2934 
4 2934 3135 3136 2935 
4 2935 3136 3137 2936 
4 2936 3137 3138 2937 
4 2937 3138 3139 2938 
4 2938 3139 3140 2939 
4 2939 3140 3141 2940 
4 2940 3141 3142 2941 
4 2941 3142 3143 2942 
4 2942 3143 3144 2943 
4 2943 3144 3145 2944 
4 2944 3145 3146 2945 
4 2945 3146 3147 2946 
4 2946 3147 3148 2947 
4 2947 3148 3149 2948 
4 2948 3149 3150 2949 
4 2949 3150 3151 2950 
4 2950 3151 3152 2951 
4 2951 3152 3153 2952 
4 2952 3153 3154 2953 
4 2953 3154 3155 2954 
4 2954 3155 3156 2955 
4 2955 3156 3157 2956 
4 2956 3157 3158 2957 
4 2957 3158 3159 2958 
4 2958 3159 3160 2959 
4 2959 3160 3161 2960 
4 2960 3161 3162 2961 
4 2961 3162 3163 2962 
4 2962 3163 3164 2963 
4 2963 3164 3165 2964 
4 2964 3165 3166 2965 
4 2965 3166 3167 2966 
4 2966 3167 3168 2967 
4 2967 3168 3169 2968 
4 2968 3169 3170 2969 
4 2969 3170 3171 2970 
4 2970 3171 3172 2971 
4 2971 3172 3173 2972 
4 2972 3173 3174 2973 
4 2973 3174 3175 2974 
4 2974 3175 3176 2975 
4 2975 3176 3177 2976 
4 2976 3177 3178 2977 
4 2977 3178 3179 2978 
4 2978 3179 3180 2979 
4 2979 3180 3181 2980 
4 2980 3181 3182 2981 
4 2981 3182 3183 2982 
4 2982 3183 3184 2983 
4 2983 3184 3185 2984 
4 2984 3185 3186 2985 
4 2985 3186 3187 2986 
4 2986 3187 3188 2987 
4 2987 3188 3189 2988 
4 2988 3189 3190 2989 
4 2989 3190 3191 2990 
4 2990 3191 3192 2991 
4 2991 3192 3193 2992 
4 2992 3193 3194 2993 
4 2993 3194 3195 2994 
4 2994 3195 3196 2995 
4 2995 3196 3197 2996 
4 2996 3197 3198 2997 
4 2997 3198 3199 2998 
4 2998 3199 3200 2999 
4 2999 3200 3201 3000 
4 3000 3201 3202 3001 
4 3001 3202 3203 3002 
4 3002 3203 3204 3003 
4 3003 3204 3205 3004 
4 3004 3205 3206 3005 
4 3005 3206 3207 3006 
4 3006 3207 3208 3007 
4 3007 3208 3209 3008 
4 3008 3209 3210 3009 
4 3009 3210 3211 3010 
4 3010 3211 3212 3011 
4 3011 3212 3213 3012 
4 3012 3213 3214 3013 
4 3013 3214 3215 3014 
4 3015 3216 3217 3016 
4 3016 3217 3218 3017 
4 3017 3218 3219 3018 
4 3018 3219 3220 3019 
4 3019 3220 3221 3020 
4 3020 3221 3222 3021 
4 3021 3222 3223 3022 
4 3022 3223 3224 3023 
4 3023 3224 3225 3024 
4 3024 3225 3226 3025 
4 3025 3226 3227 3026 
4 3026 3227 3228 3027 
4 3027 3228 3229 3028 
4 3028 3229 3230 3029 
4 3029 3230 3231 3030 
4 3030 3231 3232 3031 
4 3031 3232 3233 3032 
4 3032 3233 3234 3033 
4 3033 3234 3235 3034 
4 3034 3235 3236 3035 
4 3035 3236 3237 3036 
4 3036 3237 3238 3037 
4 3037 3238 3239 3038 
4 3038 3239 3240 3039 
4 3039 3240 3241 3040 
4 3040 3241 3242 3041 
4 3041 3242 3243 3042 
4 3042 3243 3244 3043 
4 3043 3244 3245 3044 
4 3044 3245 3246 3045 
4 3045 3246 3247 3046 
4 3046 3247 3248 3047 
4 3047 3248 3249 3048 
4 3048 3249 3250 3049 
4 3049 3250 3251 3050 
4 3050 3251 3252 3051 
4 3051 3252 3253 3052 
4 3052 3253 3254 3053 
4 3053 3254 3255 3054 
4 3054 3255 3256 3055 
4 3055 3256 3257 3056 
4 3056 3257 3258 3057 
4 3057 3258 3259 3058 
4 3058 3259 3260 3059 
4 3059 3260 3261 3060 
4 3060 3261 3262 3061 
4 3061 3262 3263 3062 
4 3062 3263 3264 3063 
4 3063 3264 3265 3064 
4 3064 3265 3266 3065 
4 3065 3266 3267 3066 
4 3066 3267 3268 3067 
4 3067 3268 3269 3068 
4 3068 3269 3270 3069 
4 3069 3270 3271 3070 
4 3070 3271 3272 3071 
4 3071 3272 3273 3072 
4 3072 3273 3274 3073 
4 3073 3274 3275 3074 
4 3074 3275 3276 3075 
4 3075 3276 3277 3076 
4 3076 3277 3278 3077 
4 3077 3278 3279 3078 
4 3078 3279 3280 3079 
4 3079 3280 3281 3080 
4 3080 3281 3282 3081 
4 3081 3282 3283 3082 
4 3082 3283 3284 3083 
4 3083 3284 3285 3084 
4 3084 3285 3286 3085 
4 3085 3286 3287 3086 
4 3086 3287 3288 3087 
4 3087 3288 3289 3088 
4 3088 3289 3290 3089 
4 3089 3290 3291 3090 
4 3090 3291 3292 3091 
4 3091 3292 3293 3092 
4 3092 3293 3294 3093 
4 3093 3294 3295 3094 
4 3094 3295 3296 3095 
4 3095 3296 3297 3096 
4 3096 3297 3298 3097 
4 3097 3298 3299 3098 
4 3098 3299 3300 3099 
4 3099 3300 3301 3100 
4 3100 3301 3302 3101 
4 3101 3302 3303 3102 
4 3102 3303 3304 3103 
4 3103 3304 3305 3104 
4 3104 3305 3306 3105 
4 3105 3306 3307 3106 
4 3106 3307 3308 3107 
4 3107 3308 3309 3108 
4 3108 3309 3310 3109 
4 3109 3310 3311 3110 
4 3110 3311 3312 3111 
4 3111 3312 3313 3112 
4 3112 3313 3314 3113 
4 3113 3314 3315 3114 
4 3114 3315 3316 3115 
4 3115 3316 3317 3116 
4 3116 3317 3318 3117 
4 3117 3318 3319 3118 
4 3118 3319 3320 3119 
4 3119 3320 3321 3120 
4 3120 3321 3322 3121 
4 3121 3322 3323 3122 
4 3122 3323 3324 3123 
4 3123 3324 3325 3124 
4 3124 3325 3326 3125 
4 3125 3326 3327 3126 
4 3126 3327 3328 3127 
4 3127 3328 3329 3128 
4 3128 3329 3330 3129 
4 3129 3330 3331 3130 
4 3130 3331 3332 3131 
4 3131 3332 3333 3132 
4 3132 3333 3334 3133 
4 3133 3334 3335 3134 
4 3134 3335 3336 3135 
4 3135 3336 3337 3136 
4 3136 3337 3338 3137 
4 3137 3338 3339 3138 
4 3138 3339 3340 3139 
4 3139 3340 3341 3140 
4 3140 3341 3342 3141 
4 3141 3342 3343 3142 
4 3142 3343 3344 3143 
4 3143 3344 3345 3144 
4 3144 3345 3346 3145 
4 3145 3346 3347 3146 
4 3146 3347 3348 3147 
4 3147 3348 3349 3148 
4 3148 3349 3350 3149 
4 3149 3350 3351 3150 
4 3150 3351 3352 3151 
4 3151 3352 3353 3152 
4 3152 3353 3354 3153 
4 3153 3354 3355 3154 
4 3154 3355 3356 3155 
4 3155 3356 3357 3156 
4 3156 3357 3358 3157 
4 3157 3358 3359 3158 
4 3158 3359 3360 3159 
4 3159 3360 3361 3160 
4 3160 3361 3362 3161 
4 3161 3362 3363 3162 
4 3162 3363 3364 3163 
4 3163 3364 3365 3164 
4 3164 3365 3366 3165 
4 3165 3366 3367 3166 
4 3166 3367 3368 3167 
4 3167 3368 3369 3168 
4 3168 3369 3370 3169 
4 3169 3370 3371 3170 
4 3170 3371 3372 3171 
4 3171 3372 3373 3172 
4 3172 3373 3374 3173 
4 3173 3374 3375 3174 
4 3174 3375 3376 3175 
4 3175 3376 3377 3176 
4 3176 3377 3378 3177 
4 3177 3378 3379 3178 
4 3178 3379 3380 3179 
4 3179 3380 3381 3180 
4 3180 3381 3382 3181 
4 3181 3382 3383 3182 
4 3182 3383 3384 3183 
4 3183 3384 3385 3184 
4 3184 3385 3386 3185 
4 3185 3386 3387 3186 
4 3186 3387 3388 3187 
4 3187 3388 3389 3188 
4 3188 3389 3390 3189 
4 3189 3390 3391 3190 
4 3190 3391 3392 3191 
4 3191 3392 3393 3192 
4 3192 3393 3394 3193 
4 3193 3394 3395 3194 
4 3194 3395 3396 3195 
4 3195 3396 3397 3196 
4 3196 3397 3398 3197 
4 3197 3398 3399 3198 
4 3198 3399 3400 3199 
4 3199 3400 3401 3200 
4 3200 3401 3402 3201 
4 3201 3402 3403 3202 
4 3202 3403 3404 3203 
4 3203 3404 3405 3204 
4 3204 3405 3406 3205 
4 3205 3406 3407 3206 
4 3206 3407 3408 3207 
4 3207 3408 3409 3208 
4 3208 3409 3410 3209 
4 3209 3410 3411 3210 
4 3210 3411 3412 3211 
4 3211 3412 3413 3212 
4 3212 3413 3414 3213 
4 3213 3414 3415 3214 
4 3214 3415 3416 3215 
4 3216 3417 3418 3217 
4 3217 3418 3419 3218 
4 3218 3419 3420 3219 
4 3219 3420 3421 3220 
4 3220 3421 3422 3221 
4 3221 3422 3423 3222 
4 3222 3423 3424 3223 
4 3223 3424 3425 3224 
4 3224 3425 3426 3225 
4 3225 3426 3427 3226 
4 3226 3427 3428 3227 
4 3227 3428 3429 3228 
4 3228 3429 3430 3229 
4 3229 3430 3431 3230 
4 3230 3431 3432 3231 
4 3231 3432 3433 3232 
4 3232 3433 3434 3233 
4 3233 3434 3435 3234 
4 3234 3435 3436 3235 
4 3235 3436 3437 3236 
4 3236 3437 3438 3237 
4 3237 3438 3439 3238 
4 3238 3439 3440 3239 
4 3239 3440 3441 3240 
4 3240 3441 3442 3241 
4 3241 3442 3443 3242 
4 3242 3443 3444 3243 
4 3243 3444 3445 3244 
4 3244 3445 3446 3245 
4 3245 3446 3447 3246 
4 3246 3447 3448 3247 
4 3247 3448 3449 3248 
4 3248 3449 3450 3249 
4 3249 3450 3451 3250 
4 3250 3451 3452 3251 
4 3251 3452 3453 3252 
4 3252 3453 3454 3253 
4 3253 3454 3455 3254 
4 3254 3455 3456 3255 
4 3255 3456 3457 3256 
4 3256 3457 3458 3257 
4 3257 3458 3459 3258 
4 3258 3459 3460 3259 
4 3259 3460 3461 3260 
4 3260 3461 3462 3261 
4 3261 3462 3463 3262 
4 3262 3463 3464 3263 
4 3263 3464 3465 3264 
4 3264 3465 3466 3265 
4 3265 3466 3467 3266 
4 3266 3467 3468 3267 
4 3267 3468 3469 3268 
4 3268 3469 3470 3269 
4 3269 3470 3471 3270 
4 3270 3471 3472 3271 
4 3271 3472 3473 3272 
4 3272 3473 3474 3273 
4 3273 3474 3475 3274 
4 3274 3475 3476 3275 
4 3275 3476 3477 3276 
4 3276 3477 3478 3277 
4 3277 3478 3479 3278 
4 3278 3479 3480 3279 
4 3279 3480 3481 3280 
4 3280 3481 3482 3281 
4 3281 3482 3483 3282 
4 3282 3483 3484 3283 
4 3283 3484 3485 3284 
4 3284 3485 3486 3285 
4 3285 3486 3487 3286 
4 3286 3487 3488 3287 
4 3287 3488 3489 3288 
4 3288 3489 3490 3289 
4 3289 3490 3491 3290 
4 3290 3491 3492 3291 
4 3291 3492 3493 3292 
4 3292 3493 3494 3293 
4 3293 3494 3495 3294 
4 3294 3495 3496 3295 
4 3295 3496 3497 3296 
4 3296 3497 3498 3297 
4 3297 3498 3499 3298 
4 3298 3499 3500 3299 
4 3299 3500 3501 3300 
4 3300 3501 3502 3301 
4 3301 3502 3503 3302 
4 3302 3503 3504 3303 
4 3303 3504 3505 3304 
4 3304 3505 3506 3305 
4 3305 3506 3507 3306 
4 3306 3507 3508 3307 
4 3307 3508 3509 3308 
4 3308 3509 3510 3309 
4 3309 3510 3511 3310 
4 3310 3511 3512 3311 
4 3311 3512 3513 3312 
4 3312 3513 3514 3313 
4 3313 3514 3515 3314 
4 3314 3515 3516 3315 
4 3315 3516 3517 3316 
4 3316 3517 3518 3317 
4 3317 3518 3519 3318 
4 3318 3519 3520 3319 
4 3319 3520 3521 3320 
4 3320 3521 3522 3321 
4 3321 3522 3523 3322 
4 3322 3523 3524 3323 
4 3323 3524 3525 3324 
4 3324 3525 3526 3325 
4 3325 3526 3527 3326 
4 3326 3527 3528 3327 
4 3327 3528 3529 3328 
4 3328 3529 3530 3329 
4 3329 3530 3531 3330 
4 3330 3531 3532 3331 
4 3331 3532 3533 3332 
4 3332 3533 3534 3333 
4 3333 3534 3535 3334 
4 3334 3535 3536 3335 
4 3335 3536 3537 3336 
4 3336 3537 3538 3337 
4 3337 3538 3539 3338 
4 3338 3539 3540 3339 
4 3339 3540 3541 3340 
4 3340 3541 3542 3341 
4 3341 3542 3543 3342 
4 3342 3543 3544 3343 
4 3343 3544 3545 3344 
4 3344 3545 3546 3345 
4 3345 3546 3547 3346 
4 3346 3547 3548 3347 
4 3347 3548 3549 3348 
4 3348 3549 3550 3349 
4 3349 3550 3551 3350 
4 3350 3551 3552 3351 
4 3351 3552 3553 3352 
4 3352 3553 3554 3353 
4 3353 3554 3555 3354 
4 3354 3555 3556 3355 
4 3355 3556 3557 3356 
4 3356 3557 3558 3357 
4 3357 3558 3559 3358 
4 3358 3559 3560 3359 
4 3359 3560 3561 3360 
4 3360 3561 3562 3361 
4 3361 3562 3563 3362 
4 3362 3563 3564 3363 
4 3363 3564 3565 3364 
4 3364 3565 3566 3365 
4 3365 3566 3567 3366 
4 3366 3567 3568 3367 
4 3367 3568 3569 3368 
4 3368 3569 3570 3369 
4 3369 3570 3571 3370 
4 3370 3571 3572 3371 
4 3371 3572 3573 3372 
4 3372 3573 3574 3373 
4 3373 3574 3575 3374 
4 3374 3575 3576 3375 
4 3375 3576 3577 3376 
4 3376 3577 3578 3377 
4 3377 3578 3579 3378 
4 3378 3579 3580 3379 
4 3379 3580 3581 3380 
4 3380 3581 3582 3381 
4 3381 3582 3583 3382 
4 3382 3583 3584 3383 
4 3383 3584 3585 3384 
4 3384 3585 3586 3385 
4 3385 3586 3587 3386 
4 3386 3587 3588 3387 
4 3387 3588 3589 3388 
4 3388 3589 3590 3389 
4 3389 3590 3591 3390 
4 3390 3591 3592 3391 
4 3391 3592 3593 3392 
4 3392 3593 3594 3393 
4 3393 3594 3595 3394 
4 3394 3595 3596 3395 
4 3395 3596 3597 3396 
4 3396 3597 3598 3397 
4 3397 3598 3599 3398 
4 3398 3599 3600 3399 
4 3399 3600 3601 3400 
4 3400 3601 3602 3401 
4 3401 3602 3603 3402 
4 3402 3603 3604 3403 
4 3403 3604 3605 3404 
4 3404 3605 3606 3405 
4 3405 3606 3607 3406 
4 3406 3607 3608 3407 
4 3407 3608 3609 3408 
4 3408 3609 3610 3409 
4 3409 3610 3611 3410 
4 3410 3611 3612 3411 
4 3411 3612 3613 3412 
4 3412 3613 3614 3413 
4 3413 3614 3615 3414 
4 3414 3615 3616 3415 
4 3415 3616 3617 3416 
4 3417 3618 3619 3418 
4 3418 3619 3620 3419 
4 3419 3620 3621 3420 
4 3420 3621 3622 3421 
4 3421 3622 3623 3422 
4 3422 3623 3624 3423 
4 3423 3624 3625 3424 
4 3424 3625 3626 3425 
4 3425 3626 3627 3426 
4 3426 3627 3628 3427 
4 3427 3628 3629 3428 
4 3428 3629 3630 3429 
4 3429 3630 3631 3430 
4 3430 3631 3632 3431 
4 3431 3632 3633 3432 
4 3432 3633 3634 3433 
4 3433 3634 3635 3434 
4 3434 3635 3636 3435 
4 3435 3636 3637 3436 
4 3436 3637 3638 3437 
4 3437 3638 3639 3438 
4 3438 3639 3640 3439 
4 3439 3640 3641 3440 
4 3440 3641 3642 3441 
4 3441 3642 3643 3442 
4 3442 3643 3644 3443 
4 3443 3644 3645 3444 
4 3444 3645 3646 3445 
4 3445 3646 3647 3446 
4 3446 3647 3648 3447 
4 3447 3648 3649 3448 
4 3448 3649 3650 3449 
4 3449 3650 3651 3450 
4 3450 3651 3652 3451 
4 3451 3652 3653 3452 
4 3452 3653 3654 3453 
4 3453 3654 3655 3454 
4 3454 3655 3656 3455 
4 3455 3656 3657 3456 
4 3456 3657 3658 3457 
4 3457 3658 3659 3458 
4 3458 3659 3660 3459 
4 3459 3660 3661 3460 
4 3460 3661 3662 3461 
4 3461 3662 3663 3462 
4 3462 3663 3664 3463 
4 3463 3664 3665 3464 
4 3464 3665 3666 3465 
4 3465 3666 3667 3466 
4 3466 3667 3668 3467 
4 3467 3668 3669 3468 
4 3468 3669 3670 3469 
4 3469 3670 3671 3470 
4 3470 3671 3672 3471 
4 3471 3672 3673 3472 
4 3472 3673 3674 3473 
4 3473 3674 3675 3474 
4 3474 3675 3676 3475 
4 3475 3676 3677 3476 
4 3476 3677 3678 3477 
4 3477 3678 3679 3478 
4 3478 3679 3680 3479 
4 3479 3680 3681 3480 
4 3480 3681 3682 3481 
4 3481 3682 3683 3482 
4 3482 3683 3684 3483 
4 3483 3684 3685 3484 
4 3484 3685 3686 3485 
4 3485 3686 3687 3486 
4 3486 3687 3688 3487 
4 3487 3688 3689 3488 
4 3488 3689 3690 3489 
4 3489 3690 3691 3490 
4 3490 3691 3692 3491 
4 3491 3692 3693 3492 
4 3492 3693 3694 3493 
4 3493 3694 3695 3494 
4 3494 3695 3696 3495 
4 3495 3696 3697 3496 
4 3496 3697 3698 3497 
4 3497 3698 3699 3498 
4 3498 3699 3700 3499 
4 3499 3700 3701 3500 
4 3500 3701 3702 3501 
4 3501 3702 3703 3502 
4 3502 3703 3704 3503 
4 3503 3704 3705 3504 
4 3504 3705 3706 3505 
4 3505 3706 3707 3506 
4 3506 3707 3708 3507 
4 3507 3708 3709 3508 
4 3508 3709 3710 3509 
4 3509 3710 3711 3510 
4 3510 3711 3712 3511 
4 3511 3712 3713 3512 
4 3512 3713 3714 3513 
4 3513 3714 3715 3514 
4 3514 3715 3716 3515 
4 3515 3716 3717 3516 
4 3516 3717 3718 3517 
4 3517 3718 3719 3518 
4 3518 3719 3720 3519 
4 3519 3720 3721 3520 
4 3520 3721 3722 3521 
4 3521 3722 3723 3522 
4 3522 3723 3724 3523 
4 3523 3724 3725 3524 
4 3524 3725 3726 3525 
4 3525 3726 3727 3526 
4 3526 3727 3728 3527 
4 3527 3728 3729 3528 
4 3528 3729 3730 3529 
4 3529 3730 3731 3530 
4 3530 3731 3732 3531 
4 3531 3732 3733 3532 
4 3532 3733 3734 3533 
4 3533 3734 3735 3534 
4 3534 3735 3736 3535 
4 3535 3736 3737 3536 
4 3536 3737 3738 3537 
4 3537 3738 3739 3538 
4 3538 3739 3740 3539 
4 3539 3740 3741 3540 
4 3540 3741 3742 3541 
4 3541 3742 3743 3542 
4 3542 3743 3744 3543 
4 3543 3744 3745 3544 
4 3544 3745 3746 3545 
4 3545 3746 3747 3546 
4 3546 3747 3748 3547 
4 3547 3748 3749 3548 
4 3548 3749 3750 3549 
4 3549 3750 3751 3550 
4 3550 3751 3752 3551 
4 3551 3752 3753 3552 
4 3552 3753 3754 3553 
4 3553 3754 3755 3554 
4 3554 3755 3756 3555 
4 3555 3756 3757 3556 
4 3556 3757 3758 3557 
4 3557 3758 3759 3558 
4 3558 3759 3760 3559 
4 3559 3760 3761 3560 
4 3560 3761 3762 3561 
4 3561 3762 3763 3562 
4 3562 3763 3764 3563 
4 3563 3764 3765 3564 
4 3564 3765 3766 3565 
4 3565 3766 3767 3566 
4 3566 3767 3768 3567 
4 3567 3768 3769 3568 
4 3568 3769 3770 3569 
4 3569 3770 3771 3570 
4 3570 3771 3772 3571 
4 3571 3772 3773 3572 
4 3572 3773 3774 3573 
4 3573 3774 3775 3574 
4 3574 3775 3776 3575 
4 3575 3776 3777 3576 
4 3576 3777 3778 3577 
4 3577 3778 3779 3578 
4 3578 3779 3780 3579 
4 3579 3780 3781 3580 
4 3580 3781 3782 3581 
4 3581 3782 3783 3582 
4 3582 3783 3784 3583 
4 3583 3784 3785 3584 
4 3584 3785 3786 3585 
4 3585 3786 3787 3586 
4 3586 3787 3788 3587 
4 3587 3788 3789 3588 
4 3588 3789 3790 3589 
4 3589 3790 3791 3590 
4 3590 3791 3792 3591 
4 3591 3792 3793 3592 
4 3592 3793 3794 3593 
4 3593 3794 3795 3594 
4 3594 3795 3796 3595 
4 3595 3796 3797 3596 
4 3596 3797 3798 3597 
4 3597 3798 3799 3598 
4 3598 3799 3800 3599 
4 3599 3800 3801 3600 
4 3600 3801 3802 3601 
4 3601 3802 3803 3602 
4 3602 3803 3804 3603 
4 3603 3804 3805 3604 
4 3604 3805 3806 3605 
4 3605 3806 3807 3606 
4 3606 3807 3808 3607 
4 3607 3808 3809 3608 
4 3608 3809 3810 3609 
4 3609 3810 3811 3610 
4 3610 3811 3812 3611 
4 3611 3812 3813 3612 
4 3612 3813 3814 3613 
4 3613 3814 3815 3614 
4 3614 3815 3816 3615 
4 3615 3816 3817 3616 
4 3616 3817 3818 3617 
4 3618 3819 3820 3619 
4 3619 3820 3821 3620 
4 3620 3821 3822 3621 
4 3621 3822 3823 3622 
4 3622 3823 3824 3623 
4 3623 3824 3825 3624 
4 3624 3825 3826 3625 
4 3625 3826 3827 3626 
4 3626 3827 3828 3627 
4 3627 3828 3829 3628 
4 3628 3829 3830 3629 
4 3629 3830 3831 3630 
4 3630 3831 3832 3631 
4 3631 3832 3833 3632 
4 3632 3833 3834 3633 
4 3633 3834 3835 3634 
4 3634 3835 3836 3635 
4 3635 3836 3837 3636 
4 3636 3837 3838 3637 
4 3637 3838 3839 3638 
4 3638 3839 3840 3639 
4 3639 3840 3841 3640 
4 3640 3841 3842 3641 
4 3641 3842 3843 3642 
4 3642 3843 3844 3643 
4 3643 3844 3845 3644 
4 3644 3845 3846 3645 
4 3645 3846 3847 3646 
4 3646 3847 3848 3647 
4 3647 3848 3849 3648 
4 3648 3849 3850 3649 
4 3649 3850 3851 3650 
4 3650 3851 3852 3651 
4 3651 3852 3853 3652 
4 3652 3853 3854 3653 
4 3653 3854 3855 3654 
4 3654 3855 3856 3655 
4 3655 3856 3857 3656 
4 3656 3857 3858 3657 
4 3657 3858 3859 3658 
4 3658 3859 3860 3659 
4 3659 3860 3861 3660 
4 3660 3861 3862 3661 
4 3661 3862 3863 3662 
4 3662 3863 3864 3663 
4 3663 3864 3865 3664 
4 3664 3865 3866 3665 
4 3665 3866 3867 3666 
4 3666 3867 3868 3667 
4 3667 3868 3869 3668 
4 3668 3869 3870 3669 
4 3669 3870 3871 3670 
4 3670 3871 3872 3671 
4 3671 3872 3873 3672 
4 3672 3873 3874 3673 
4 3673 3874 3875 3674 
4 3674 3875 3876 3675 
4 3675 3876 3877 3676 
4 3676 3877 3878 3677 
4 3677 3878 3879 3678 
4 3678 3879 3880 3679 
4 3679 3880 3881 3680 
4 3680 3881 3882 3681 
4 3681 3882 3883 3682 
4 3682 3883 3884 3683 
4 3683 3884 3885 3684 
4 3684 3885 3886 3685 
4 3685 3886 3887 3686 
4 3686 3887 3888 3687 
4 3687 3888 3889 3688 
4 3688 3889 3890 3689 
4 3689 3890 3891 3690 
4 3690 3891 3892 3691 
4 3691 3892 3893 3692 
4 3692 3893 3894 3693 
4 3693 3894 3895 3694 
4 3694 3895 3896 3695 
4 3695 3896 3897 3696 
4 3696 3897 3898 3697 
4 3697 3898 3899 3698 
4 3698 3899 3900 3699 
4 3699 3900 3901 3700 
4 3700 3901 3902 3701 
4 3701 3902 3903 3702 
4 3702 3903 3904 3703 
4 3703 3904 3905 3704 
4 3704 3905 3906 3705 
4 3705 3906 3907 3706 
4 3706 3907 3908 3707 
4 3707 3908 3909 3708 
4 3708 3909 3910 3709 
4 3709 3910 3911 3710 
4 3710 3911 3912 3711 
4 3711 3912 3913 3712 
4 3712 3913 3914 3713 
4 3713 3914 3915 3714 
4 3714 3915 3916 3715 
4 3715 3916 3917 3716 
4 3716 3917 3918 3717 
4 3717 3918 3919 3718 
4 3718 3919 3920 3719 
4 3719 3920 3921 3720 
4 3720 3921 3922 3721 
4 3721 3922 3923 3722 
4 3722 3923 3924 3723 
4 3723 3924 3925 3724 
4 3724 3925 3926 3725 
4 3725 3926 3927 3726 
4 3726 3927 3928 3727 
4 3727 3928 3929 3728 
4 3728 3929 3930 3729 
4 3729 3930 3931 3730 
4 3730 3931 3932 3731 
4 3731 3932 3933 3732 
4 3732 3933 3934 3733 
4 3733 3934 3935 3734 
4 3734 3935 3936 3735 
4 3735 3936 3937 3736 
4 3736 3937 3938 3737 
4 3737 3938 3939 3738 
4 3738 3939 3940 3739 
4 3739 3940 3941 3740 
4 3740 3941 3942 3741 
4 3741 3942 3943 3742 
4 3742 3943 3944 3743 
4 3743 3944 3945 3744 
4 3744 3945 3946 3745 
4 3745 3946 3947 3746 
4 3746 3947 3948 3747 
4 3747 3948 3949 3748 
4 3748 3949 3950 3749 
4 3749 3950 3951 3750 
4 3750 3951 3952 3751 
4 3751 3952 3953 3752 
4 3752 3953 3954 3753 
4 3753 3954 3955 3754 
4 3754 3955 3956 3755 
4 3755 3956 3957 3756 
4 3756 3957 3958 3757 
4 3757 3958 3959 3758 
4 3758 3959 3960 3759 
4 3759 3960 3961 3760 
4 3760 3961 3962 3761 
4 3761 3962 3963 3762 
4 3762 3963 3964 3763 
4 3763 3964 3965 3764 
4 3764 3965 3966 3765 
4 3765 3966 3967 3766 
4 3766 3967 3968 3767 
4 3767 3968 3969 3768 
4 3768 3969 3970 3769 
4 3769 3970 3971 3770 
4 3770 3971 3972 3771 
4 3771 3972 3973 3772 
4 3772 3973 3974 3773 
4 3773 3974 3975 3774 
4 3774 3975 3976 3775 
4 3775 3976 3977 3776 
4 3776 3977 3978 3777 
4 3777 3978 3979 3778 
4 3778 3979 3980 3779 
4 3779 3980 3981 3780 
4 3780 3981 3982 3781 
4 3781 3982 3983 3782 
4 3782 3983 3984 3783 
4 3783 3984 3985 3784 
4 3784 3985 3986 3785 
4 3785 3986 3987 3786 
4 3786 3987 3988 3787 
4 3787 3988 3989 3788 
4 3788 3989 3990 3789 
4 3789 3990 3991 3790 
4 3790 3991 3992 3791 
4 3791 3992 3993 3792 
4 3792 3993 3994 3793 
4 3793 3994 3995 3794 
4 3794 3995 3996 3795 
4 3795 3996 3997 3796 
4 3796 3997 3998 3797 
4 3797 3998 3999 3798 
4 3798 3999 4000 3799 
4 3799 4000 4001 3800 
4 3800 4001 4002 3801 
4 3801 4002 4003 3802 
4 3802 4003 4004 3803 
4 3803 4004 4005 3804 
4 3804 4005 4006 3805 
4 3805 4006 4007 3806 
4 3806 4007 4008 3807 
4 3807 4008 4009 3808 
4 3808 4009 4010 3809 
4 3809 4010 4011 3810 
4 3810 4011 4012 3811 
4 3811 4012 4013 3812 
4 3812 4013 4014 3813 
4 3813 4014 4015 3814 
4 3814 4015 4016 3815 
4 3815 4016 4017 3816 
4 3816 4017 4018 3817 
4 3817 4018 4019 3818 
4 3819 4020 4021 3820 
4 3820 4021 4022 3821 
4 3821 4022 4023 3822 
4 3822 4023 4024 3823 
4 3823 4024 4025 3824 
4 3824 4025 4026 3825 
4 3825 4026 4027 3826 
4 3826 4027 4028 3827 
4 3827 4028 4029 3828 
4 3828 4029 4030 3829 
4 3829 4030 4031 3830 
4 3830 4031 4032 3831 
4 3831 4032 4033 3832 
4 3832 4033 4034 3833 
4 3833 4034 4035 3834 
4 3834 4035 4036 3835 
4 3835 4036 4037 3836 
4 3836 4037 4038 3837 
4 3837 4038 4039 3838 
4 3838 4039 4040 3839 
4 3839 4040 4041 3840 
4 3840 4041 4042 3841 
4 3841 4042 4043 3842 
4 3842 4043 4044 3843 
4 3843 4044 4045 3844 
4 3844 4045 4046 3845 
4 3845 4046 4047 3846 
4 3846 4047 4048 3847 
4 3847 4048 4049 3848 
4 3848 4049 4050 3849 
4 3849 4050 4051 3850 
4 3850 4051 4052 3851 
4 3851 4052 4053 3852 
4 3852 4053 4054 3853 
4 3853 4054 4055 3854 
4 3854 4055 4056 3855 
4 3855 4056 4057 3856 
4 3856 4057 4058 3857 
4 3857 4058 4059 3858 
4 3858 4059 4060 3859 
4 3859 4060 4061 3860 
4 3860 4061 4062 3861 
4 3861 4062 4063 3862 
4 3862 4063 4064 3863 
4 3863 4064 4065 3864 
4 3864 4065 4066 3865 
4 3865 4066 4067 3866 
4 3866 4067 4068 3867 
4 3867 4068 4069 3868 
4 3868 4069 4070 3869 
4 3869 4070 4071 3870 
4 3870 4071 4072 3871 
4 3871 4072 4073 3872 
4 3872 4073 4074 3873 
4 3873 4074 4075 3874 
4 3874 4075 4076 3875 
4 3875 4076 4077 3876 
4 3876 4077 4078 3877 
4 3877 4078 4079 3878 
4 3878 4079 4080 3879 
4 3879 4080 4081 3880 
4 3880 4081 4082 3881 
4 3881 4082 4083 3882 
4 3882 4083 4084 3883 
4 3883 4084 4085 3884 
4 3884 4085 4086 3885 
4 3885 4086 4087 3886 
4 3886 4087 4088 3887 
4 3887 4088 4089 3888 
4 3888 4089 4090 3889 
4 3889 4090 4091 3890 
4 3890 4091 4092 3891 
4 3891 4092 4093 3892 
4 3892 4093 4094 3893 
4 3893 4094 4095 3894 
4 3894 4095 4096 3895 
4 3895 4096 4097 3896 
4 3896 4097 4098 3897 
4 3897 4098 4099 3898 
4 3898 4099 4100 3899 
4 3899 4100 4101 3900 
4 3900 4101 4102 3901 
4 3901 4102 4103 3902 
4 3902 4103 4104 3903 
4 3903 4104 4105 3904 
4 3904 4105 4106 3905 
4 3905 4106 4107 3906 
4 3906 4107 4108 3907 
4 3907 4108 4109 3908 
4 3908 4109 4110 3909 
4 3909 4110 4111 3910 
4 3910 4111 4112 3911 
4 3911 4112 4113 3912 
4 3912 4113 4114 3913 
4 3913 4114 4115 3914 
4 3914 4115 4116 3915 
4 3915 4116 4117 3916 
4 3916 4117 4118 3917 
4 3917 4118 4119 3918 
4 3918 4119 4120 3919 
4 3919 4120 4121 3920 
4 3920 4121 4122 3921 
4 3921 4122 4123 3922 
4 3922 4123 4124 3923 
4 3923 4124 4125 3924 
4 3924 4125 4126 3925 
4 3925 4126 4127 3926 
4 3926 4127 4128 3927 
4 3927 4128 4129 3928 
4 3928 4129 4130 3929 
4 3929 4130 4131 3930 
4 3930 4131 4132 3931 
4 3931 4132 4133 3932 
4 3932 4133 4134 3933 
4 3933 4134 4135 3934 
4 3934 4135 4136 3935 
4 3935 4136 4137 3936 
4 3936 4137 4138 3937 
4 3937 4138 4139 3938 
4 3938 4139 4140 3939 
4 3939 4140 4141 3940 
4 3940 4141 4142 3941 
4 3941 4142 4143 3942 
4 3942 4143 4144 3943 
4 3943 4144 4145 3944 
4 3944 4145 4146 3945 
4 3945 4146 4147 3946 
4 3946 4147 4148 3947 
4 3947 4148 4149 3948 
4 3948 4149 4150 3949 
4 3949 4150 4151 3950 
4 3950 4151 4152 3951 
4 3951 4152 4153 3952 
4 3952 4153 4154 3953 
4 3953 4154 4155 3954 
4 3954 4155 4156 3955 
4 3955 4156 4157 3956 
4 3956 4157 4158 3957 
4 3957 4158 4159 3958 
4 3958 4159 4160 3959 
4 3959 4160 4161 3960 
4 3960 4161 4162 3961 
4 3961 4162 4163 3962 
4 3962 4163 4164 3963 
4 3963 4164 4165 3964 
4 3964 4165 4166 3965 
4 3965 4166 4167 3966 
4 3966 4167 4168 3967 
4 3967 4168 4169 3968 
4 3968 4169 4170 3969 
4 3969 4170 4171 3970 
4 3970 4171 4172 3971 
4 3971 4172 4173 3972 
4 3972 4173 4174 3973 
4 3973 4174 4175 3974 
4 3974 4175 4176 3975 
4 3975 4176 4177 3976 
4 3976 4177 4178 3977 
4 3977 4178 4179 3978 
4 3978 4179 4180 3979 
4 3979 4180 4181 3980 
4 3980 4181 4182 3981 
4 3981 4182 4183 3982 
4 3982 4183 4184 3983 
4 3983 4184 4185 3984 
4 3984 4185 4186 3985 
4 3985 4186 4187 3986 
4 3986 4187 4188 3987 
4 3987 4188 4189 3988 
4 3988 4189 4190 3989 
4 3989 4190 4191 3990 
4 3990 4191 4192 3991 
4 3991 4192 4193 3992 
4 3992 4193 4194 3993 
4 3993 4194 4195 3994 
4 3994 4195 4196 3995 
4 3995 4196 4197 3996 
4 3996 4197 4198 3997 
4 3997 4198 4199 3998 
4 3998 4199 4200 3999 
4 3999 4200 4201 4000 
4 4000 4201 4202 4001 
4 4001 4202 4203 4002 
4 4002 4203 4204 4003 
4 4003 4204 4205 4004 
4 4004 4205 4206 4005 
4 4005 4206 4207 4006 
4 4006 4207 4208 4007 
4 4007 4208 4209 4008 
4 4008 4209 4210 4009 
4 4009 4210 4211 4010 
4 4010 4211 4212 4011 
4 4011 4212 4213 4012 
4 4012 4213 4214 4013 
4 4013 4214 4215 4014 
4 4014 4215 4216 4015 
4 4015 4216 4217 4016 
4 4016 4217 4218 4017 
4 4017 4218 4219 4018 
4 4018 4219 4220 4019 
4 4020 4221 4222 4021 
4 4021 4222 4223 4022 
4 4022 4223 4224 4023 
4 4023 4224 4225 4024 
4 4024 4225 4226 4025 
4 4025 4226 4227 4026 
4 4026 4227 4228 4027 
4 4027 4228 4229 4028 
4 4028 4229 4230 4029 
4 4029 4230 4231 4030 
4 4030 4231 4232 4031 
4 4031 4232 4233 4032 
4 4032 4233 4234 4033 
4 4033 4234 4235 4034 
4 4034 4235 4236 4035 
4 4035 4236 4237 4036 
4 4036 4237 4238 4037 
4 4037 4238 4239 4038 
4 4038 4239 4240 4039 
4 4039 4240 4241 4040 
4 4040 4241 4242 4041 
4 4041 4242 4243 4042 
4 4042 4243 4244 4043 
4 4043 4244 4245 4044 
4 4044 4245 4246 4045 
4 4045 4246 4247 4046 
4 4046 4247 4248 4047 
4 4047 4248 4249 4048 
4 4048 4249 4250 4049 
4 4049 4250 4251 4050 
4 4050 4251 4252 4051 
4 4051 4252 4253 4052 
4 4052 4253 4254 4053 
4 4053 4254 4255 4054 
4 4054 4255 4256 4055 
4 4055 4256 4257 4056 
4 4056 4257 4258 4057 
4 4057 4258 4259 4058 
4 4058 4259 4260 4059 
4 4059 4260 4261 4060 
4 4060 4261 4262 4061 
4 4061 4262 4263 4062 
4 4062 4263 4264 4063 
4 4063 4264 4265 4064 
4 4064 4265 4266 4065 
4 4065 4266 4267 4066 
4 4066 4267 4268 4067 
4 4067 4268 4269 4068 
4 4068 4269 4270 4069 
4 4069 4270 4271 4070 
4 4070 4271 4272 4071 
4 4071 4272 4273 4072 
4 4072 4273 4274 4073 
4 4073 4274 4275 4074 
4 4074 4275 4276 4075 
4 4075 4276 4277 4076 
4 4076 4277 4278 4077 
4 4077 4278 4279 4078 
4 4078 4279 4280 4079 
4 4079 4280 4281 4080 
4 4080 4281 4282 4081 
4 4081 4282 4283 4082 
4 4082 4283 4284 4083 
4 4083 4284 4285 4084 
4 4084 4285 4286 4085 
4 4085 4286 4287 4086 
4 4086 4287 4288 4087 
4 4087 4288 4289 4088 
4 4088 4289 4290 4089 
4 4089 4290 4291 4090 
4 4090 4291 4292 4091 
4 4091 4292 4293 4092 
4 4092 4293 4294 4093 
4 4093 4294 4295 4094 
4 4094 4295 4296 4095 
4 4095 4296 4297 4096 
4 4096 4297 4298 4097 
4 4097 4298 4299 4098 
4 4098 4299 4300 4099 
4 4099 4300 4301 4100 
4 4100 4301 4302 4101 
4 4101 4302 4303 4102 
4 4102 4303 4304 4103 
4 4103 4304 4305 4104 
4 4104 4305 4306 4105 
4 4105 4306 4307 4106 
4 4106 4307 4308 4107 
4 4107 4308 4309 4108 
4 4108 4309 4310 4109 
4 4109 4310 4311 4110 
4 4110 4311 4312 4111 
4 4111 4312 4313 4112 
4 4112 4313 4314 4113 
4 4113 4314 4315 4114 
4 4114 4315 4316 4115 
4 4115 4316 4317 4116 
4 4116 4317 4318 4117 
4 4117 4318 4319 4118 
4 4118 4319 4320 4119 
4 4119 4320 4321 4120 
4 4120 4321 4322 4121 
4 4121 4322 4323 4122 
4 4122 4323 4324 4123 
4 4123 4324 4325 4124 
4 4124 4325 4326 4125 
4 4125 4326 4327 4126 
4 4126 4327 4328 4127 
4 4127 4328 4329 4128 
4 4128 4329 4330 4129 
4 4129 4330 4331 4130 
4 4130 4331 4332 4131 
4 4131 4332 4333 4132 
4 4132 4333 4334 4133 
4 4133 4334 4335 4134 
4 4134 4335 4336 4135 
4 4135 4336 4337 4136 
4 4136 4337 4338 4137 
4 4137 4338 4339 4138 
4 4138 4339 4340 4139 
4 4139 4340 4341 4140 
4 4140 4341 4342 4141 
4 4141 4342 4343 4142 
4 4142 4343 4344 4143 
4 4143 4344 4345 4144 
4 4144 4345 4346 4145 
4 4145 4346 4347 4146 
4 4146 4347 4348 4147 
4 4147 4348 4349 4148 
4 4148 4349 4350 4149 
4 4149 4350 4351 4150 
4 4150 4351 4352 4151 
4 4151 4352 4353 4152 
4 4152 4353 4354 4153 
4 4153 4354 4355 4154 
4 4154 4355 4356 4155 
4 4155 4356 4357 4156 
4 4156 4357 4358 4157 
4 4157 4358 4359 4158 
4 4158 4359 4360 4159 
4 4159 4360 4361 4160 
4 4160 4361 4362 4161 
4 4161 4362 4363 4162 
4 4162 4363 4364 4163 
4 4163 4364 4365 4164 
4 4164 4365 4366 4165 
4 4165 4366 4367 4166 
4 4166 4367 4368 4167 
4 4167 4368 4369 4168 
4 4168 4369 4370 4169 
4 4169 4370 4371 4170 
4 4170 4371 4372 4171 
4 4171 4372 4373 4172 
4 4172 4373 4374 4173 
4 4173 4374 4375 4174 
4 4174 4375 4376 4175 
4 4175 4376 4377 4176 
4 4176 4377 4378 4177 
4 4177 4378 4379 4178 
4 4178 4379 4380 4179 
4 4179 4380 4381 4180 
4 4180 4381 4382 4181 
4 4181 4382 4383 4182 
4 4182 4383 4384 4183 
4 4183 4384 4385 4184 
4 4184 4385 4386 4185 
4 4185 4386 4387 4186 
4 4186 4387 4388 4187 
4 4187 4388 4389 4188 
4 4188 4389 4390 4189 
4 4189 4390 4391 4190 
4 4190 4391 4392 4191 
4 4191 4392 4393 4192 
4 4192 4393 4394 4193 
4 4193 4394 4395 4194 
4 4194 4395 4396 4195 
4 4195 4396 4397 4196 
4 4196 4397 4398 4197 
4 4197 4398 4399 4198 
4 4198 4399 4400 4199 
4 4199 4400 4401 4200 
4 4200 4401 4402 4201 
4 4201 4402 4403 4202 
4 4202 4403 4404 4203 
4 4203 4404 4405 4204 
4 4204 4405 4406 4205 
4 4205 4406 4407 4206 
4 4206 4407 4408 4207 
4 4207 4408 4409 4208 
4 4208 4409 4410 4209 
4 4209 4410 4411 4210 
4 4210 4411 4412 4211 
4 4211 4412 4413 4212 
4 4212 4413 4414 4213 
4 4213 4414 4415 4214 
4 4214 4415 4416 4215 
4 4215 4416 4417 4216 
4 4216 4417 4418 4217 
4 4217 4418 4419 4218 
4 4218 4419 4420 4219 
4 4219 4420 4421 4220 
4 4221 4422 4423 4222 
4 4222 4423 4424 4223 
4 4223 4424 4425 4224 
4 4224 4425 4426 4225 
4 4225 4426 4427 4226 
4 4226 4427 4428 4227 
4 4227 4428 4429 4228 
4 4228 4429 4430 4229 
4 4229 4430 4431 4230 
4 4230 4431 4432 4231 
4 4231 4432 4433 4232 
4 4232 4433 4434 4233 
4 4233 4434 4435 4234 
4 4234 4435 4436 4235 
4 4235 4436 4437 4236 
4 4236 4437 4438 4237 
4 4237 4438 4439 4238 
4 4238 4439 4440 4239 
4 4239 4440 4441 4240 
4 4240 4441 4442 4241 
4 4241 4442 4443 4242 
4 4242 4443 4444 4243 
4 4243 4444 4445 4244 
4 4244 4445 4446 4245 
4 4245 4446 4447 4246 
4 4246 4447 4448 4247 
4 4247 4448 4449 4248 
4 4248 4449 4450 4249 
4 4249 4450 4451 4250 
4 4250 4451 4452 4251 
4 4251 4452 4453 4252 
4 4252 4453 4454 4253 
4 4253 4454 4455 4254 
4 4254 4455 4456 4255 
4 4255 4456 4457 4256 
4 4256 4457 4458 4257 
4 4257 4458 4459 4258 
4 4258 4459 4460 4259 
4 4259 4460 4461 4260 
4 4260 4461 4462 4261 
4 4261 4462 4463 4262 
4 4262 4463 4464 4263 
4 4263 4464 4465 4264 
4 4264 4465 4466 4265 
4 4265 4466 4467 4266 
4 4266 4467 4468 4267 
4 4267 4468 4469 4268 
4 4268 4469 4470 4269 
4 4269 4470 4471 4270 
4 4270 4471 4472 4271 
4 4271 4472 4473 4272 
4 4272 4473 4474 4273 
4 4273 4474 4475 4274 
4 4274 4475 4476 4275 
4 4275 4476 4477 4276 
4 4276 4477 4478 4277 
4 4277 4478 4479 4278 
4 4278 4479 4480 4279 
4 4279 4480 4481 4280 
4 4280 4481 4482 4281 
4 4281 4482 4483 4282 
4 4282 4483 4484 4283 
4 4283 4484 4485 4284 
4 4284 4485 4486 4285 
4 4285 4486 4487 4286 
4 4286 4487 4488 4287 
4 4287 4488 4489 4288 
4 4288 4489 4490 4289 
4 4289 4490 4491 4290 
4 4290 4491 4492 4291 
4 4291 4492 4493 4292 
4 4292 4493 4494 4293 
4 4293 4494 4495 4294 
4 4294 4495 4496 4295 
4 4295 4496 4497 4296 
4 4296 4497 4498 4297 
4 4297 4498 4499 4298 
4 4298 4499 4500 4299 
4 4299 4500 4501 4300 
4 4300 4501 4502 4301 
4 4301 4502 4503 4302 
4 4302 4503 4504 4303 
4 4303 4504 4505 4304 
4 4304 4505 4506 4305 
4 4305 4506 4507 4306 
4 4306 4507 4508 4307 
4 4307 4508 4509 4308 
4 4308 4509 4510 4309 
4 4309 4510 4511 4310 
4 4310 4511 4512 4311 
4 4311 4512 4513 4312 
4 4312 4513 4514 4313 
4 4313 4514 4515 4314 
4 4314 4515 4516 4315 
4 4315 4516 4517 4316 
4 4316 4517 4518 4317 
4 4317 4518 4519 4318 
4 4318 4519 4520 4319 
4 4319 4520 4521 4320 
4 4320 4521 4522 4321 
4 4321 4522 4523 4322 
4 4322 4523 4524 4323 
4 4323 4524 4525 4324 
4 4324 4525 4526 4325 
4 4325 4526 4527 4326 
4 4326 4527 4528 4327 
4 4327 4528 4529 4328 
4 4328 4529 4530 4329 
4 4329 4530 4531 4330 
4 4330 4531 4532 4331 
4 4331 4532 4533 4332 
4 4332 4533 4534 4333 
4 4333 4534 4535 4334 
4 4334 4535 4536 4335 
4 4335 4536 4537 4336 
4 4336 4537 4538 4337 
4 4337 4538 4539 4338 
4 4338 4539 4540 4339 
4 4339 4540 4541 4340 
4 4340 4541 4542 4341 
4 4341 4542 4543 4342 
4 4342 4543 4544 4343 
4 4343 4544 4545 4344 
4 4344 4545 4546 4345 
4 4345 4546 4547 4346 
4 4346 4547 4548 4347 
4 4347 4548 4549 4348 
4 4348 4549 4550 4349 
4 4349 4550 4551 4350 
4 4350 4551 4552 4351 
4 4351 4552 4553 4352 
4 4352 4553 4554 4353 
4 4353 4554 4555 4354 
4 4354 4555 4556 4355 
4 4355 4556 4557 4356 
4 4356 4557 4558 4357 
4 4357 4558 4559 4358 
4 4358 4559 4560 4359 
4 4359 4560 4561 4360 
4 4360 4561 4562 4361 
4 4361 4562 4563 4362 
4 4362 4563 4564 4363 
4 4363 4564 4565 4364 
4 4364 4565 4566 4365 
4 4365 4566 4567 4366 
4 4366 4567 4568 4367 
4 4367 4568 4569 4368 
4 4368 4569 4570 4369 
4 4369 4570 4571 4370 
4 4370 4571 4572 4371 
4 4371 4572 4573 4372 
4 4372 4573 4574 4373 
4 4373 4574 4575 4374 
4 4374 4575 4576 4375 
4 4375 4576 4577 4376 
4 4376 4577 4578 4377 
4 4377 4578 4579 4378 
4 4378 4579 4580 4379 
4 4379 4580 4581 4380 
4 4380 4581 4582 4381 
4 4381 4582 4583 4382 
4 4382 4583 4584 4383 
4 4383 4584 4585 4384 
4 4384 4585 4586 4385 
4 4385 4586 4587 4386 
4 4386 4587 4588 4387 
4 4387 4588 4589 4388 
4 4388 4589 4590 4389 
4 4389 4590 4591 4390 
4 4390 4591 4592 4391 
4 4391 4592 4593 4392 
4 4392 4593 4594 4393 
4 4393 4594 4595 4394 
4 4394 4595 4596 4395 
4 4395 4596 4597 4396 
4 4396 4597 4598 4397 
4 4397 4598 4599 4398 
4 4398 4599 4600 4399 
4 4399 4600 4601 4400 
4 4400 4601 4602 4401 
4 4401 4602 4603 4402 
4 4402 4603 4604 4403 
4 4403 4604 4605 4404 
4 4404 4605 4606 4405 
4 4405 4606 4607 4406 
4 4406 4607 4608 4407 
4 4407 4608 4609 4408 
4 4408 4609 4610 4409 
4 4409 4610 4611 4410 
4 4410 4611 4612 4411 
4 4411 4612 4613 4412 
4 4412 4613 4614 4413 
4 4413 4614 4615 4414 
4 4414 4615 4616 4415 
4 4415 4616 4617 4416 
4 4416 4617 4618 4417 
4 4417 4618 4619 4418 
4 4418 4619 4620 4419 
4 4419 4620 4621 4420 
4 4420 4621 4622 4421 
4 4422 4623 4624 4423 
4 4423 4624 4625 4424 
4 4424 4625 4626 4425 
4 4425 4626 4627 4426 
4 4426 4627 4628 4427 
4 4427 4628 4629 4428 
4 4428 4629 4630 4429 
4 4429 4630 4631 4430 
4 4430 4631 4632 4431 
4 4431 4632 4633 4432 
4 4432 4633 4634 4433 
4 4433 4634 4635 4434 
4 4434 4635 4636 4435 
4 4435 4636 4637 4436 
4 4436 4637 4638 4437 
4 4437 4638 4639 4438 
4 4438 4639 4640 4439 
4 4439 4640 4641 4440 
4 4440 4641 4642 4441 
4 4441 4642 4643 4442 
4 4442 4643 4644 4443 
4 4443 4644 4645 4444 
4 4444 4645 4646 4445 
4 4445 4646 4647 4446 
4 4446 4647 4648 4447 
4 4447 4648 4649 4448 
4 4448 4649 4650 4449 
4 4449 4650 4651 4450 
4 4450 4651 4652 4451 
4 4451 4652 4653 4452 
4 4452 4653 4654 4453 
4 4453 4654 4655 4454 
4 4454 4655 4656 4455 
4 4455 4656 4657 4456 
4 4456 4657 4658 4457 
4 4457 4658 4659 4458 
4 4458 4659 4660 4459 
4 4459 4660 4661 4460 
4 4460 4661 4662 4461 
4 4461 4662 4663 4462 
4 4462 4663 4664 4463 
4 4463 4664 4665 4464 
4 4464 4665 4666 4465 
4 4465 4666 4667 4466 
4 4466 4667 4668 4467 
4 4467 4668 4669 4468 
4 4468 4669 4670 4469 
4 4469 4670 4671 4470 
4 4470 4671 4672 4471 
4 4471 4672 4673 4472 
4 4472 4673 4674 4473 
4 4473 4674 4675 4474 
4 4474 4675 4676 4475 
4 4475 4676 4677 4476 
4 4476 4677 4678 4477 
4 4477 4678 4679 4478 
4 4478 4679 4680 4479 
4 4479 4680 4681 4480 
4 4480 4681 4682 4481 
4 4481 4682 4683 4482 
4 4482 4683 4684 4483 
4 4483 4684 4685 4484 
4 4484 4685 4686 4485 
4 4485 4686 4687 4486 
4 4486 4687 4688 4487 
4 4487 4688 4689 4488 
4 4488 4689 4690 4489 
4 4489 4690 4691 4490 
4 4490 4691 4692 4491 
4 4491 4692 4693 4492 
4 4492 4693 4694 4493 
4 4493 4694 4695 4494 
4 4494 4695 4696 4495 
4 4495 4696 4697 4496 
4 4496 4697 4698 4497 
4 4497 4698 4699 4498 
4 4498 4699 4700 4499 
4 4499 4700 4701 4500 
4 4500 4701 4702 4501 
4 4501 4702 4703 4502 
4 4502 4703 4704 4503 
4 4503 4704 4705 4504 
4 4504 4705 4706 4505 
4 4505 4706 4707 4506 
4 4506 4707 4708 4507 
4 4507 4708 4709 4508 
4 4508 4709 4710 4509 
4 4509 4710 4711 4510 
4 4510 4711 4712 4511 
4 4511 4712 4713 4512 
4 4512 4713 4714 4513 
4 4513 4714 4715 4514 
4 4514 4715 4716 4515 
4 4515 4716 4717 4516 
4 4516 4717 4718 4517 
4 4517 4718 4719 4518 
4 4518 4719 4720 4519 
4 4519 4720 4721 4520 
4 4520 4721 4722 4521 
4 4521 4722 4723 4522 
4 4522 4723 4724 4523 
4 4523 4724 4725 4524 
4 4524 4725 4726 4525 
4 4525 4726 4727 4526 
4 4526 4727 4728 4527 
4 4527 4728 4729 4528 
4 4528 4729 4730 4529 
4 4529 4730 4731 4530 
4 4530 4731 4732 4531 
4 4531 4732 4733 4532 
4 4532 4733 4734 4533 
4 4533 4734 4735 4534 
4 4534 4735 4736 4535 
4 4535 4736 4737 4536 
4 4536 4737 4738 4537 
4 4537 4738 4739 4538 
4 4538 4739 4740 4539 
4 4539 4740 4741 4540 
4 4540 4741 4742 4541 
4 4541 4742 4743 4542 
4 4542 4743 4744 4543 
4 4543 4744 4745 4544 
4 4544 4745 4746 4545 
4 4545 4746 4747 4546 
4 4546 4747 4748 4547 
4 4547 4748 4749 4548 
4 4548 4749 4750 4549 
4 4549 4750 4751 4550 
4 4550 4751 4752 4551 
4 4551 4752 4753 4552 
4 4552 4753 4754 4553 
4 4553 4754 4755 4554 
4 4554 4755 4756 4555 
4 4555 4756 4757 4556 
4 4556 4757 4758 4557 
4 4557 4758 4759 4558 
4 4558 4759 4760 4559 
4 4559 4760 4761 4560 
4 4560 4761 4762 4561 
4 4561 4762 4763 4562 
4 4562 4763 4764 4563 
4 4563 4764 4765 4564 
4 4564 4765 4766 4565 
4 4565 4766 4767 4566 
4 4566 4767 4768 4567 
4 4567 4768 4769 4568 
4 4568 4769 4770 4569 
4 4569 4770 4771 4570 
4 4570 4771 4772 4571 
4 4571 4772 4773 4572 
4 4572 4773 4774 4573 
4 4573 4774 4775 4574 
4 4574 4775 4776 4575 
4 4575 4776 4777 4576 
4 4576 4777 4778 4577 
4 4577 4778 4779 4578 
4 4578 4779 4780 4579 
4 4579 4780 4781 4580 
4 4580 4781 4782 4581 
4 4581 4782 4783 4582 
4 4582 4783 4784 4583 
4 4583 4784 4785 4584 
4 4584 4785 4786 4585 
4 4585 4786 4787 4586 
4 4586 4787 4788 4587 
4 4587 4788 4789 4588 
4 4588 4789 4790 4589 
4 4589 4790 4791 4590 
4 4590 4791 4792 4591 
4 4591 4792 4793 4592 
4 4592 4793 4794 4593 
4 4593 4794 4795 4594 
4 4594 4795 4796 4595 
4 4595 4796 4797 4596 
4 4596 4797 4798 4597 
4 4597 4798 4799 4598 
4 4598 4799 4800 4599 
4 4599 4800 4801 4600 
4 4600 4801 4802 4601 
4 4601 4802 4803 4602 
4 4602 4803 4804 4603 
4 4603 4804 4805 4604 
4 4604 4805 4806 4605 
4 4605 4806 4807 4606 
4 4606 4807 4808 4607 
4 4607 4808 4809 4608 
4 4608 4809 4810 4609 
4 4609 4810 4811 4610 
4 4610 4811 4812 4611 
4 4611 4812 4813 4612 
4 4612 4813 4814 4613 
4 4613 4814 4815 4614 
4 4614 4815 4816 4615 
4 4615 4816 4817 4616 
4 4616 4817 4818 4617 
4 4617 4818 4819 4618 
4 4618 4819 4820 4619 
4 4619 4820 4821 4620 
4 4620 4821 4822 4621 
4 4621 4822 4823 4622 
4 4623 4824 4825 4624 
4 4624 4825 4826 4625 
4 4625 4826 4827 4626 
4 4626 4827 4828 4627 
4 4627 4828 4829 4628 
4 4628 4829 4830 4629 
4 4629 4830 4831 4630 
4 4630 4831 4832 4631 
4 4631 4832 4833 4632 
4 4632 4833 4834 4633 
4 4633 4834 4835 4634 
4 4634 4835 4836 4635 
4 4635 4836 4837 4636 
4 4636 4837 4838 4637 
4 4637 4838 4839 4638 
4 4638 4839 4840 4639 
4 4639 4840 4841 4640 
4 4640 4841 4842 4641 
4 4641 4842 4843 4642 
4 4642 4843 4844 4643 
4 4643 4844 4845 4644 
4 4644 4845 4846 4645 
4 4645 4846 4847 4646 
4 4646 4847 4848 4647 
4 4647 4848 4849 4648 
4 4648 4849 4850 4649 
4 4649 4850 4851 4650 
4 4650 4851 4852 4651 
4 4651 4852 4853 4652 
4 4652 4853 4854 4653 
4 4653 4854 4855 4654 
4 4654 4855 4856 4655 
4 4655 4856 4857 4656 
4 4656 4857 4858 4657 
4 4657 4858 4859 4658 
4 4658 4859 4860 4659 
4 4659 4860 4861 4660 
4 4660 4861 4862 4661 
4 4661 4862 4863 4662 
4 4662 4863 4864 4663 
4 4663 4864 4865 4664 
4 4664 4865 4866 4665 
4 4665 4866 4867 4666 
4 4666 4867 4868 4667 
4 4667 4868 4869 4668 
4 4668 4869 4870 4669 
4 4669 4870 4871 4670 
4 4670 4871 4872 4671 
4 4671 4872 4873 4672 
4 4672 4873 4874 4673 
4 4673 4874 4875 4674 
4 4674 4875 4876 4675 
4 4675 4876 4877 4676 
4 4676 4877 4878 4677 
4 4677 4878 4879 4678 
4 4678 4879 4880 4679 
4 4679 4880 4881 4680 
4 4680 4881 4882 4681 
4 4681 4882 4883 4682 
4 4682 4883 4884 4683 
4 4683 4884 4885 4684 
4 4684 4885 4886 4685 
4 4685 4886 4887 4686 
4 4686 4887 4888 4687 
4 4687 4888 4889 4688 
4 4688 4889 4890 4689 
4 4689 4890 4891 4690 
4 4690 4891 4892 4691 
4 4691 4892 4893 4692 
4 4692 4893 4894 4693 
4 4693 4894 4895 4694 
4 4694 4895 4896 4695 
4 4695 4896 4897 4696 
4 4696 4897 4898 4697 
4 4697 4898 4899 4698 
4 4698 4899 4900 4699 
4 4699 4900 4901 4700 
4 4700 4901 4902 4701 
4 4701 4902 4903 4702 
4 4702 4903 4904 4703 
4 4703 4904 4905 4704 
4 4704 4905 4906 4705 
4 4705 4906 4907 4706 
4 4706 4907 4908 4707 
4 4707 4908 4909 4708 
4 4708 4909 4910 4709 
4 4709 4910 4911 4710 
4 4710 4911 4912 4711 
4 4711 4912 4913 4712 
4 4712 4913 4914 4713 
4 4713 4914 4915 4714 
4 4714 4915 4916 4715 
4 4715 4916 4917 4716 
4 4716 4917 4918 4717 
4 4717 4918 4919 4718 
4 4718 4919 4920 4719 
4 4719 4920 4921 4720 
4 4720 4921 4922 4721 
4 4721 4922 4923 4722 
4 4722 4923 4924 4723 
4 4723 4924 4925 4724 
4 4724 4925 4926 4725 
4 4725 4926 4927 4726 
4 4726 4927 4928 4727 
4 4727 4928 4929 4728 
4 4728 4929 4930 4729 
4 4729 4930 4931 4730 
4 4730 4931 4932 4731 
4 4731 4932 4933 4732 
4 4732 4933 4934 4733 
4 4733 4934 4935 4734 
4 4734 4935 4936 4735 
4 4735 4936 4937 4736 
4 4736 4937 4938 4737 
4 4737 4938 4939 4738 
4 4738 4939 4940 4739 
4 4739 4940 4941 4740 
4 4740 4941 4942 4741 
4 4741 4942 4943 4742 
4 4742 4943 4944 4743 
4 4743 4944 4945 4744 
4 4744 4945 4946 4745 
4 4745 4946 4947 4746 
4 4746 4947 4948 4747 
4 4747 4948 4949 4748 
4 4748 4949 4950 4749 
4 4749 4950 4951 4750 
4 4750 4951 4952 4751 
4 4751 4952 4953 4752 
4 4752 4953 4954 4753 
4 4753 4954 4955 4754 
4 4754 4955 4956 4755 
4 4755 4956 4957 4756 
4 4756 4957 4958 4757 
4 4757 4958 4959 4758 
4 4758 4959 4960 4759 
4 4759 4960 4961 4760 
4 4760 4961 4962 4761 
4 4761 4962 4963 4762 
4 4762 4963 4964 4763 
4 4763 4964 4965 4764 
4 4764 4965 4966 4765 
4 4765 4966 4967 4766 
4 4766 4967 4968 4767 
4 4767 4968 4969 4768 
4 4768 4969 4970 4769 
4 4769 4970 4971 4770 
4 4770 4971 4972 4771 
4 4771 4972 4973 4772 
4 4772 4973 4974 4773 
4 4773 4974 4975 4774 
4 4774 4975 4976 4775 
4 4775 4976 4977 4776 
4 4776 4977 4978 4777 
4 4777 4978 4979 4778 
4 4778 4979 4980 4779 
4 4779 4980 4981 4780 
4 4780 4981 4982 4781 
4 4781 4982 4983 4782 
4 4782 4983 4984 4783 
4 4783 4984 4985 4784 
4 4784 4985 4986 4785 
4 4785 4986 4987 4786 
4 4786 4987 4988 4787 
4 4787 4988 4989 4788 
4 4788 4989 4990 4789 
4 4789 4990 4991 4790 
4 4790 4991 4992 4791 
4 4791 4992 4993 4792 
4 4792 4993 4994 4793 
4 4793 4994 4995 4794 
4 4794 4995 4996 4795 
4 4795 4996 4997 4796 
4 4796 4997 4998 4797 
4 4797 4998 4999 4798 
4 4798 4999 5000 4799 
4 4799 5000 5001 4800 
4 4800 5001 5002 4801 
4 4801 5002 5003 4802 
4 4802 5003 5004 4803 
4 4803 5004 5005 4804 
4 4804 5005 5006 4805 
4 4805 5006 5007 4806 
4 4806 5007 5008 4807 
4 4807 5008 5009 4808 
4 4808 5009 5010 4809 
4 4809 5010 5011 4810 
4 4810 5011 5012 4811 
4 4811 5012 5013 4812 
4 4812 5013 5014 4813 
4 4813 5014 5015 4814 
4 4814 5015 5016 4815 
4 4815 5016 5017 4816 
4 4816 5017 5018 4817 
4 4817 5018 5019 4818 
4 4818 5019 5020 4819 
4 4819 5020 5021 4820 
4 4820 5021 5022 4821 
4 4821 5022 5023 4822 
4 4822 5023 5024 4823 
4 4824 5025 5026 4825 
4 4825 5026 5027 4826 
4 4826 5027 5028 4827 
4 4827 5028 5029 4828 
4 4828 5029 5030 4829 
4 4829 5030 5031 4830 
4 4830 5031 5032 4831 
4 4831 5032 5033 4832 
4 4832 5033 5034 4833 
4 4833 5034 5035 4834 
4 4834 5035 5036 4835 
4 4835 5036 5037 4836 
4 4836 5037 5038 4837 
4 4837 5038 5039 4838 
4 4838 5039 5040 4839 
4 4839 5040 5041 4840 
4 4840 5041 5042 4841 
4 4841 5042 5043 4842 
4 4842 5043 5044 4843 
4 4843 5044 5045 4844 
4 4844 5045 5046 4845 
4 4845 5046 5047 4846 
4 4846 5047 5048 4847 
4 4847 5048 5049 4848 
4 4848 5049 5050 4849 
4 4849 5050 5051 4850 
4 4850 5051 5052 4851 
4 4851 5052 5053 4852 
4 4852 5053 5054 4853 
4 4853 5054 5055 4854 
4 4854 5055 5056 4855 
4 4855 5056 5057 4856 
4 4856 5057 5058 4857 
4 4857 5058 5059 4858 
4 4858 5059 5060 4859 
4 4859 5060 5061 4860 
4 4860 5061 5062 4861 
4 4861 5062 5063 4862 
4 4862 5063 5064 4863 
4 4863 5064 5065 4864 
4 4864 5065 5066 4865 
4 4865 5066 5067 4866 
4 4866 5067 5068 4867 
4 4867 5068 5069 4868 
4 4868 5069 5070 4869 
4 4869 5070 5071 4870 
4 4870 5071 5072 4871 
4 4871 5072 5073 4872 
4 4872 5073 5074 4873 
4 4873 5074 5075 4874 
4 4874 5075 5076 4875 
4 4875 5076 5077 4876 
4 4876 5077 5078 4877 
4 4877 5078 5079 4878 
4 4878 5079 5080 4879 
4 4879 5080 5081 4880 
4 4880 5081 5082 4881 
4 4881 5082 5083 4882 
4 4882 5083 5084 4883 
4 4883 5084 5085 4884 
4 4884 5085 5086 4885 
4 4885 5086 5087 4886 
4 4886 5087 5088 4887 
4 4887 5088 5089 4888 
4 4888 5089 5090 4889 
4 4889 5090 5091 4890 
4 4890 5091 5092 4891 
4 4891 5092 5093 4892 
4 4892 5093 5094 4893 
4 4893 5094 5095 4894 
4 4894 5095 5096 4895 
4 4895 5096 5097 4896 
4 4896 5097 5098 4897 
4 4897 5098 5099 4898 
4 4898 5099 5100 4899 
4 4899 5100 5101 4900 
4 4900 5101 5102 4901 
4 4901 5102 5103 4902 
4 4902 5103 5104 4903 
4 4903 5104 5105 4904 
4 4904 5105 5106 4905 
4 4905 5106 5107 4906 
4 4906 5107 5108 4907 
4 4907 5108 5109 4908 
4 4908 5109 5110 4909 
4 4909 5110 5111 4910 
4 4910 5111 5112 4911 
4 4911 5112 5113 4912 
4 4912 5113 5114 4913 
4 4913 5114 5115 4914 
4 4914 5115 5116 4915 
4 4915 5116 5117 4916 
4 4916 5117 5118 4917 
4 4917 5118 5119 4918 
4 4918 5119 5120 4919 
4 4919 5120 5121 4920 
4 4920 5121 5122 4921 
4 4921 5122 5123 4922 
4 4922 5123 5124 4923 
4 4923 5124 5125 4924 
4 4924 5125 5126 4925 
4 4925 5126 5127 4926 
4 4926 5127 5128 4927 
4 4927 5128 5129 4928 
4 4928 5129 5130 4929 
4 4929 5130 5131 4930 
4 4930 5131 5132 4931 
4 4931 5132 5133 4932 
4 4932 5133 5134 4933 
4 4933 5134 5135 4934 
4 4934 5135 5136 4935 
4 4935 5136 5137 4936 
4 4936 5137 5138 4937 
4 4937 5138 5139 4938 
4 4938 5139 5140 4939 
4 4939 5140 5141 4940 
4 4940 5141 5142 4941 
4 4941 5142 5143 4942 
4 4942 5143 5144 4943 
4 4943 5144 5145 4944 
4 4944 5145 5146 4945 
4 4945 5146 5147 4946 
4 4946 5147 5148 4947 
4 4947 5148 5149 4948 
4 4948 5149 5150 4949 
4 4949 5150 5151 4950 
4 4950 5151 5152 4951 
4 4951 5152 5153 4952 
4 4952 5153 5154 4953 
4 4953 5154 5155 4954 
4 4954 5155 5156 4955 
4 4955 5156 5157 4956 
4 4956 5157 5158 4957 
4 4957 5158 5159 4958 
4 4958 5159 5160 4959 
4 4959 5160 5161 4960 
4 4960 5161 5162 4961 
4 4961 5162 5163 4962 
4 4962 5163 5164 4963 
4 4963 5164 5165 4964 
4 4964 5165 5166 4965 
4 4965 5166 5167 4966 
4 4966 5167 5168 4967 
4 4967 5168 5169 4968 
4 4968 5169 5170 4969 
4 4969 5170 5171 4970 
4 4970 5171 5172 4971 
4 4971 5172 5173 4972 
4 4972 5173 5174 4973 
4 4973 5174 5175 4974 
4 4974 5175 5176 4975 
4 4975 5176 5177 4976 
4 4976 5177 5178 4977 
4 4977 5178 5179 4978 
4 4978 5179 5180 4979 
4 4979 5180 5181 4980 
4 4980 5181 5182 4981 
4 4981 5182 5183 4982 
4 4982 5183 5184 4983 
4 4983 5184 5185 4984 
4 4984 5185 5186 4985 
4 4985 5186 5187 4986 
4 4986 5187 5188 4987 
4 4987 5188 5189 4988 
4 4988 5189 5190 4989 
4 4989 5190 5191 4990 
4 4990 5191 5192 4991 
4 4991 5192 5193 4992 
4 4992 5193 5194 4993 
4 4993 5194 5195 4994 
4 4994 5195 5196 4995 
4 4995 5196 5197 4996 
4 4996 5197 5198 4997 
4 4997 5198 5199 4998 
4 4998 5199 5200 4999 
4 4999 5200 5201 5000 
4 5000 5201 5202 5001 
4 5001 5202 5203 5002 
4 5002 5203 5204 5003 
4 5003 5204 5205 5004 
4 5004 5205 5206 5005 
4 5005 5206 5207 5006 
4 5006 5207 5208 5007 
4 5007 5208 5209 5008 
4 5008 5209 5210 5009 
4 5009 5210 5211 5010 
4 5010 5211 5212 5011 
4 5011 5212 5213 5012 
4 5012 5213 5214 5013 
4 5013 5214 5215 5014 
4 5014 5215 5216 5015 
4 5015 5216 5217 5016 
4 5016 5217 5218 5017 
4 5017 5218 5219 5018 
4 5018 5219 5220 5019 
4 5019 5220 5221 5020 
4 5020 5221 5222 5021 
4 5021 5222 5223 5022 
4 5022 5223 5224 5023 
4 5023 5224 5225 5024 
4 5025 5226 5227 5026 
4 5026 5227 5228 5027 
4 5027 5228 5229 5028 
4 5028 5229 5230 5029 
4 5029 5230 5231 5030 
4 5030 5231 5232 5031 
4 5031 5232 5233 5032 
4 5032 5233 5234 5033 
4 5033 5234 5235 5034 
4 5034 5235 5236 5035 
4 5035 5236 5237 5036 
4 5036 5237 5238 5037 
4 5037 5238 5239 5038 
4 5038 5239 5240 5039 
4 5039 5240 5241 5040 
4 5040 5241 5242 5041 
4 5041 5242 5243 5042 
4 5042 5243 5244 5043 
4 5043 5244 5245 5044 
4 5044 5245 5246 5045 
4 5045 5246 5247 5046 
4 5046 5247 5248 5047 
4 5047 5248 5249 5048 
4 5048 5249 5250 5049 
4 5049 5250 5251 5050 
4 5050 5251 5252 5051 
4 5051 5252 5253 5052 
4 5052 5253 5254 5053 
4 5053 5254 5255 5054 
4 5054 5255 5256 5055 
4 5055 5256 5257 5056 
4 5056 5257 5258 5057 
4 5057 5258 5259 5058 
4 5058 5259 5260 5059 
4 5059 5260 5261 5060 
4 5060 5261 5262 5061 
4 5061 5262 5263 5062 
4 5062 5263 5264 5063 
4 5063 5264 5265 5064 
4 5064 5265 5266 5065 
4 5065 5266 5267 5066 
4 5066 5267 5268 5067 
4 5067 5268 5269 5068 
4 5068 5269 5270 5069 
4 5069 5270 5271 5070 
4 5070 5271 5272 5071 
4 5071 5272 5273 5072 
4 5072 5273 5274 5073 
4 5073 5274 5275 5074 
4 5074 5275 5276 5075 
4 5075 5276 5277 5076 
4 5076 5277 5278 5077 
4 5077 5278 5279 5078 
4 5078 5279 5280 5079 
4 5079 5280 5281 5080 
4 5080 5281 5282 5081 
4 5081 5282 5283 5082 
4 5082 5283 5284 5083 
4 5083 5284 5285 5084 
4 5084 5285 5286 5085 
4 5085 5286 5287 5086 
4 5086 5287 5288 5087 
4 5087 5288 5289 5088 
4 5088 5289 5290 5089 
4 5089 5290 5291 5090 
4 5090 5291 5292 5091 
4 5091 5292 5293 5092 
4 5092 5293 5294 5093 
4 5093 5294 5295 5094 
4 5094 5295 5296 5095 
4 5095 5296 5297 5096 
4 5096 5297 5298 5097 
4 5097 5298 5299 5098 
4 5098 5299 5300 5099 
4 5099 5300 5301 5100 
4 5100 5301 5302 5101 
4 5101 5302 5303 5102 
4 5102 5303 5304 5103 
4 5103 5304 5305 5104 
4 5104 5305 5306 5105 
4 5105 5306 5307 5106 
4 5106 5307 5308 5107 
4 5107 5308 5309 5108 
4 5108 5309 5310 5109 
4 5109 5310 5311 5110 
4 5110 5311 5312 5111 
4 5111 5312 5313 5112 
4 5112 5313 5314 5113 
4 5113 5314 5315 5114 
4 5114 5315 5316 5115 
4 5115 5316 5317 5116 
4 5116 5317 5318 5117 
4 5117 5318 5319 5118 
4 5118 5319 5320 5119 
4 5119 5320 5321 5120 
4 5120 5321 5322 5121 
4 5121 5322 5323 5122 
4 5122 5323 5324 5123 
4 5123 5324 5325 5124 
4 5124 5325 5326 5125 
4 5125 5326 5327 5126 
4 5126 5327 5328 5127 
4 5127 5328 5329 5128 
4 5128 5329 5330 5129 
4 5129 5330 5331 5130 
4 5130 5331 5332 5131 
4 5131 5332 5333 5132 
4 5132 5333 5334 5133 
4 5133 5334 5335 5134 
4 5134 5335 5336 5135 
4 5135 5336 5337 5136 
4 5136 5337 5338 5137 
4 5137 5338 5339 5138 
4 5138 5339 5340 5139 
4 5139 5340 5341 5140 
4 5140 5341 5342 5141 
4 5141 5342 5343 5142 
4 5142 5343 5344 5143 
4 5143 5344 5345 5144 
4 5144 5345 5346 5145 
4 5145 5346 5347 5146 
4 5146 5347 5348 5147 
4 5147 5348 5349 5148 
4 5148 5349 5350 5149 
4 5149 5350 5351 5150 
4 5150 5351 5352 5151 
4 5151 5352 5353 5152 
4 5152 5353 5354 5153 
4 5153 5354 5355 5154 
4 5154 5355 5356 5155 
4 5155 5356 5357 5156 
4 5156 5357 5358 5157 
4 5157 5358 5359 5158 
4 5158 5359 5360 5159 
4 5159 5360 5361 5160 
4 5160 5361 5362 5161 
4 5161 5362 5363 5162 
4 5162 5363 5364 5163 
4 5163 5364 5365 5164 
4 5164 5365 5366 5165 
4 5165 5366 5367 5166 
4 5166 5367 5368 5167 
4 5167 5368 5369 5168 
4 5168 5369 5370 5169 
4 5169 5370 5371 5170 
4 5170 5371 5372 5171 
4 5171 5372 5373 5172 
4 5172 5373 5374 5173 
4 5173 5374 5375 5174 
4 5174 5375 5376 5175 
4 5175 5376 5377 5176 
4 5176 5377 5378 5177 
4 5177 5378 5379 5178 
4 5178 5379 5380 5179 
4 5179 5380 5381 5180 
4 5180 5381 5382 5181 
4 5181 5382 5383 5182 
4 5182 5383 5384 5183 
4 5183 5384 5385 5184 
4 5184 5385 5386 5185 
4 5185 5386 5387 5186 
4 5186 5387 5388 5187 
4 5187 5388 5389 5188 
4 5188 5389 5390 5189 
4 5189 5390 5391 5190 
4 5190 5391 5392 5191 
4 5191 5392 5393 5192 
4 5192 5393 5394 5193 
4 5193 5394 5395 5194 
4 5194 5395 5396 5195 
4 5195 5396 5397 5196 
4 5196 5397 5398 5197 
4 5197 5398 5399 5198 
4 5198 5399 5400 5199 
4 5199 5400 5401 5200 
4 5200 5401 5402 5201 
4 5201 5402 5403 5202 
4 5202 5403 5404 5203 
4 5203 5404 5405 5204 
4 5204 5405 5406 5205 
4 5205 5406 5407 5206 
4 5206 5407 5408 5207 
4 5207 5408 5409 5208 
4 5208 5409 5410 5209 
4 5209 5410 5411 5210 
4 5210 5411 5412 5211 
4 5211 5412 5413 5212 
4 5212 5413 5414 5213 
4 5213 5414 5415 5214 
4 5214 5415 5416 5215 
4 5215 5416 5417 5216 
4 5216 5417 5418 5217 
4 5217 5418 5419 5218 
4 5218 5419 5420 5219 
4 5219 5420 5421 5220 
4 5220 5421 5422 5221 
4 5221 5422 5423 5222 
4 5222 5423 5424 5223 
4 5223 5424 5425 5224 
4 5224 5425 5426 5225 
4 5226 5427 5428 5227 
4 5227 5428 5429 5228 
4 5228 5429 5430 5229 
4 5229 5430 5431 5230 
4 5230 5431 5432 5231 
4 5231 5432 5433 5232 
4 5232 5433 5434 5233 
4 5233 5434 5435 5234 
4 5234 5435 5436 5235 
4 5235 5436 5437 5236 
4 5236 5437 5438 5237 
4 5237 5438 5439 5238 
4 5238 5439 5440 5239 
4 5239 5440 5441 5240 
4 5240 5441 5442 5241 
4 5241 5442 5443 5242 
4 5242 5443 5444 5243 
4 5243 5444 5445 5244 
4 5244 5445 5446 5245 
4 5245 5446 5447 5246 
4 5246 5447 5448 5247 
4 5247 5448 5449 5248 
4 5248 5449 5450 5249 
4 5249 5450 5451 5250 
4 5250 5451 5452 5251 
4 5251 5452 5453 5252 
4 5252 5453 5454 5253 
4 5253 5454 5455 5254 
4 5254 5455 5456 5255 
4 5255 5456 5457 5256 
4 5256 5457 5458 5257 
4 5257 5458 5459 5258 
4 5258 5459 5460 5259 
4 5259 5460 5461 5260 
4 5260 5461 5462 5261 
4 5261 5462 5463 5262 
4 5262 5463 5464 5263 
4 5263 5464 5465 5264 
4 5264 5465 5466 5265 
4 5265 5466 5467 5266 
4 5266 5467 5468 5267 
4 5267 5468 5469 5268 
4 5268 5469 5470 5269 
4 5269 5470 5471 5270 
4 5270 5471 5472 5271 
4 5271 5472 5473 5272 
4 5272 5473 5474 5273 
4 5273 5474 5475 5274 
4 5274 5475 5476 5275 
4 5275 5476 5477 5276 
4 5276 5477 5478 5277 
4 5277 5478 5479 5278 
4 5278 5479 5480 5279 
4 5279 5480 5481 5280 
4 5280 5481 5482 5281 
4 5281 5482 5483 5282 
4 5282 5483 5484 5283 
4 5283 5484 5485 5284 
4 5284 5485 5486 5285 
4 5285 5486 5487 5286 
4 5286 5487 5488 5287 
4 5287 5488 5489 5288 
4 5288 5489 5490 5289 
4 5289 5490 5491 5290 
4 5290 5491 5492 5291 
4 5291 5492 5493 5292 
4 5292 5493 5494 5293 
4 5293 5494 5495 5294 
4 5294 5495 5496 5295 
4 5295 5496 5497 5296 
4 5296 5497 5498 5297 
4 5297 5498 5499 5298 
4 5298 5499 5500 5299 
4 5299 5500 5501 5300 
4 5300 5501 5502 5301 
4 5301 5502 5503 5302 
4 5302 5503 5504 5303 
4 5303 5504 5505 5304 
4 5304 5505 5506 5305 
4 5305 5506 5507 5306 
4 5306 5507 5508 5307 
4 5307 5508 5509 5308 
4 5308 5509 5510 5309 
4 5309 5510 5511 5310 
4 5310 5511 5512 5311 
4 5311 5512 5513 5312 
4 5312 5513 5514 5313 
4 5313 5514 5515 5314 
4 5314 5515 5516 5315 
4 5315 5516 5517 5316 
4 5316 5517 5518 5317 
4 5317 5518 5519 5318 
4 5318 5519 5520 5319 
4 5319 5520 5521 5320 
4 5320 5521 5522 5321 
4 5321 5522 5523 5322 
4 5322 5523 5524 5323 
4 5323 5524 5525 5324 
4 5324 5525 5526 5325 
4 5325 5526 5527 5326 
4 5326 5527 5528 5327 
4 5327 5528 5529 5328 
4 5328 5529 5530 5329 
4 5329 5530 5531 5330 
4 5330 5531 5532 5331 
4 5331 5532 5533 5332 
4 5332 5533 5534 5333 
4 5333 5534 5535 5334 
4 5334 5535 5536 5335 
4 5335 5536 5537 5336 
4 5336 5537 5538 5337 
4 5337 5538 5539 5338 
4 5338 5539 5540 5339 
4 5339 5540 5541 5340 
4 5340 5541 5542 5341 
4 5341 5542 5543 5342 
4 5342 5543 5544 5343 
4 5343 5544 5545 5344 
4 5344 5545 5546 5345 
4 5345 5546 5547 5346 
4 5346 5547 5548 5347 
4 5347 5548 5549 5348 
4 5348 5549 5550 5349 
4 5349 5550 5551 5350 
4 5350 5551 5552 5351 
4 5351 5552 5553 5352 
4 5352 5553 5554 5353 
4 5353 5554 5555 5354 
4 5354 5555 5556 5355 
4 5355 5556 5557 5356 
4 5356 5557 5558 5357 
4 5357 5558 5559 5358 
4 5358 5559 5560 5359 
4 5359 5560 5561 5360 
4 5360 5561 5562 5361 
4 5361 5562 5563 5362 
4 5362 5563 5564 5363 
4 5363 5564 5565 5364 
4 5364 5565 5566 5365 
4 5365 5566 5567 5366 
4 5366 5567 5568 5367 
4 5367 5568 5569 5368 
4 5368 5569 5570 5369 
4 5369 5570 5571 5370 
4 5370 5571 5572 5371 
4 5371 5572 5573 5372 
4 5372 5573 5574 5373 
4 5373 5574 5575 5374 
4 5374 5575 5576 5375 
4 5375 5576 5577 5376 
4 5376 5577 5578 5377 
4 5377 5578 5579 5378 
4 5378 5579 5580 5379 
4 5379 5580 5581 5380 
4 5380 5581 5582 5381 
4 5381 5582 5583 5382 
4 5382 5583 5584 5383 
4 5383 5584 5585 5384 
4 5384 5585 5586 5385 
4 5385 5586 5587 5386 
4 5386 5587 5588 5387 
4 5387 5588 5589 5388 
4 5388 5589 5590 5389 
4 5389 5590 5591 5390 
4 5390 5591 5592 5391 
4 5391 5592 5593 5392 
4 5392 5593 5594 5393 
4 5393 5594 5595 5394 
4 5394 5595 5596 5395 
4 5395 5596 5597 5396 
4 5396 5597 5598 5397 
4 5397 5598 5599 5398 
4 5398 5599 5600 5399 
4 5399 5600 5601 5400 
4 5400 5601 5602 5401 
4 5401 5602 5603 5402 
4 5402 5603 5604 5403 
4 5403 5604 5605 5404 
4 5404 5605 5606 5405 
4 5405 5606 5607 5406 
4 5406 5607 5608 5407 
4 5407 5608 5609 5408 
4 5408 5609 5610 5409 
4 5409 5610 5611 5410 
4 5410 5611 5612 5411 
4 5411 5612 5613 5412 
4 5412 5613 5614 5413 
4 5413 5614 5615 5414 
4 5414 5615 5616 5415 
4 5415 5616 5617 5416 
4 5416 5617 5618 5417 
4 5417 5618 5619 5418 
4 5418 5619 5620 5419 
4 5419 5620 5621 5420 
4 5420 5621 5622 5421 
4 5421 5622 5623 5422 
4 5422 5623 5624 5423 
4 5423 5624 5625 5424 
4 5424 5625 5626 5425 
4 5425 5626 5627 5426 
4 5427 5628 5629 5428 
4 5428 5629 5630 5429 
4 5429 5630 5631 5430 
4 5430 5631 5632 5431 
4 5431 5632 5633 5432 
4 5432 5633 5634 5433 
4 5433 5634 5635 5434 
4 5434 5635 5636 5435 
4 5435 5636 5637 5436 
4 5436 5637 5638 5437 
4 5437 5638 5639 5438 
4 5438 5639 5640 5439 
4 5439 5640 5641 5440 
4 5440 5641 5642 5441 
4 5441 5642 5643 5442 
4 5442 5643 5644 5443 
4 5443 5644 5645 5444 
4 5444 5645 5646 5445 
4 5445 5646 5647 5446 
4 5446 5647 5648 5447 
4 5447 5648 5649 5448 
4 5448 5649 5650 5449 
4 5449 5650 5651 5450 
4 5450 5651 5652 5451 
4 5451 5652 5653 5452 
4 5452 5653 5654 5453 
4 5453 5654 5655 5454 
4 5454 5655 5656 5455 
4 5455 5656 5657 5456 
4 5456 5657 5658 5457 
4 5457 5658 5659 5458 
4 5458 5659 5660 5459 
4 5459 5660 5661 5460 
4 5460 5661 5662 5461 
4 5461 5662 5663 5462 
4 5462 5663 5664 5463 
4 5463 5664 5665 5464 
4 5464 5665 5666 5465 
4 5465 5666 5667 5466 
4 5466 5667 5668 5467 
4 5467 5668 5669 5468 
4 5468 5669 5670 5469 
4 5469 5670 5671 5470 
4 5470 5671 5672 5471 
4 5471 5672 5673 5472 
4 5472 5673 5674 5473 
4 5473 5674 5675 5474 
4 5474 5675 5676 5475 
4 5475 5676 5677 5476 
4 5476 5677 5678 5477 
4 5477 5678 5679 5478 
4 5478 5679 5680 5479 
4 5479 5680 5681 5480 
4 5480 5681 5682 5481 
4 5481 5682 5683 5482 
4 5482 5683 5684 5483 
4 5483 5684 5685 5484 
4 5484 5685 5686 5485 
4 5485 5686 5687 5486 
4 5486 5687 5688 5487 
4 5487 5688 5689 5488 
4 5488 5689 5690 5489 
4 5489 5690 5691 5490 
4 5490 5691 5692 5491 
4 5491 5692 5693 5492 
4 5492 5693 5694 5493 
4 5493 5694 5695 5494 
4 5494 5695 5696 5495 
4 5495 5696 5697 5496 
4 5496 5697 5698 5497 
4 5497 5698 5699 5498 
4 5498 5699 5700 5499 
4 5499 5700 5701 5500 
4 5500 5701 5702 5501 
4 5501 5702 5703 5502 
4 5502 5703 5704 5503 
4 5503 5704 5705 5504 
4 5504 5705 5706 5505 
4 5505 5706 5707 5506 
4 5506 5707 5708 5507 
4 5507 5708 5709 5508 
4 5508 5709 5710 5509 
4 5509 5710 5711 5510 
4 5510 5711 5712 5511 
4 5511 5712 5713 5512 
4 5512 5713 5714 5513 
4 5513 5714 5715 5514 
4 5514 5715 5716 5515 
4 5515 5716 5717 5516 
4 5516 5717 5718 5517 
4 5517 5718 5719 5518 
4 5518 5719 5720 5519 
4 5519 5720 5721 5520 
4 5520 5721 5722 5521 
4 5521 5722 5723 5522 
4 5522 5723 5724 5523 
4 5523 5724 5725 5524 
4 5524 5725 5726 5525 
4 5525 5726 5727 5526 
4 5526 5727 5728 5527 
4 5527 5728 5729 5528 
4 5528 5729 5730 5529 
4 5529 5730 5731 5530 
4 5530 5731 5732 5531 
4 5531 5732 5733 5532 
4 5532 5733 5734 5533 
4 5533 5734 5735 5534 
4 5534 5735 5736 5535 
4 5535 5736 5737 5536 
4 5536 5737 5738 5537 
4 5537 5738 5739 5538 
4 5538 5739 5740 5539 
4 5539 5740 5741 5540 
4 5540 5741 5742 5541 
4 5541 5742 5743 5542 
4 5542 5743 5744 5543 
4 5543 5744 5745 5544 
4 5544 5745 5746 5545 
4 5545 5746 5747 5546 
4 5546 5747 5748 5547 
4 5547 5748 5749 5548 
4 5548 5749 5750 5549 
4 5549 5750 5751 5550 
4 5550 5751 5752 5551 
4 5551 5752 5753 5552 
4 5552 5753 5754 5553 
4 5553 5754 5755 5554 
4 5554 5755 5756 5555 
4 5555 5756 5757 5556 
4 5556 5757 5758 5557 
4 5557 5758 5759 5558 
4 5558 5759 5760 5559 
4 5559 5760 5761 5560 
4 5560 5761 5762 5561 
4 5561 5762 5763 5562 
4 5562 5763 5764 5563 
4 5563 5764 5765 5564 
4 5564 5765 5766 5565 
4 5565 5766 5767 5566 
4 5566 5767 5768 5567 
4 5567 5768 5769 5568 
4 5568 5769 5770 5569 
4 5569 5770 5771 5570 
4 5570 5771 5772 5571 
4 5571 5772 5773 5572 
4 5572 5773 5774 5573 
4 5573 5774 5775 5574 
4 5574 5775 5776 5575 
4 5575 5776 5777 5576 
4 5576 5777 5778 5577 
4 5577 5778 5779 5578 
4 5578 5779 5780 5579 
4 5579 5780 5781 5580 
4 5580 5781 5782 5581 
4 5581 5782 5783 5582 
4 5582 5783 5784 5583 
4 5583 5784 5785 5584 
4 5584 5785 5786 5585 
4 5585 5786 5787 5586 
4 5586 5787 5788 5587 
4 5587 5788 5789 5588 
4 5588 5789 5790 5589 
4 5589 5790 5791 5590 
4 5590 5791 5792 5591 
4 5591 5792 5793 5592 
4 5592 5793 5794 5593 
4 5593 5794 5795 5594 
4 5594 5795 5796 5595 
4 5595 5796 5797 5596 
4 5596 5797 5798 5597 
4 5597 5798 5799 5598 
4 5598 5799 5800 5599 
4 5599 5800 5801 5600 
4 5600 5801 5802 5601 
4 5601 5802 5803 5602 
4 5602 5803 5804 5603 
4 5603 5804 5805 5604 
4 5604 5805 5806 5605 
4 5605 5806 5807 5606 
4 5606 5807 5808 5607 
4 5607 5808 5809 5608 
4 5608 5809 5810 5609 
4 5609 5810 5811 5610 
4 5610 5811 5812 5611 
4 5611 5812 5813 5612 
4 5612 5813 5814 5613 
4 5613 5814 5815 5614 
4 5614 5815 5816 5615 
4 5615 5816 5817 5616 
4 5616 5817 5818 5617 
4 5617 5818 5819 5618 
4 5618 5819 5820 5619 
4 5619 5820 5821 5620 
4 5620 5821 5822 5621 
4 5621 5822 5823 5622 
4 5622 5823 5824 5623 
4 5623 5824 5825 5624 
4 5624 5825 5826 5625 
4 5625 5826 5827 5626 
4 5626 5827 5828 5627 
4 5628 5829 5830 5629 
4 5629 5830 5831 5630 
4 5630 5831 5832 5631 
4 5631 5832 5833 5632 
4 5632 5833 5834 5633 
4 5633 5834 5835 5634 
4 5634 5835 5836 5635 
4 5635 5836 5837 5636 
4 5636 5837 5838 5637 
4 5637 5838 5839 5638 
4 5638 5839 5840 5639 
4 5639 5840 5841 5640 
4 5640 5841 5842 5641 
4 5641 5842 5843 5642 
4 5642 5843 5844 5643 
4 5643 5844 5845 5644 
4 5644 5845 5846 5645 
4 5645 5846 5847 5646 
4 5646 5847 5848 5647 
4 5647 5848 5849 5648 
4 5648 5849 5850 5649 
4 5649 5850 5851 5650 
4 5650 5851 5852 5651 
4 5651 5852 5853 5652 
4 5652 5853 5854 5653 
4 5653 5854 5855 5654 
4 5654 5855 5856 5655 
4 5655 5856 5857 5656 
4 5656 5857 5858 5657 
4 5657 5858 5859 5658 
4 5658 5859 5860 5659 
4 5659 5860 5861 5660 
4 5660 5861 5862 5661 
4 5661 5862 5863 5662 
4 5662 5863 5864 5663 
4 5663 5864 5865 5664 
4 5664 5865 5866 5665 
4 5665 5866 5867 5666 
4 5666 5867 5868 5667 
4 5667 5868 5869 5668 
4 5668 5869 5870 5669 
4 5669 5870 5871 5670 
4 5670 5871 5872 5671 
4 5671 5872 5873 5672 
4 5672 5873 5874 5673 
4 5673 5874 5875 5674 
4 5674 5875 5876 5675 
4 5675 5876 5877 5676 
4 5676 5877 5878 5677 
4 5677 5878 5879 5678 
4 5678 5879 5880 5679 
4 5679 5880 5881 5680 
4 5680 5881 5882 5681 
4 5681 5882 5883 5682 
4 5682 5883 5884 5683 
4 5683 5884 5885 5684 
4 5684 5885 5886 5685 
4 5685 5886 5887 5686 
4 5686 5887 5888 5687 
4 5687 5888 5889 5688 
4 5688 5889 5890 5689 
4 5689 5890 5891 5690 
4 5690 5891 5892 5691 
4 5691 5892 5893 5692 
4 5692 5893 5894 5693 
4 5693 5894 5895 5694 
4 5694 5895 5896 5695 
4 5695 5896 5897 5696 
4 5696 5897 5898 5697 
4 5697 5898 5899 5698 
4 5698 5899 5900 5699 
4 5699 5900 5901 5700 
4 5700 5901 5902 5701 
4 5701 5902 5903 5702 
4 5702 5903 5904 5703 
4 5703 5904 5905 5704 
4 5704 5905 5906 5705 
4 5705 5906 5907 5706 
4 5706 5907 5908 5707 
4 5707 5908 5909 5708 
4 5708 5909 5910 5709 
4 5709 5910 5911 5710 
4 5710 5911 5912 5711 
4 5711 5912 5913 5712 
4 5712 5913 5914 5713 
4 5713 5914 5915 5714 
4 5714 5915 5916 5715 
4 5715 5916 5917 5716 
4 5716 5917 5918 5717 
4 5717 5918 5919 5718 
4 5718 5919 5920 5719 
4 5719 5920 5921 5720 
4 5720 5921 5922 5721 
4 5721 5922 5923 5722 
4 5722 5923 5924 5723 
4 5723 5924 5925 5724 
4 5724 5925 5926 5725 
4 5725 5926 5927 5726 
4 5726 5927 5928 5727 
4 5727 5928 5929 5728 
4 5728 5929 5930 5729 
4 5729 5930 5931 5730 
4 5730 5931 5932 5731 
4 5731 5932 5933 5732 
4 5732 5933 5934 5733 
4 5733 5934 5935 5734 
4 5734 5935 5936 5735 
4 5735 5936 5937 5736 
4 5736 5937 5938 5737 
4 5737 5938 5939 5738 
4 5738 5939 5940 5739 
4 5739 5940 5941 5740 
4 5740 5941 5942 5741 
4 5741 5942 5943 5742 
4 5742 5943 5944 5743 
4 5743 5944 5945 5744 
4 5744 5945 5946 5745 
4 5745 5946 5947 5746 
4 5746 5947 5948 5747 
4 5747 5948 5949 5748 
4 5748 5949 5950 5749 
4 5749 5950 5951 5750 
4 5750 5951 5952 5751 
4 5751 5952 5953 5752 
4 5752 5953 5954 5753 
4 5753 5954 5955 5754 
4 5754 5955 5956 5755 
4 5755 5956 5957 5756 
4 5756 5957 5958 5757 
4 5757 5958 5959 5758 
4 5758 5959 5960 5759 
4 5759 5960 5961 5760 
4 5760 5961 5962 5761 
4 5761 5962 5963 5762 
4 5762 5963 5964 5763 
4 5763 5964 5965 5764 
4 5764 5965 5966 5765 
4 5765 5966 5967 5766 
4 5766 5967 5968 5767 
4 5767 5968 5969 5768 
4 5768 5969 5970 5769 
4 5769 5970 5971 5770 
4 5770 5971 5972 5771 
4 5771 5972 5973 5772 
4 5772 5973 5974 5773 
4 5773 5974 5975 5774 
4 5774 5975 5976 5775 
4 5775 5976 5977 5776 
4 5776 5977 5978 5777 
4 5777 5978 5979 5778 
4 5778 5979 5980 5779 
4 5779 5980 5981 5780 
4 5780 5981 5982 5781 
4 5781 5982 5983 5782 
4 5782 5983 5984 5783 
4 5783 5984 5985 5784 
4 5784 5985 5986 5785 
4 5785 5986 5987 5786 
4 5786 5987 5988 5787 
4 5787 5988 5989 5788 
4 5788 5989 5990 5789 
4 5789 5990 5991 5790 
4 5790 5991 5992 5791 
4 5791 5992 5993 5792 
4 5792 5993 5994 5793 
4 5793 5994 5995 5794 
4 5794 5995 5996 5795 
4 5795 5996 5997 5796 
4 5796 5997 5998 5797 
4 5797 5998 5999 5798 
4 5798 5999 6000 5799 
4 5799 6000 6001 5800 
4 5800 6001 6002 5801 
4 5801 6002 6003 5802 
4 5802 6003 6004 5803 
4 5803 6004 6005 5804 
4 5804 6005 6006 5805 
4 5805 6006 6007 5806 
4 5806 6007 6008 5807 
4 5807 6008 6009 5808 
4 5808 6009 6010 5809 
4 5809 6010 6011 5810 
4 5810 6011 6012 5811 
4 5811 6012 6013 5812 
4 5812 6013 6014 5813 
4 5813 6014 6015 5814 
4 5814 6015 6016 5815 
4 5815 6016 6017 5816 
4 5816 6017 6018 5817 
4 5817 6018 6019 5818 
4 5818 6019 6020 5819 
4 5819 6020 6021 5820 
4 5820 6021 6022 5821 
4 5821 6022 6023 5822 
4 5822 6023 6024 5823 
4 5823 6024 6025 5824 
4 5824 6025 6026 5825 
4 5825 6026 6027 5826 
4 5826 6027 6028 5827 
4 5827 6028 6029 5828 
4 5829 6030 6031 5830 
4 5830 6031 6032 5831 
4 5831 6032 6033 5832 
4 5832 6033 6034 5833 
4 5833 6034 6035 5834 
4 5834 6035 6036 5835 
4 5835 6036 6037 5836 
4 5836 6037 6038 5837 
4 5837 6038 6039 5838 
4 5838 6039 6040 5839 
4 5839 6040 6041 5840 
4 5840 6041 6042 5841 
4 5841 6042 6043 5842 
4 5842 6043 6044 5843 
4 5843 6044 6045 5844 
4 5844 6045 6046 5845 
4 5845 6046 6047 5846 
4 5846 6047 6048 5847 
4 5847 6048 6049 5848 
4 5848 6049 6050 5849 
4 5849 6050 6051 5850 
4 5850 6051 6052 5851 
4 5851 6052 6053 5852 
4 5852 6053 6054 5853 
4 5853 6054 6055 5854 
4 5854 6055 6056 5855 
4 5855 6056 6057 5856 
4 5856 6057 6058 5857 
4 5857 6058 6059 5858 
4 5858 6059 6060 5859 
4 5859 6060 6061 5860 
4 5860 6061 6062 5861 
4 5861 6062 6063 5862 
4 5862 6063 6064 5863 
4 5863 6064 6065 5864 
4 5864 6065 6066 5865 
4 5865 6066 6067 5866 
4 5866 6067 6068 5867 
4 5867 6068 6069 5868 
4 5868 6069 6070 5869 
4 5869 6070 6071 5870 
4 5870 6071 6072 5871 
4 5871 6072 6073 5872 
4 5872 6073 6074 5873 
4 5873 6074 6075 5874 
4 5874 6075 6076 5875 
4 5875 6076 6077 5876 
4 5876 6077 6078 5877 
4 5877 6078 6079 5878 
4 5878 6079 6080 5879 
4 5879 6080 6081 5880 
4 5880 6081 6082 5881 
4 5881 6082 6083 5882 
4 5882 6083 6084 5883 
4 5883 6084 6085 5884 
4 5884 6085 6086 5885 
4 5885 6086 6087 5886 
4 5886 6087 6088 5887 
4 5887 6088 6089 5888 
4 5888 6089 6090 5889 
4 5889 6090 6091 5890 
4 5890 6091 6092 5891 
4 5891 6092 6093 5892 
4 5892 6093 6094 5893 
4 5893 6094 6095 5894 
4 5894 6095 6096 5895 
4 5895 6096 6097 5896 
4 5896 6097 6098 5897 
4 5897 6098 6099 5898 
4 5898 6099 6100 5899 
4 5899 6100 6101 5900 
4 5900 6101 6102 5901 
4 5901 6102 6103 5902 
4 5902 6103 6104 5903 
4 5903 6104 6105 5904 
4 5904 6105 6106 5905 
4 5905 6106 6107 5906 
4 5906 6107 6108 5907 
4 5907 6108 6109 5908 
4 5908 6109 6110 5909 
4 5909 6110 6111 5910 
4 5910 6111 6112 5911 
4 5911 6112 6113 5912 
4 5912 6113 6114 5913 
4 5913 6114 6115 5914 
4 5914 6115 6116 5915 
4 5915 6116 6117 5916 
4 5916 6117 6118 5917 
4 5917 6118 6119 5918 
4 5918 6119 6120 5919 
4 5919 6120 6121 5920 
4 5920 6121 6122 5921 
4 5921 6122 6123 5922 
4 5922 6123 6124 5923 
4 5923 6124 6125 5924 
4 5924 6125 6126 5925 
4 5925 6126 6127 5926 
4 5926 6127 6128 5927 
4 5927 6128 6129 5928 
4 5928 6129 6130 5929 
4 5929 6130 6131 5930 
4 5930 6131 6132 5931 
4 5931 6132 6133 5932 
4 5932 6133 6134 5933 
4 5933 6134 6135 5934 
4 5934 6135 6136 5935 
4 5935 6136 6137 5936 
4 5936 6137 6138 5937 
4 5937 6138 6139 5938 
4 5938 6139 6140 5939 
4 5939 6140 6141 5940 
4 5940 6141 6142 5941 
4 5941 6142 6143 5942 
4 5942 6143 6144 5943 
4 5943 6144 6145 5944 
4 5944 6145 6146 5945 
4 5945 6146 6147 5946 
4 5946 6147 6148 5947 
4 5947 6148 6149 5948 
4 5948 6149 6150 5949 
4 5949 6150 6151 5950 
4 5950 6151 6152 5951 
4 5951 6152 6153 5952 
4 5952 6153 6154 5953 
4 5953 6154 6155 5954 
4 5954 6155 6156 5955 
4 5955 6156 6157 5956 
4 5956 6157 6158 5957 
4 5957 6158 6159 5958 
4 5958 6159 6160 5959 
4 5959 6160 6161 5960 
4 5960 6161 6162 5961 
4 5961 6162 6163 5962 
4 5962 6163 6164 5963 
4 5963 6164 6165 5964 
4 5964 6165 6166 5965 
4 5965 6166 6167 5966 
4 5966 6167 6168 5967 
4 5967 6168 6169 5968 
4 5968 6169 6170 5969 
4 5969 6170 6171 5970 
4 5970 6171 6172 5971 
4 5971 6172 6173 5972 
4 5972 6173 6174 5973 
4 5973 6174 6175 5974 
4 5974 6175 6176 5975 
4 5975 6176 6177 5976 
4 5976 6177 6178 5977 
4 5977 6178 6179 5978 
4 5978 6179 6180 5979 
4 5979 6180 6181 5980 
4 5980 6181 6182 5981 
4 5981 6182 6183 5982 
4 5982 6183 6184 5983 
4 5983 6184 6185 5984 
4 5984 6185 6186 5985 
4 5985 6186 6187 5986 
4 5986 6187 6188 5987 
4 5987 6188 6189 5988 
4 5988 6189 6190 5989 
4 5989 6190 6191 5990 
4 5990 6191 6192 5991 
4 5991 6192 6193 5992 
4 5992 6193 6194 5993 
4 5993 6194 6195 5994 
4 5994 6195 6196 5995 
4 5995 6196 6197 5996 
4 5996 6197 6198 5997 
4 5997 6198 6199 5998 
4 5998 6199 6200 5999 
4 5999 6200 6201 6000 
4 6000 6201 6202 6001 
4 6001 6202 6203 6002 
4 6002 6203 6204 6003 
4 6003 6204 6205 6004 
4 6004 6205 6206 6005 
4 6005 6206 6207 6006 
4 6006 6207 6208 6007 
4 6007 6208 6209 6008 
4 6008 6209 6210 6009 
4 6009 6210 6211 6010 
4 6010 6211 6212 6011 
4 6011 6212 6213 6012 
4 6012 6213 6214 6013 
4 6013 6214 6215 6014 
4 6014 6215 6216 6015 
4 6015 6216 6217 6016 
4 6016 6217 6218 6017 
4 6017 6218 6219 6018 
4 6018 6219 6220 6019 
4 6019 6220 6221 6020 
4 6020 6221 6222 6021 
4 6021 6222 6223 6022 
4 6022 6223 6224 6023 
4 6023 6224 6225 6024 
4 6024 6225 6226 6025 
4 6025 6226 6227 6026 
4 6026 6227 6228 6027 
4 6027 6228 6229 6028 
4 6028 6229 6230 6029 
4 6030 6231 6232 6031 
4 6031 6232 6233 6032 
4 6032 6233 6234 6033 
4 6033 6234 6235 6034 
4 6034 6235 6236 6035 
4 6035 6236 6237 6036 
4 6036 6237 6238 6037 
4 6037 6238 6239 6038 
4 6038 6239 6240 6039 
4 6039 6240 6241 6040 
4 6040 6241 6242 6041 
4 6041 6242 6243 6042 
4 6042 6243 6244 6043 
4 6043 6244 6245 6044 
4 6044 6245 6246 6045 
4 6045 6246 6247 6046 
4 6046 6247 6248 6047 
4 6047 6248 6249 6048 
4 6048 6249 6250 6049 
4 6049 6250 6251 6050 
4 6050 6251 6252 6051 
4 6051 6252 6253 6052 
4 6052 6253 6254 6053 
4 6053 6254 6255 6054 
4 6054 6255 6256 6055 
4 6055 6256 6257 6056 
4 6056 6257 6258 6057 
4 6057 6258 6259 6058 
4 6058 6259 6260 6059 
4 6059 6260 6261 6060 
4 6060 6261 6262 6061 
4 6061 6262 6263 6062 
4 6062 6263 6264 6063 
4 6063 6264 6265 6064 
4 6064 6265 6266 6065 
4 6065 6266 6267 6066 
4 6066 6267 6268 6067 
4 6067 6268 6269 6068 
4 6068 6269 6270 6069 
4 6069 6270 6271 6070 
4 6070 6271 6272 6071 
4 6071 6272 6273 6072 
4 6072 6273 6274 6073 
4 6073 6274 6275 6074 
4 6074 6275 6276 6075 
4 6075 6276 6277 6076 
4 6076 6277 6278 6077 
4 6077 6278 6279 6078 
4 6078 6279 6280 6079 
4 6079 6280 6281 6080 
4 6080 6281 6282 6081 
4 6081 6282 6283 6082 
4 6082 6283 6284 6083 
4 6083 6284 6285 6084 
4 6084 6285 6286 6085 
4 6085 6286 6287 6086 
4 6086 6287 6288 6087 
4 6087 6288 6289 6088 
4 6088 6289 6290 6089 
4 6089 6290 6291 6090 
4 6090 6291 6292 6091 
4 6091 6292 6293 6092 
4 6092 6293 6294 6093 
4 6093 6294 6295 6094 
4 6094 6295 6296 6095 
4 6095 6296 6297 6096 
4 6096 6297 6298 6097 
4 6097 6298 6299 6098 
4 6098 6299 6300 6099 
4 6099 6300 6301 6100 
4 6100 6301 6302 6101 
4 6101 6302 6303 6102 
4 6102 6303 6304 6103 
4 6103 6304 6305 6104 
4 6104 6305 6306 6105 
4 6105 6306 6307 6106 
4 6106 6307 6308 6107 
4 6107 6308 6309 6108 
4 6108 6309 6310 6109 
4 6109 6310 6311 6110 
4 6110 6311 6312 6111 
4 6111 6312 6313 6112 
4 6112 6313 6314 6113 
4 6113 6314 6315 6114 
4 6114 6315 6316 6115 
4 6115 6316 6317 6116 
4 6116 6317 6318 6117 
4 6117 6318 6319 6118 
4 6118 6319 6320 6119 
4 6119 6320 6321 6120 
4 6120 6321 6322 6121 
4 6121 6322 6323 6122 
4 6122 6323 6324 6123 
4 6123 6324 6325 6124 
4 6124 6325 6326 6125 
4 6125 6326 6327 6126 
4 6126 6327 6328 6127 
4 6127 6328 6329 6128 
4 6128 6329 6330 6129 
4 6129 6330 6331 6130 
4 6130 6331 6332 6131 
4 6131 6332 6333 6132 
4 6132 6333 6334 6133 
4 6133 6334 6335 6134 
4 6134 6335 6336 6135 
4 6135 6336 6337 6136 
4 6136 6337 6338 6137 
4 6137 6338 6339 6138 
4 6138 6339 6340 6139 
4 6139 6340 6341 6140 
4 6140 6341 6342 6141 
4 6141 6342 6343 6142 
4 6142 6343 6344 6143 
4 6143 6344 6345 6144 
4 6144 6345 6346 6145 
4 6145 6346 6347 6146 
4 6146 6347 6348 6147 
4 6147 6348 6349 6148 
4 6148 6349 6350 6149 
4 6149 6350 6351 6150 
4 6150 6351 6352 6151 
4 6151 6352 6353 6152 
4 6152 6353 6354 6153 
4 6153 6354 6355 6154 
4 6154 6355 6356 6155 
4 6155 6356 6357 6156 
4 6156 6357 6358 6157 
4 6157 6358 6359 6158 
4 6158 6359 6360 6159 
4 6159 6360 6361 6160 
4 6160 6361 6362 6161 
4 6161 6362 6363 6162 
4 6162 6363 6364 6163 
4 6163 6364 6365 6164 
4 6164 6365 6366 6165 
4 6165 6366 6367 6166 
4 6166 6367 6368 6167 
4 6167 6368 6369 6168 
4 6168 6369 6370 6169 
4 6169 6370 6371 6170 
4 6170 6371 6372 6171 
4 6171 6372 6373 6172 
4 6172 6373 6374 6173 
4 6173 6374 6375 6174 
4 6174 6375 6376 6175 
4 6175 6376 6377 6176 
4 6176 6377 6378 6177 
4 6177 6378 6379 6178 
4 6178 6379 6380 6179 
4 6179 6380 6381 6180 
4 6180 6381 6382 6181 
4 6181 6382 6383 6182 
4 6182 6383 6384 6183 
4 6183 6384 6385 6184 
4 6184 6385 6386 6185 
4 6185 6386 6387 6186 
4 6186 6387 6388 6187 
4 6187 6388 6389 6188 
4 6188 6389 6390 6189 
4 6189 6390 6391 6190 
4 6190 6391 6392 6191 
4 6191 6392 6393 6192 
4 6192 6393 6394 6193 
4 6193 6394 6395 6194 
4 6194 6395 6396 6195 
4 6195 6396 6397 6196 
4 6196 6397 6398 6197 
4 6197 6398 6399 6198 
4 6198 6399 6400 6199 
4 6199 6400 6401 6200 
4 6200 6401 6402 6201 
4 6201 6402 6403 6202 
4 6202 6403 6404 6203 
4 6203 6404 6405 6204 
4 6204 6405 6406 6205 
4 6205 6406 6407 6206 
4 6206 6407 6408 6207 
4 6207 6408 6409 6208 
4 6208 6409 6410 6209 
4 6209 6410 6411 6210 
4 6210 6411 6412 6211 
4 6211 6412 6413 6212 
4 6212 6413 6414 6213 
4 6213 6414 6415 6214 
4 6214 6415 6416 6215 
4 6215 6416 6417 6216 
4 6216 6417 6418 6217 
4 6217 6418 6419 6218 
4 6218 6419 6420 6219 
4 6219 6420 6421 6220 
4 6220 6421 6422 6221 
4 6221 6422 6423 6222 
4 6222 6423 6424 6223 
4 6223 6424 6425 6224 
4 6224 6425 6426 6225 
4 6225 6426 6427 6226 
4 6226 6427 6428 6227 
4 6227 6428 6429 6228 
4 6228 6429 6430 6229 
4 6229 6430 6431 6230 
4 6231 6432 6433 6232 
4 6232 6433 6434 6233 
4 6233 6434 6435 6234 
4 6234 6435 6436 6235 
4 6235 6436 6437 6236 
4 6236 6437 6438 6237 
4 6237 6438 6439 6238 
4 6238 6439 6440 6239 
4 6239 6440 6441 6240 
4 6240 6441 6442 6241 
4 6241 6442 6443 6242 
4 6242 6443 6444 6243 
4 6243 6444 6445 6244 
4 6244 6445 6446 6245 
4 6245 6446 6447 6246 
4 6246 6447 6448 6247 
4 6247 6448 6449 6248 
4 6248 6449 6450 6249 
4 6249 6450 6451 6250 
4 6250 6451 6452 6251 
4 6251 6452 6453 6252 
4 6252 6453 6454 6253 
4 6253 6454 6455 6254 
4 6254 6455 6456 6255 
4 6255 6456 6457 6256 
4 6256 6457 6458 6257 
4 6257 6458 6459 6258 
4 6258 6459 6460 6259 
4 6259 6460 6461 6260 
4 6260 6461 6462 6261 
4 6261 6462 6463 6262 
4 6262 6463 6464 6263 
4 6263 6464 6465 6264 
4 6264 6465 6466 6265 
4 6265 6466 6467 6266 
4 6266 6467 6468 6267 
4 6267 6468 6469 6268 
4 6268 6469 6470 6269 
4 6269 6470 6471 6270 
4 6270 6471 6472 6271 
4 6271 6472 6473 6272 
4 6272 6473 6474 6273 
4 6273 6474 6475 6274 
4 6274 6475 6476 6275 
4 6275 6476 6477 6276 
4 6276 6477 6478 6277 
4 6277 6478 6479 6278 
4 6278 6479 6480 6279 
4 6279 6480 6481 6280 
4 6280 6481 6482 6281 
4 6281 6482 6483 6282 
4 6282 6483 6484 6283 
4 6283 6484 6485 6284 
4 6284 6485 6486 6285 
4 6285 6486 6487 6286 
4 6286 6487 6488 6287 
4 6287 6488 6489 6288 
4 6288 6489 6490 6289 
4 6289 6490 6491 6290 
4 6290 6491 6492 6291 
4 6291 6492 6493 6292 
4 6292 6493 6494 6293 
4 6293 6494 6495 6294 
4 6294 6495 6496 6295 
4 6295 6496 6497 6296 
4 6296 6497 6498 6297 
4 6297 6498 6499 6298 
4 6298 6499 6500 6299 
4 6299 6500 6501 6300 
4 6300 6501 6502 6301 
4 6301 6502 6503 6302 
4 6302 6503 6504 6303 
4 6303 6504 6505 6304 
4 6304 6505 6506 6305 
4 6305 6506 6507 6306 
4 6306 6507 6508 6307 
4 6307 6508 6509 6308 
4 6308 6509 6510 6309 
4 6309 6510 6511 6310 
4 6310 6511 6512 6311 
4 6311 6512 6513 6312 
4 6312 6513 6514 6313 
4 6313 6514 6515 6314 
4 6314 6515 6516 6315 
4 6315 6516 6517 6316 
4 6316 6517 6518 6317 
4 6317 6518 6519 6318 
4 6318 6519 6520 6319 
4 6319 6520 6521 6320 
4 6320 6521 6522 6321 
4 6321 6522 6523 6322 
4 6322 6523 6524 6323 
4 6323 6524 6525 6324 
4 6324 6525 6526 6325 
4 6325 6526 6527 6326 
4 6326 6527 6528 6327 
4 6327 6528 6529 6328 
4 6328 6529 6530 6329 
4 6329 6530 6531 6330 
4 6330 6531 6532 6331 
4 6331 6532 6533 6332 
4 6332 6533 6534 6333 
4 6333 6534 6535 6334 
4 6334 6535 6536 6335 
4 6335 6536 6537 6336 
4 6336 6537 6538 6337 
4 6337 6538 6539 6338 
4 6338 6539 6540 6339 
4 6339 6540 6541 6340 
4 6340 6541 6542 6341 
4 6341 6542 6543 6342 
4 6342 6543 6544 6343 
4 6343 6544 6545 6344 
4 6344 6545 6546 6345 
4 6345 6546 6547 6346 
4 6346 6547 6548 6347 
4 6347 6548 6549 6348 
4 6348 6549 6550 6349 
4 6349 6550 6551 6350 
4 6350 6551 6552 6351 
4 6351 6552 6553 6352 
4 6352 6553 6554 6353 
4 6353 6554 6555 6354 
4 6354 6555 6556 6355 
4 6355 6556 6557 6356 
4 6356 6557 6558 6357 
4 6357 6558 6559 6358 
4 6358 6559 6560 6359 
4 6359 6560 6561 6360 
4 6360 6561 6562 6361 
4 6361 6562 6563 6362 
4 6362 6563 6564 6363 
4 6363 6564 6565 6364 
4 6364 6565 6566 6365 
4 6365 6566 6567 6366 
4 6366 6567 6568 6367 
4 6367 6568 6569 6368 
4 6368 6569 6570 6369 
4 6369 6570 6571 6370 
4 6370 6571 6572 6371 
4 6371 6572 6573 6372 
4 6372 6573 6574 6373 
4 6373 6574 6575 6374 
4 6374 6575 6576 6375 
4 6375 6576 6577 6376 
4 6376 6577 6578 6377 
4 6377 6578 6579 6378 
4 6378 6579 6580 6379 
4 6379 6580 6581 6380 
4 6380 6581 6582 6381 
4 6381 6582 6583 6382 
4 6382 6583 6584 6383 
4 6383 6584 6585 6384 
4 6384 6585 6586 6385 
4 6385 6586 6587 6386 
4 6386 6587 6588 6387 
4 6387 6588 6589 6388 
4 6388 6589 6590 6389 
4 6389 6590 6591 6390 
4 6390 6591 6592 6391 
4 6391 6592 6593 6392 
4 6392 6593 6594 6393 
4 6393 6594 6595 6394 
4 6394 6595 6596 6395 
4 6395 6596 6597 6396 
4 6396 6597 6598 6397 
4 6397 6598 6599 6398 
4 6398 6599 6600 6399 
4 6399 6600 6601 6400 
4 6400 6601 6602 6401 
4 6401 6602 6603 6402 
4 6402 6603 6604 6403 
4 6403 6604 6605 6404 
4 6404 6605 6606 6405 
4 6405 6606 6607 6406 
4 6406 6607 6608 6407 
4 6407 6608 6609 6408 
4 6408 6609 6610 6409 
4 6409 6610 6611 6410 
4 6410 6611 6612 6411 
4 6411 6612 6613 6412 
4 6412 6613 6614 6413 
4 6413 6614 6615 6414 
4 6414 6615 6616 6415 
4 6415 6616 6617 6416 
4 6416 6617 6618 6417 
4 6417 6618 6619 6418 
4 6418 6619 6620 6419 
4 6419 6620 6621 6420 
4 6420 6621 6622 6421 
4 6421 6622 6623 6422 
4 6422 6623 6624 6423 
4 6423 6624 6625 6424 
4 6424 6625 6626 6425 
4 6425 6626 6627 6426 
4 6426 6627 6628 6427 
4 6427 6628 6629 6428 
4 6428 6629 6630 6429 
4 6429 6630 6631 6430 
4 6430 6631 6632 6431 
4 6432 6633 6634 6433 
4 6433 6634 6635 6434 
4 6434 6635 6636 6435 
4 6435 6636 6637 6436 
4 6436 6637 6638 6437 
4 6437 6638 6639 6438 
4 6438 6639 6640 6439 
4 6439 6640 6641 6440 
4 6440 6641 6642 6441 
4 6441 6642 6643 6442 
4 6442 6643 6644 6443 
4 6443 6644 6645 6444 
4 6444 6645 6646 6445 
4 6445 6646 6647 6446 
4 6446 6647 6648 6447 
4 6447 6648 6649 6448 
4 6448 6649 6650 6449 
4 6449 6650 6651 6450 
4 6450 6651 6652 6451 
4 6451 6652 6653 6452 
4 6452 6653 6654 6453 
4 6453 6654 6655 6454 
4 6454 6655 6656 6455 
4 6455 6656 6657 6456 
4 6456 6657 6658 6457 
4 6457 6658 6659 6458 
4 6458 6659 6660 6459 
4 6459 6660 6661 6460 
4 6460 6661 6662 6461 
4 6461 6662 6663 6462 
4 6462 6663 6664 6463 
4 6463 6664 6665 6464 
4 6464 6665 6666 6465 
4 6465 6666 6667 6466 
4 6466 6667 6668 6467 
4 6467 6668 6669 6468 
4 6468 6669 6670 6469 
4 6469 6670 6671 6470 
4 6470 6671 6672 6471 
4 6471 6672 6673 6472 
4 6472 6673 6674 6473 
4 6473 6674 6675 6474 
4 6474 6675 6676 6475 
4 6475 6676 6677 6476 
4 6476 6677 6678 6477 
4 6477 6678 6679 6478 
4 6478 6679 6680 6479 
4 6479 6680 6681 6480 
4 6480 6681 6682 6481 
4 6481 6682 6683 6482 
4 6482 6683 6684 6483 
4 6483 6684 6685 6484 
4 6484 6685 6686 6485 
4 6485 6686 6687 6486 
4 6486 6687 6688 6487 
4 6487 6688 6689 6488 
4 6488 6689 6690 6489 
4 6489 6690 6691 6490 
4 6490 6691 6692 6491 
4 6491 6692 6693 6492 
4 6492 6693 6694 6493 
4 6493 6694 6695 6494 
4 6494 6695 6696 6495 
4 6495 6696 6697 6496 
4 6496 6697 6698 6497 
4 6497 6698 6699 6498 
4 6498 6699 6700 6499 
4 6499 6700 6701 6500 
4 6500 6701 6702 6501 
4 6501 6702 6703 6502 
4 6502 6703 6704 6503 
4 6503 6704 6705 6504 
4 6504 6705 6706 6505 
4 6505 6706 6707 6506 
4 6506 6707 6708 6507 
4 6507 6708 6709 6508 
4 6508 6709 6710 6509 
4 6509 6710 6711 6510 
4 6510 6711 6712 6511 
4 6511 6712 6713 6512 
4 6512 6713 6714 6513 
4 6513 6714 6715 6514 
4 6514 6715 6716 6515 
4 6515 6716 6717 6516 
4 6516 6717 6718 6517 
4 6517 6718 6719 6518 
4 6518 6719 6720 6519 
4 6519 6720 6721 6520 
4 6520 6721 6722 6521 
4 6521 6722 6723 6522 
4 6522 6723 6724 6523 
4 6523 6724 6725 6524 
4 6524 6725 6726 6525 
4 6525 6726 6727 6526 
4 6526 6727 6728 6527 
4 6527 6728 6729 6528 
4 6528 6729 6730 6529 
4 6529 6730 6731 6530 
4 6530 6731 6732 6531 
4 6531 6732 6733 6532 
4 6532 6733 6734 6533 
4 6533 6734 6735 6534 
4 6534 6735 6736 6535 
4 6535 6736 6737 6536 
4 6536 6737 6738 6537 
4 6537 6738 6739 6538 
4 6538 6739 6740 6539 
4 6539 6740 6741 6540 
4 6540 6741 6742 6541 
4 6541 6742 6743 6542 
4 6542 6743 6744 6543 
4 6543 6744 6745 6544 
4 6544 6745 6746 6545 
4 6545 6746 6747 6546 
4 6546 6747 6748 6547 
4 6547 6748 6749 6548 
4 6548 6749 6750 6549 
4 6549 6750 6751 6550 
4 6550 6751 6752 6551 
4 6551 6752 6753 6552 
4 6552 6753 6754 6553 
4 6553 6754 6755 6554 
4 6554 6755 6756 6555 
4 6555 6756 6757 6556 
4 6556 6757 6758 6557 
4 6557 6758 6759 6558 
4 6558 6759 6760 6559 
4 6559 6760 6761 6560 
4 6560 6761 6762 6561 
4 6561 6762 6763 6562 
4 6562 6763 6764 6563 
4 6563 6764 6765 6564 
4 6564 6765 6766 6565 
4 6565 6766 6767 6566 
4 6566 6767 6768 6567 
4 6567 6768 6769 6568 
4 6568 6769 6770 6569 
4 6569 6770 6771 6570 
4 6570 6771 6772 6571 
4 6571 6772 6773 6572 
4 6572 6773 6774 6573 
4 6573 6774 6775 6574 
4 6574 6775 6776 6575 
4 6575 6776 6777 6576 
4 6576 6777 6778 6577 
4 6577 6778 6779 6578 
4 6578 6779 6780 6579 
4 6579 6780 6781 6580 
4 6580 6781 6782 6581 
4 6581 6782 6783 6582 
4 6582 6783 6784 6583 
4 6583 6784 6785 6584 
4 6584 6785 6786 6585 
4 6585 6786 6787 6586 
4 6586 6787 6788 6587 
4 6587 6788 6789 6588 
4 6588 6789 6790 6589 
4 6589 6790 6791 6590 
4 6590 6791 6792 6591 
4 6591 6792 6793 6592 
4 6592 6793 6794 6593 
4 6593 6794 6795 6594 
4 6594 6795 6796 6595 
4 6595 6796 6797 6596 
4 6596 6797 6798 6597 
4 6597 6798 6799 6598 
4 6598 6799 6800 6599 
4 6599 6800 6801 6600 
4 6600 6801 6802 6601 
4 6601 6802 6803 6602 
4 6602 6803 6804 6603 
4 6603 6804 6805 6604 
4 6604 6805 6806 6605 
4 6605 6806 6807 6606 
4 6606 6807 6808 6607 
4 6607 6808 6809 6608 
4 6608 6809 6810 6609 
4 6609 6810 6811 6610 
4 6610 6811 6812 6611 
4 6611 6812 6813 6612 
4 6612 6813 6814 6613 
4 6613 6814 6815 6614 
4 6614 6815 6816 6615 
4 6615 6816 6817 6616 
4 6616 6817 6818 6617 
4 6617 6818 6819 6618 
4 6618 6819 6820 6619 
4 6619 6820 6821 6620 
4 6620 6821 6822 6621 
4 6621 6822 6823 6622 
4 6622 6823 6824 6623 
4 6623 6824 6825 6624 
4 6624 6825 6826 6625 
4 6625 6826 6827 6626 
4 6626 6827 6828 6627 
4 6627 6828 6829 6628 
4 6628 6829 6830 6629 
4 6629 6830 6831 6630 
4 6630 6831 6832 6631 
4 6631 6832 6833 6632 
4 6633 6834 6835 6634 
4 6634 6835 6836 6635 
4 6635 6836 6837 6636 
4 6636 6837 6838 6637 
4 6637 6838 6839 6638 
4 6638 6839 6840 6639 
4 6639 6840 6841 6640 
4 6640 6841 6842 6641 
4 6641 6842 6843 6642 
4 6642 6843 6844 6643 
4 6643 6844 6845 6644 
4 6644 6845 6846 6645 
4 6645 6846 6847 6646 
4 6646 6847 6848 6647 
4 6647 6848 6849 6648 
4 6648 6849 6850 6649 
4 6649 6850 6851 6650 
4 6650 6851 6852 6651 
4 6651 6852 6853 6652 
4 6652 6853 6854 6653 
4 6653 6854 6855 6654 
4 6654 6855 6856 6655 
4 6655 6856 6857 6656 
4 6656 6857 6858 6657 
4 6657 6858 6859 6658 
4 6658 6859 6860 6659 
4 6659 6860 6861 6660 
4 6660 6861 6862 6661 
4 6661 6862 6863 6662 
4 6662 6863 6864 6663 
4 6663 6864 6865 6664 
4 6664 6865 6866 6665 
4 6665 6866 6867 6666 
4 6666 6867 6868 6667 
4 6667 6868 6869 6668 
4 6668 6869 6870 6669 
4 6669 6870 6871 6670 
4 6670 6871 6872 6671 
4 6671 6872 6873 6672 
4 6672 6873 6874 6673 
4 6673 6874 6875 6674 
4 6674 6875 6876 6675 
4 6675 6876 6877 6676 
4 6676 6877 6878 6677 
4 6677 6878 6879 6678 
4 6678 6879 6880 6679 
4 6679 6880 6881 6680 
4 6680 6881 6882 6681 
4 6681 6882 6883 6682 
4 6682 6883 6884 6683 
4 6683 6884 6885 6684 
4 6684 6885 6886 6685 
4 6685 6886 6887 6686 
4 6686 6887 6888 6687 
4 6687 6888 6889 6688 
4 6688 6889 6890 6689 
4 6689 6890 6891 6690 
4 6690 6891 6892 6691 
4 6691 6892 6893 6692 
4 6692 6893 6894 6693 
4 6693 6894 6895 6694 
4 6694 6895 6896 6695 
4 6695 6896 6897 6696 
4 6696 6897 6898 6697 
4 6697 6898 6899 6698 
4 6698 6899 6900 6699 
4 6699 6900 6901 6700 
4 6700 6901 6902 6701 
4 6701 6902 6903 6702 
4 6702 6903 6904 6703 
4 6703 6904 6905 6704 
4 6704 6905 6906 6705 
4 6705 6906 6907 6706 
4 6706 6907 6908 6707 
4 6707 6908 6909 6708 
4 6708 6909 6910 6709 
4 6709 6910 6911 6710 
4 6710 6911 6912 6711 
4 6711 6912 6913 6712 
4 6712 6913 6914 6713 
4 6713 6914 6915 6714 
4 6714 6915 6916 6715 
4 6715 6916 6917 6716 
4 6716 6917 6918 6717 
4 6717 6918 6919 6718 
4 6718 6919 6920 6719 
4 6719 6920 6921 6720 
4 6720 6921 6922 6721 
4 6721 6922 6923 6722 
4 6722 6923 6924 6723 
4 6723 6924 6925 6724 
4 6724 6925 6926 6725 
4 6725 6926 6927 6726 
4 6726 6927 6928 6727 
4 6727 6928 6929 6728 
4 6728 6929 6930 6729 
4 6729 6930 6931 6730 
4 6730 6931 6932 6731 
4 6731 6932 6933 6732 
4 6732 6933 6934 6733 
4 6733 6934 6935 6734 
4 6734 6935 6936 6735 
4 6735 6936 6937 6736 
4 6736 6937 6938 6737 
4 6737 6938 6939 6738 
4 6738 6939 6940 6739 
4 6739 6940 6941 6740 
4 6740 6941 6942 6741 
4 6741 6942 6943 6742 
4 6742 6943 6944 6743 
4 6743 6944 6945 6744 
4 6744 6945 6946 6745 
4 6745 6946 6947 6746 
4 6746 6947 6948 6747 
4 6747 6948 6949 6748 
4 6748 6949 6950 6749 
4 6749 6950 6951 6750 
4 6750 6951 6952 6751 
4 6751 6952 6953 6752 
4 6752 6953 6954 6753 
4 6753 6954 6955 6754 
4 6754 6955 6956 6755 
4 6755 6956 6957 6756 
4 6756 6957 6958 6757 
4 6757 6958 6959 6758 
4 6758 6959 6960 6759 
4 6759 6960 6961 6760 
4 6760 6961 6962 6761 
4 6761 6962 6963 6762 
4 6762 6963 6964 6763 
4 6763 6964 6965 6764 
4 6764 6965 6966 6765 
4 6765 6966 6967 6766 
4 6766 6967 6968 6767 
4 6767 6968 6969 6768 
4 6768 6969 6970 6769 
4 6769 6970 6971 6770 
4 6770 6971 6972 6771 
4 6771 6972 6973 6772 
4 6772 6973 6974 6773 
4 6773 6974 6975 6774 
4 6774 6975 6976 6775 
4 6775 6976 6977 6776 
4 6776 6977 6978 6777 
4 6777 6978 6979 6778 
4 6778 6979 6980 6779 
4 6779 6980 6981 6780 
4 6780 6981 6982 6781 
4 6781 6982 6983 6782 
4 6782 6983 6984 6783 
4 6783 6984 6985 6784 
4 6784 6985 6986 6785 
4 6785 6986 6987 6786 
4 6786 6987 6988 6787 
4 6787 6988 6989 6788 
4 6788 6989 6990 6789 
4 6789 6990 6991 6790 
4 6790 6991 6992 6791 
4 6791 6992 6993 6792 
4 6792 6993 6994 6793 
4 6793 6994 6995 6794 
4 6794 6995 6996 6795 
4 6795 6996 6997 6796 
4 6796 6997 6998 6797 
4 6797 6998 6999 6798 
4 6798 6999 7000 6799 
4 6799 7000 7001 6800 
4 6800 7001 7002 6801 
4 6801 7002 7003 6802 
4 6802 7003 7004 6803 
4 6803 7004 7005 6804 
4 6804 7005 7006 6805 
4 6805 7006 7007 6806 
4 6806 7007 7008 6807 
4 6807 7008 7009 6808 
4 6808 7009 7010 6809 
4 6809 7010 7011 6810 
4 6810 7011 7012 6811 
4 6811 7012 7013 6812 
4 6812 7013 7014 6813 
4 6813 7014 7015 6814 
4 6814 7015 7016 6815 
4 6815 7016 7017 6816 
4 6816 7017 7018 6817 
4 6817 7018 7019 6818 
4 6818 7019 7020 6819 
4 6819 7020 7021 6820 
4 6820 7021 7022 6821 
4 6821 7022 7023 6822 
4 6822 7023 7024 6823 
4 6823 7024 7025 6824 
4 6824 7025 7026 6825 
4 6825 7026 7027 6826 
4 6826 7027 7028 6827 
4 6827 7028 7029 6828 
4 6828 7029 7030 6829 
4 6829 7030 7031 6830 
4 6830 7031 7032 6831 
4 6831 7032 7033 6832 
4 6832 7033 7034 6833 
4 6834 7035 7036 6835 
4 6835 7036 7037 6836 
4 6836 7037 7038 6837 
4 6837 7038 7039 6838 
4 6838 7039 7040 6839 
4 6839 7040 7041 6840 
4 6840 7041 7042 6841 
4 6841 7042 7043 6842 
4 6842 7043 7044 6843 
4 6843 7044 7045 6844 
4 6844 7045 7046 6845 
4 6845 7046 7047 6846 
4 6846 7047 7048 6847 
4 6847 7048 7049 6848 
4 6848 7049 7050 6849 
4 6849 7050 7051 6850 
4 6850 7051 7052 6851 
4 6851 7052 7053 6852 
4 6852 7053 7054 6853 
4 6853 7054 7055 6854 
4 6854 7055 7056 6855 
4 6855 7056 7057 6856 
4 6856 7057 7058 6857 
4 6857 7058 7059 6858 
4 6858 7059 7060 6859 
4 6859 7060 7061 6860 
4 6860 7061 7062 6861 
4 6861 7062 7063 6862 
4 6862 7063 7064 6863 
4 6863 7064 7065 6864 
4 6864 7065 7066 6865 
4 6865 7066 7067 6866 
4 6866 7067 7068 6867 
4 6867 7068 7069 6868 
4 6868 7069 7070 6869 
4 6869 7070 7071 6870 
4 6870 7071 7072 6871 
4 6871 7072 7073 6872 
4 6872 7073 7074 6873 
4 6873 7074 7075 6874 
4 6874 7075 7076 6875 
4 6875 7076 7077 6876 
4 6876 7077 7078 6877 
4 6877 7078 7079 6878 
4 6878 7079 7080 6879 
4 6879 7080 7081 6880 
4 6880 7081 7082 6881 
4 6881 7082 7083 6882 
4 6882 7083 7084 6883 
4 6883 7084 7085 6884 
4 6884 7085 7086 6885 
4 6885 7086 7087 6886 
4 6886 7087 7088 6887 
4 6887 7088 7089 6888 
4 6888 7089 7090 6889 
4 6889 7090 7091 6890 
4 6890 7091 7092 6891 
4 6891 7092 7093 6892 
4 6892 7093 7094 6893 
4 6893 7094 7095 6894 
4 6894 7095 7096 6895 
4 6895 7096 7097 6896 
4 6896 7097 7098 6897 
4 6897 7098 7099 6898 
4 6898 7099 7100 6899 
4 6899 7100 7101 6900 
4 6900 7101 7102 6901 
4 6901 7102 7103 6902 
4 6902 7103 7104 6903 
4 6903 7104 7105 6904 
4 6904 7105 7106 6905 
4 6905 7106 7107 6906 
4 6906 7107 7108 6907 
4 6907 7108 7109 6908 
4 6908 7109 7110 6909 
4 6909 7110 7111 6910 
4 6910 7111 7112 6911 
4 6911 7112 7113 6912 
4 6912 7113 7114 6913 
4 6913 7114 7115 6914 
4 6914 7115 7116 6915 
4 6915 7116 7117 6916 
4 6916 7117 7118 6917 
4 6917 7118 7119 6918 
4 6918 7119 7120 6919 
4 6919 7120 7121 6920 
4 6920 7121 7122 6921 
4 6921 7122 7123 6922 
4 6922 7123 7124 6923 
4 6923 7124 7125 6924 
4 6924 7125 7126 6925 
4 6925 7126 7127 6926 
4 6926 7127 7128 6927 
4 6927 7128 7129 6928 
4 6928 7129 7130 6929 
4 6929 7130 7131 6930 
4 6930 7131 7132 6931 
4 6931 7132 7133 6932 
4 6932 7133 7134 6933 
4 6933 7134 7135 6934 
4 6934 7135 7136 6935 
4 6935 7136 7137 6936 
4 6936 7137 7138 6937 
4 6937 7138 7139 6938 
4 6938 7139 7140 6939 
4 6939 7140 7141 6940 
4 6940 7141 7142 6941 
4 6941 7142 7143 6942 
4 6942 7143 7144 6943 
4 6943 7144 7145 6944 
4 6944 7145 7146 6945 
4 6945 7146 7147 6946 
4 6946 7147 7148 6947 
4 6947 7148 7149 6948 
4 6948 7149 7150 6949 
4 6949 7150 7151 6950 
4 6950 7151 7152 6951 
4 6951 7152 7153 6952 
4 6952 7153 7154 6953 
4 6953 7154 7155 6954 
4 6954 7155 7156 6955 
4 6955 7156 7157 6956 
4 6956 7157 7158 6957 
4 6957 7158 7159 6958 
4 6958 7159 7160 6959 
4 6959 7160 7161 6960 
4 6960 7161 7162 6961 
4 6961 7162 7163 6962 
4 6962 7163 7164 6963 
4 6963 7164 7165 6964 
4 6964 7165 7166 6965 
4 6965 7166 7167 6966 
4 6966 7167 7168 6967 
4 6967 7168 7169 6968 
4 6968 7169 7170 6969 
4 6969 7170 7171 6970 
4 6970 7171 7172 6971 
4 6971 7172 7173 6972 
4 6972 7173 7174 6973 
4 6973 7174 7175 6974 
4 6974 7175 7176 6975 
4 6975 7176 7177 6976 
4 6976 7177 7178 6977 
4 6977 7178 7179 6978 
4 6978 7179 7180 6979 
4 6979 7180 7181 6980 
4 6980 7181 7182 6981 
4 6981 7182 7183 6982 
4 6982 7183 7184 6983 
4 6983 7184 7185 6984 
4 6984 7185 7186 6985 
4 6985 7186 7187 6986 
4 6986 7187 7188 6987 
4 6987 7188 7189 6988 
4 6988 7189 7190 6989 
4 6989 7190 7191 6990 
4 6990 7191 7192 6991 
4 6991 7192 7193 6992 
4 6992 7193 7194 6993 
4 6993 7194 7195 6994 
4 6994 7195 7196 6995 
4 6995 7196 7197 6996 
4 6996 7197 7198 6997 
4 6997 7198 7199 6998 
4 6998 7199 7200 6999 
4 6999 7200 7201 7000 
4 7000 7201 7202 7001 
4 7001 7202 7203 7002 
4 7002 7203 7204 7003 
4 7003 7204 7205 7004 
4 7004 7205 7206 7005 
4 7005 7206 7207 7006 
4 7006 7207 7208 7007 
4 7007 7208 7209 7008 
4 7008 7209 7210 7009 
4 7009 7210 7211 7010 
4 7010 7211 7212 7011 
4 7011 7212 7213 7012 
4 7012 7213 7214 7013 
4 7013 7214 7215 7014 
4 7014 7215 7216 7015 
4 7015 7216 7217 7016 
4 7016 7217 7218 7017 
4 7017 7218 7219 7018 
4 7018 7219 7220 7019 
4 7019 7220 7221 7020 
4 7020 7221 7222 7021 
4 7021 7222 7223 7022 
4 7022 7223 7224 7023 
4 7023 7224 7225 7024 
4 7024 7225 7226 7025 
4 7025 7226 7227 7026 
4 7026 7227 7228 7027 
4 7027 7228 7229 7028 
4 7028 7229 7230 7029 
4 7029 7230 7231 7030 
4 7030 7231 7232 7031 
4 7031 7232 7233 7032 
4 7032 7233 7234 7033 
4 7033 7234 7235 7034 
4 7035 7236 7237 7036 
4 7036 7237 7238 7037 
4 7037 7238 7239 7038 
4 7038 7239 7240 7039 
4 7039 7240 7241 7040 
4 7040 7241 7242 7041 
4 7041 7242 7243 7042 
4 7042 7243 7244 7043 
4 7043 7244 7245 7044 
4 7044 7245 7246 7045 
4 7045 7246 7247 7046 
4 7046 7247 7248 7047 
4 7047 7248 7249 7048 
4 7048 7249 7250 7049 
4 7049 7250 7251 7050 
4 7050 7251 7252 7051 
4 7051 7252 7253 7052 
4 7052 7253 7254 7053 
4 7053 7254 7255 7054 
4 7054 7255 7256 7055 
4 7055 7256 7257 7056 
4 7056 7257 7258 7057 
4 7057 7258 7259 7058 
4 7058 7259 7260 7059 
4 7059 7260 7261 7060 
4 7060 7261 7262 7061 
4 7061 7262 7263 7062 
4 7062 7263 7264 7063 
4 7063 7264 7265 7064 
4 7064 7265 7266 7065 
4 7065 7266 7267 7066 
4 7066 7267 7268 7067 
4 7067 7268 7269 7068 
4 7068 7269 7270 7069 
4 7069 7270 7271 7070 
4 7070 7271 7272 7071 
4 7071 7272 7273 7072 
4 7072 7273 7274 7073 
4 7073 7274 7275 7074 
4 7074 7275 7276 7075 
4 7075 7276 7277 7076 
4 7076 7277 7278 7077 
4 7077 7278 7279 7078 
4 7078 7279 7280 7079 
4 7079 7280 7281 7080 
4 7080 7281 7282 7081 
4 7081 7282 7283 7082 
4 7082 7283 7284 7083 
4 7083 7284 7285 7084 
4 7084 7285 7286 7085 
4 7085 7286 7287 7086 
4 7086 7287 7288 7087 
4 7087 7288 7289 7088 
4 7088 7289 7290 7089 
4 7089 7290 7291 7090 
4 7090 7291 7292 7091 
4 7091 7292 7293 7092 
4 7092 7293 7294 7093 
4 7093 7294 7295 7094 
4 7094 7295 7296 7095 
4 7095 7296 7297 7096 
4 7096 7297 7298 7097 
4 7097 7298 7299 7098 
4 7098 7299 7300 7099 
4 7099 7300 7301 7100 
4 7100 7301 7302 7101 
4 7101 7302 7303 7102 
4 7102 7303 7304 7103 
4 7103 7304 7305 7104 
4 7104 7305 7306 7105 
4 7105 7306 7307 7106 
4 7106 7307 7308 7107 
4 7107 7308 7309 7108 
4 7108 7309 7310 7109 
4 7109 7310 7311 7110 
4 7110 7311 7312 7111 
4 7111 7312 7313 7112 
4 7112 7313 7314 7113 
4 7113 7314 7315 7114 
4 7114 7315 7316 7115 
4 7115 7316 7317 7116 
4 7116 7317 7318 7117 
4 7117 7318 7319 7118 
4 7118 7319 7320 7119 
4 7119 7320 7321 7120 
4 7120 7321 7322 7121 
4 7121 7322 7323 7122 
4 7122 7323 7324 7123 
4 7123 7324 7325 7124 
4 7124 7325 7326 7125 
4 7125 7326 7327 7126 
4 7126 7327 7328 7127 
4 7127 7328 7329 7128 
4 7128 7329 7330 7129 
4 7129 7330 7331 7130 
4 7130 7331 7332 7131 
4 7131 7332 7333 7132 
4 7132 7333 7334 7133 
4 7133 7334 7335 7134 
4 7134 7335 7336 7135 
4 7135 7336 7337 7136 
4 7136 7337 7338 7137 
4 7137 7338 7339 7138 
4 7138 7339 7340 7139 
4 7139 7340 7341 7140 
4 7140 7341 7342 7141 
4 7141 7342 7343 7142 
4 7142 7343 7344 7143 
4 7143 7344 7345 7144 
4 7144 7345 7346 7145 
4 7145 7346 7347 7146 
4 7146 7347 7348 7147 
4 7147 7348 7349 7148 
4 7148 7349 7350 7149 
4 7149 7350 7351 7150 
4 7150 7351 7352 7151 
4 7151 7352 7353 7152 
4 7152 7353 7354 7153 
4 7153 7354 7355 7154 
4 7154 7355 7356 7155 
4 7155 7356 7357 7156 
4 7156 7357 7358 7157 
4 7157 7358 7359 7158 
4 7158 7359 7360 7159 
4 7159 7360 7361 7160 
4 7160 7361 7362 7161 
4 7161 7362 7363 7162 
4 7162 7363 7364 7163 
4 7163 7364 7365 7164 
4 7164 7365 7366 7165 
4 7165 7366 7367 7166 
4 7166 7367 7368 7167 
4 7167 7368 7369 7168 
4 7168 7369 7370 7169 
4 7169 7370 7371 7170 
4 7170 7371 7372 7171 
4 7171 7372 7373 7172 
4 7172 7373 7374 7173 
4 7173 7374 7375 7174 
4 7174 7375 7376 7175 
4 7175 7376 7377 7176 
4 7176 7377 7378 7177 
4 7177 7378 7379 7178 
4 7178 7379 7380 7179 
4 7179 7380 7381 7180 
4 7180 7381 7382 7181 
4 7181 7382 7383 7182 
4 7182 7383 7384 7183 
4 7183 7384 7385 7184 
4 7184 7385 7386 7185 
4 7185 7386 7387 7186 
4 7186 7387 7388 7187 
4 7187 7388 7389 7188 
4 7188 7389 7390 7189 
4 7189 7390 7391 7190 
4 7190 7391 7392 7191 
4 7191 7392 7393 7192 
4 7192 7393 7394 7193 
4 7193 7394 7395 7194 
4 7194 7395 7396 7195 
4 7195 7396 7397 7196 
4 7196 7397 7398 7197 
4 7197 7398 7399 7198 
4 7198 7399 7400 7199 
4 7199 7400 7401 7200 
4 7200 7401 7402 7201 
4 7201 7402 7403 7202 
4 7202 7403 7404 7203 
4 7203 7404 7405 7204 
4 7204 7405 7406 7205 
4 7205 7406 7407 7206 
4 7206 7407 7408 7207 
4 7207 7408 7409 7208 
4 7208 7409 7410 7209 
4 7209 7410 7411 7210 
4 7210 7411 7412 7211 
4 7211 7412 7413 7212 
4 7212 7413 7414 7213 
4 7213 7414 7415 7214 
4 7214 7415 7416 7215 
4 7215 7416 7417 7216 
4 7216 7417 7418 7217 
4 7217 7418 7419 7218 
4 7218 7419 7420 7219 
4 7219 7420 7421 7220 
4 7220 7421 7422 7221 
4 7221 7422 7423 7222 
4 7222 7423 7424 7223 
4 7223 7424 7425 7224 
4 7224 7425 7426 7225 
4 7225 7426 7427 7226 
4 7226 7427 7428 7227 
4 7227 7428 7429 7228 
4 7228 7429 7430 7229 
4 7229 7430 7431 7230 
4 7230 7431 7432 7231 
4 7231 7432 7433 7232 
4 7232 7433 7434 7233 
4 7233 7434 7435 7234 
4 7234 7435 7436 7235 
4 7236 7437 7438 7237 
4 7237 7438 7439 7238 
4 7238 7439 7440 7239 
4 7239 7440 7441 7240 
4 7240 7441 7442 7241 
4 7241 7442 7443 7242 
4 7242 7443 7444 7243 
4 7243 7444 7445 7244 
4 7244 7445 7446 7245 
4 7245 7446 7447 7246 
4 7246 7447 7448 7247 
4 7247 7448 7449 7248 
4 7248 7449 7450 7249 
4 7249 7450 7451 7250 
4 7250 7451 7452 7251 
4 7251 7452 7453 7252 
4 7252 7453 7454 7253 
4 7253 7454 7455 7254 
4 7254 7455 7456 7255 
4 7255 7456 7457 7256 
4 7256 7457 7458 7257 
4 7257 7458 7459 7258 
4 7258 7459 7460 7259 
4 7259 7460 7461 7260 
4 7260 7461 7462 7261 
4 7261 7462 7463 7262 
4 7262 7463 7464 7263 
4 7263 7464 7465 7264 
4 7264 7465 7466 7265 
4 7265 7466 7467 7266 
4 7266 7467 7468 7267 
4 7267 7468 7469 7268 
4 7268 7469 7470 7269 
4 7269 7470 7471 7270 
4 7270 7471 7472 7271 
4 7271 7472 7473 7272 
4 7272 7473 7474 7273 
4 7273 7474 7475 7274 
4 7274 7475 7476 7275 
4 7275 7476 7477 7276 
4 7276 7477 7478 7277 
4 7277 7478 7479 7278 
4 7278 7479 7480 7279 
4 7279 7480 7481 7280 
4 7280 7481 7482 7281 
4 7281 7482 7483 7282 
4 7282 7483 7484 7283 
4 7283 7484 7485 7284 
4 7284 7485 7486 7285 
4 7285 7486 7487 7286 
4 7286 7487 7488 7287 
4 7287 7488 7489 7288 
4 7288 7489 7490 7289 
4 7289 7490 7491 7290 
4 7290 7491 7492 7291 
4 7291 7492 7493 7292 
4 7292 7493 7494 7293 
4 7293 7494 7495 7294 
4 7294 7495 7496 7295 
4 7295 7496 7497 7296 
4 7296 7497 7498 7297 
4 7297 7498 7499 7298 
4 7298 7499 7500 7299 
4 7299 7500 7501 7300 
4 7300 7501 7502 7301 
4 7301 7502 7503 7302 
4 7302 7503 7504 7303 
4 7303 7504 7505 7304 
4 7304 7505 7506 7305 
4 7305 7506 7507 7306 
4 7306 7507 7508 7307 
4 7307 7508 7509 7308 
4 7308 7509 7510 7309 
4 7309 7510 7511 7310 
4 7310 7511 7512 7311 
4 7311 7512 7513 7312 
4 7312 7513 7514 7313 
4 7313 7514 7515 7314 
4 7314 7515 7516 7315 
4 7315 7516 7517 7316 
4 7316 7517 7518 7317 
4 7317 7518 7519 7318 
4 7318 7519 7520 7319 
4 7319 7520 7521 7320 
4 7320 7521 7522 7321 
4 7321 7522 7523 7322 
4 7322 7523 7524 7323 
4 7323 7524 7525 7324 
4 7324 7525 7526 7325 
4 7325 7526 7527 7326 
4 7326 7527 7528 7327 
4 7327 7528 7529 7328 
4 7328 7529 7530 7329 
4 7329 7530 7531 7330 
4 7330 7531 7532 7331 
4 7331 7532 7533 7332 
4 7332 7533 7534 7333 
4 7333 7534 7535 7334 
4 7334 7535 7536 7335 
4 7335 7536 7537 7336 
4 7336 7537 7538 7337 
4 7337 7538 7539 7338 
4 7338 7539 7540 7339 
4 7339 7540 7541 7340 
4 7340 7541 7542 7341 
4 7341 7542 7543 7342 
4 7342 7543 7544 7343 
4 7343 7544 7545 7344 
4 7344 7545 7546 7345 
4 7345 7546 7547 7346 
4 7346 7547 7548 7347 
4 7347 7548 7549 7348 
4 7348 7549 7550 7349 
4 7349 7550 7551 7350 
4 7350 7551 7552 7351 
4 7351 7552 7553 7352 
4 7352 7553 7554 7353 
4 7353 7554 7555 7354 
4 7354 7555 7556 7355 
4 7355 7556 7557 7356 
4 7356 7557 7558 7357 
4 7357 7558 7559 7358 
4 7358 7559 7560 7359 
4 7359 7560 7561 7360 
4 7360 7561 7562 7361 
4 7361 7562 7563 7362 
4 7362 7563 7564 7363 
4 7363 7564 7565 7364 
4 7364 7565 7566 7365 
4 7365 7566 7567 7366 
4 7366 7567 7568 7367 
4 7367 7568 7569 7368 
4 7368 7569 7570 7369 
4 7369 7570 7571 7370 
4 7370 7571 7572 7371 
4 7371 7572 7573 7372 
4 7372 7573 7574 7373 
4 7373 7574 7575 7374 
4 7374 7575 7576 7375 
4 7375 7576 7577 7376 
4 7376 7577 7578 7377 
4 7377 7578 7579 7378 
4 7378 7579 7580 7379 
4 7379 7580 7581 7380 
4 7380 7581 7582 7381 
4 7381 7582 7583 7382 
4 7382 7583 7584 7383 
4 7383 7584 7585 7384 
4 7384 7585 7586 7385 
4 7385 7586 7587 7386 
4 7386 7587 7588 7387 
4 7387 7588 7589 7388 
4 7388 7589 7590 7389 
4 7389 7590 7591 7390 
4 7390 7591 7592 7391 
4 7391 7592 7593 7392 
4 7392 7593 7594 7393 
4 7393 7594 7595 7394 
4 7394 7595 7596 7395 
4 7395 7596 7597 7396 
4 7396 7597 7598 7397 
4 7397 7598 7599 7398 
4 7398 7599 7600 7399 
4 7399 7600 7601 7400 
4 7400 7601 7602 7401 
4 7401 7602 7603 7402 
4 7402 7603 7604 7403 
4 7403 7604 7605 7404 
4 7404 7605 7606 7405 
4 7405 7606 7607 7406 
4 7406 7607 7608 7407 
4 7407 7608 7609 7408 
4 7408 7609 7610 7409 
4 7409 7610 7611 7410 
4 7410 7611 7612 7411 
4 7411 7612 7613 7412 
4 7412 7613 7614 7413 
4 7413 7614 7615 7414 
4 7414 7615 7616 7415 
4 7415 7616 7617 7416 
4 7416 7617 7618 7417 
4 7417 7618 7619 7418 
4 7418 7619 7620 7419 
4 7419 7620 7621 7420 
4 7420 7621 7622 7421 
4 7421 7622 7623 7422 
4 7422 7623 7624 7423 
4 7423 7624 7625 7424 
4 7424 7625 7626 7425 
4 7425 7626 7627 7426 
4 7426 7627 7628 7427 
4 7427 7628 7629 7428 
4 7428 7629 7630 7429 
4 7429 7630 7631 7430 
4 7430 7631 7632 7431 
4 7431 7632 7633 7432 
4 7432 7633 7634 7433 
4 7433 7634 7635 7434 
4 7434 7635 7636 7435 
4 7435 7636 7637 7436 
4 7437 7638 7639 7438 
4 7438 7639 7640 7439 
4 7439 7640 7641 7440 
4 7440 7641 7642 7441 
4 7441 7642 7643 7442 
4 7442 7643 7644 7443 
4 7443 7644 7645 7444 
4 7444 7645 7646 7445 
4 7445 7646 7647 7446 
4 7446 7647 7648 7447 
4 7447 7648 7649 7448 
4 7448 7649 7650 7449 
4 7449 7650 7651 7450 
4 7450 7651 7652 7451 
4 7451 7652 7653 7452 
4 7452 7653 7654 7453 
4 7453 7654 7655 7454 
4 7454 7655 7656 7455 
4 7455 7656 7657 7456 
4 7456 7657 7658 7457 
4 7457 7658 7659 7458 
4 7458 7659 7660 7459 
4 7459 7660 7661 7460 
4 7460 7661 7662 7461 
4 7461 7662 7663 7462 
4 7462 7663 7664 7463 
4 7463 7664 7665 7464 
4 7464 7665 7666 7465 
4 7465 7666 7667 7466 
4 7466 7667 7668 7467 
4 7467 7668 7669 7468 
4 7468 7669 7670 7469 
4 7469 7670 7671 7470 
4 7470 7671 7672 7471 
4 7471 7672 7673 7472 
4 7472 7673 7674 7473 
4 7473 7674 7675 7474 
4 7474 7675 7676 7475 
4 7475 7676 7677 7476 
4 7476 7677 7678 7477 
4 7477 7678 7679 7478 
4 7478 7679 7680 7479 
4 7479 7680 7681 7480 
4 7480 7681 7682 7481 
4 7481 7682 7683 7482 
4 7482 7683 7684 7483 
4 7483 7684 7685 7484 
4 7484 7685 7686 7485 
4 7485 7686 7687 7486 
4 7486 7687 7688 7487 
4 7487 7688 7689 7488 
4 7488 7689 7690 7489 
4 7489 7690 7691 7490 
4 7490 7691 7692 7491 
4 7491 7692 7693 7492 
4 7492 7693 7694 7493 
4 7493 7694 7695 7494 
4 7494 7695 7696 7495 
4 7495 7696 7697 7496 
4 7496 7697 7698 7497 
4 7497 7698 7699 7498 
4 7498 7699 7700 7499 
4 7499 7700 7701 7500 
4 7500 7701 7702 7501 
4 7501 7702 7703 7502 
4 7502 7703 7704 7503 
4 7503 7704 7705 7504 
4 7504 7705 7706 7505 
4 7505 7706 7707 7506 
4 7506 7707 7708 7507 
4 7507 7708 7709 7508 
4 7508 7709 7710 7509 
4 7509 7710 7711 7510 
4 7510 7711 7712 7511 
4 7511 7712 7713 7512 
4 7512 7713 7714 7513 
4 7513 7714 7715 7514 
4 7514 7715 7716 7515 
4 7515 7716 7717 7516 
4 7516 7717 7718 7517 
4 7517 7718 7719 7518 
4 7518 7719 7720 7519 
4 7519 7720 7721 7520 
4 7520 7721 7722 7521 
4 7521 7722 7723 7522 
4 7522 7723 7724 7523 
4 7523 7724 7725 7524 
4 7524 7725 7726 7525 
4 7525 7726 7727 7526 
4 7526 7727 7728 7527 
4 7527 7728 7729 7528 
4 7528 7729 7730 7529 
4 7529 7730 7731 7530 
4 7530 7731 7732 7531 
4 7531 7732 7733 7532 
4 7532 7733 7734 7533 
4 7533 7734 7735 7534 
4 7534 7735 7736 7535 
4 7535 7736 7737 7536 
4 7536 7737 7738 7537 
4 7537 7738 7739 7538 
4 7538 7739 7740 7539 
4 7539 7740 7741 7540 
4 7540 7741 7742 7541 
4 7541 7742 7743 7542 
4 7542 7743 7744 7543 
4 7543 7744 7745 7544 
4 7544 7745 7746 7545 
4 7545 7746 7747 7546 
4 7546 7747 7748 7547 
4 7547 7748 7749 7548 
4 7548 7749 7750 7549 
4 7549 7750 7751 7550 
4 7550 7751 7752 7551 
4 7551 7752 7753 7552 
4 7552 7753 7754 7553 
4 7553 7754 7755 7554 
4 7554 7755 7756 7555 
4 7555 7756 7757 7556 
4 7556 7757 7758 7557 
4 7557 7758 7759 7558 
4 7558 7759 7760 7559 
4 7559 7760 7761 7560 
4 7560 7761 7762 7561 
4 7561 7762 7763 7562 
4 7562 7763 7764 7563 
4 7563 7764 7765 7564 
4 7564 7765 7766 7565 
4 7565 7766 7767 7566 
4 7566 7767 7768 7567 
4 7567 7768 7769 7568 
4 7568 7769 7770 7569 
4 7569 7770 7771 7570 
4 7570 7771 7772 7571 
4 7571 7772 7773 7572 
4 7572 7773 7774 7573 
4 7573 7774 7775 7574 
4 7574 7775 7776 7575 
4 7575 7776 7777 7576 
4 7576 7777 7778 7577 
4 7577 7778 7779 7578 
4 7578 7779 7780 7579 
4 7579 7780 7781 7580 
4 7580 7781 7782 7581 
4 7581 7782 7783 7582 
4 7582 7783 7784 7583 
4 7583 7784 7785 7584 
4 7584 7785 7786 7585 
4 7585 7786 7787 7586 
4 7586 7787 7788 7587 
4 7587 7788 7789 7588 
4 7588 7789 7790 7589 
4 7589 7790 7791 7590 
4 7590 7791 7792 7591 
4 7591 7792 7793 7592 
4 7592 7793 7794 7593 
4 7593 7794 7795 7594 
4 7594 7795 7796 7595 
4 7595 7796 7797 7596 
4 7596 7797 7798 7597 
4 7597 7798 7799 7598 
4 7598 7799 7800 7599 
4 7599 7800 7801 7600 
4 7600 7801 7802 7601 
4 7601 7802 7803 7602 
4 7602 7803 7804 7603 
4 7603 7804 7805 7604 
4 7604 7805 7806 7605 
4 7605 7806 7807 7606 
4 7606 7807 7808 7607 
4 7607 7808 7809 7608 
4 7608 7809 7810 7609 
4 7609 7810 7811 7610 
4 7610 7811 7812 7611 
4 7611 7812 7813 7612 
4 7612 7813 7814 7613 
4 7613 7814 7815 7614 
4 7614 7815 7816 7615 
4 7615 7816 7817 7616 
4 7616 7817 7818 7617 
4 7617 7818 7819 7618 
4 7618 7819 7820 7619 
4 7619 7820 7821 7620 
4 7620 7821 7822 7621 
4 7621 7822 7823 7622 
4 7622 7823 7824 7623 
4 7623 7824 7825 7624 
4 7624 7825 7826 7625 
4 7625 7826 7827 7626 
4 7626 7827 7828 7627 
4 7627 7828 7829 7628 
4 7628 7829 7830 7629 
4 7629 7830 7831 7630 
4 7630 7831 7832 7631 
4 7631 7832 7833 7632 
4 7632 7833 7834 7633 
4 7633 7834 7835 7634 
4 7634 7835 7836 7635 
4 7635 7836 7837 7636 
4 7636 7837 7838 7637 
4 7638 7839 7840 7639 
4 7639 7840 7841 7640 
4 7640 7841 7842 7641 
4 7641 7842 7843 7642 
4 7642 7843 7844 7643 
4 7643 7844 7845 7644 
4 7644 7845 7846 7645 
4 7645 7846 7847 7646 
4 7646 7847 7848 7647 
4 7647 7848 7849 7648 
4 7648 7849 7850 7649 
4 7649 7850 7851 7650 
4 7650 7851 7852 7651 
4 7651 7852 7853 7652 
4 7652 7853 7854 7653 
4 7653 7854 7855 7654 
4 7654 7855 7856 7655 
4 7655 7856 7857 7656 
4 7656 7857 7858 7657 
4 7657 7858 7859 7658 
4 7658 7859 7860 7659 
4 7659 7860 7861 7660 
4 7660 7861 7862 7661 
4 7661 7862 7863 7662 
4 7662 7863 7864 7663 
4 7663 7864 7865 7664 
4 7664 7865 7866 7665 
4 7665 7866 7867 7666 
4 7666 7867 7868 7667 
4 7667 7868 7869 7668 
4 7668 7869 7870 7669 
4 7669 7870 7871 7670 
4 7670 7871 7872 7671 
4 7671 7872 7873 7672 
4 7672 7873 7874 7673 
4 7673 7874 7875 7674 
4 7674 7875 7876 7675 
4 7675 7876 7877 7676 
4 7676 7877 7878 7677 
4 7677 7878 7879 7678 
4 7678 7879 7880 7679 
4 7679 7880 7881 7680 
4 7680 7881 7882 7681 
4 7681 7882 7883 7682 
4 7682 7883 7884 7683 
4 7683 7884 7885 7684 
4 7684 7885 7886 7685 
4 7685 7886 7887 7686 
4 7686 7887 7888 7687 
4 7687 7888 7889 7688 
4 7688 7889 7890 7689 
4 7689 7890 7891 7690 
4 7690 7891 7892 7691 
4 7691 7892 7893 7692 
4 7692 7893 7894 7693 
4 7693 7894 7895 7694 
4 7694 7895 7896 7695 
4 7695 7896 7897 7696 
4 7696 7897 7898 7697 
4 7697 7898 7899 7698 
4 7698 7899 7900 7699 
4 7699 7900 7901 7700 
4 7700 7901 7902 7701 
4 7701 7902 7903 7702 
4 7702 7903 7904 7703 
4 7703 7904 7905 7704 
4 7704 7905 7906 7705 
4 7705 7906 7907 7706 
4 7706 7907 7908 7707 
4 7707 7908 7909 7708 
4 7708 7909 7910 7709 
4 7709 7910 7911 7710 
4 7710 7911 7912 7711 
4 7711 7912 7913 7712 
4 7712 7913 7914 7713 
4 7713 7914 7915 7714 
4 7714 7915 7916 7715 
4 7715 7916 7917 7716 
4 7716 7917 7918 7717 
4 7717 7918 7919 7718 
4 7718 7919 7920 7719 
4 7719 7920 7921 7720 
4 7720 7921 7922 7721 
4 7721 7922 7923 7722 
4 7722 7923 7924 7723 
4 7723 7924 7925 7724 
4 7724 7925 7926 7725 
4 7725 7926 7927 7726 
4 7726 7927 7928 7727 
4 7727 7928 7929 7728 
4 7728 7929 7930 7729 
4 7729 7930 7931 7730 
4 7730 7931 7932 7731 
4 7731 7932 7933 7732 
4 7732 7933 7934 7733 
4 7733 7934 7935 7734 
4 7734 7935 7936 7735 
4 7735 7936 7937 7736 
4 7736 7937 7938 7737 
4 7737 7938 7939 7738 
4 7738 7939 7940 7739 
4 7739 7940 7941 7740 
4 7740 7941 7942 7741 
4 7741 7942 7943 7742 
4 7742 7943 7944 7743 
4 7743 7944 7945 7744 
4 7744 7945 7946 7745 
4 7745 7946 7947 7746 
4 7746 7947 7948 7747 
4 7747 7948 7949 7748 
4 7748 7949 7950 7749 
4 7749 7950 7951 7750 
4 7750 7951 7952 7751 
4 7751 7952 7953 7752 
4 7752 7953 7954 7753 
4 7753 7954 7955 7754 
4 7754 7955 7956 7755 
4 7755 7956 7957 7756 
4 7756 7957 7958 7757 
4 7757 7958 7959 7758 
4 7758 7959 7960 7759 
4 7759 7960 7961 7760 
4 7760 7961 7962 7761 
4 7761 7962 7963 7762 
4 7762 7963 7964 7763 
4 7763 7964 7965 7764 
4 7764 7965 7966 7765 
4 7765 7966 7967 7766 
4 7766 7967 7968 7767 
4 7767 7968 7969 7768 
4 7768 7969 7970 7769 
4 7769 7970 7971 7770 
4 7770 7971 7972 7771 
4 7771 7972 7973 7772 
4 7772 7973 7974 7773 
4 7773 7974 7975 7774 
4 7774 7975 7976 7775 
4 7775 7976 7977 7776 
4 7776 7977 7978 7777 
4 7777 7978 7979 7778 
4 7778 7979 7980 7779 
4 7779 7980 7981 7780 
4 7780 7981 7982 7781 
4 7781 7982 7983 7782 
4 7782 7983 7984 7783 
4 7783 7984 7985 7784 
4 7784 7985 7986 7785 
4 7785 7986 7987 7786 
4 7786 7987 7988 7787 
4 7787 7988 7989 7788 
4 7788 7989 7990 7789 
4 7789 7990 7991 7790 
4 7790 7991 7992 7791 
4 7791 7992 7993 7792 
4 7792 7993 7994 7793 
4 7793 7994 7995 7794 
4 7794 7995 7996 7795 
4 7795 7996 7997 7796 
4 7796 7997 7998 7797 
4 7797 7998 7999 7798 
4 7798 7999 8000 7799 
4 7799 8000 8001 7800 
4 7800 8001 8002 7801 
4 7801 8002 8003 7802 
4 7802 8003 8004 7803 
4 7803 8004 8005 7804 
4 7804 8005 8006 7805 
4 7805 8006 8007 7806 
4 7806 8007 8008 7807 
4 7807 8008 8009 7808 
4 7808 8009 8010 7809 
4 7809 8010 8011 7810 
4 7810 8011 8012 7811 
4 7811 8012 8013 7812 
4 7812 8013 8014 7813 
4 7813 8014 8015 7814 
4 7814 8015 8016 7815 
4 7815 8016 8017 7816 
4 7816 8017 8018 7817 
4 7817 8018 8019 7818 
4 7818 8019 8020 7819 
4 7819 8020 8021 7820 
4 7820 8021 8022 7821 
4 7821 8022 8023 7822 
4 7822 8023 8024 7823 
4 7823 8024 8025 7824 
4 7824 8025 8026 7825 
4 7825 8026 8027 7826 
4 7826 8027 8028 7827 
4 7827 8028 8029 7828 
4 7828 8029 8030 7829 
4 7829 8030 8031 7830 
4 7830 8031 8032 7831 
4 7831 8032 8033 7832 
4 7832 8033 8034 7833 
4 7833 8034 8035 7834 
4 7834 8035 8036 7835 
4 7835 8036 8037 7836 
4 7836 8037 8038 7837 
4 7837 8038 8039 7838 
4 7839 8040 8041 7840 
4 7840 8041 8042 7841 
4 7841 8042 8043 7842 
4 7842 8043 8044 7843 
4 7843 8044 8045 7844 
4 7844 8045 8046 7845 
4 7845 8046 8047 7846 
4 7846 8047 8048 7847 
4 7847 8048 8049 7848 
4 7848 8049 8050 7849 
4 7849 8050 8051 7850 
4 7850 8051 8052 7851 
4 7851 8052 8053 7852 
4 7852 8053 8054 7853 
4 7853 8054 8055 7854 
4 7854 8055 8056 7855 
4 7855 8056 8057 7856 
4 7856 8057 8058 7857 
4 7857 8058 8059 7858 
4 7858 8059 8060 7859 
4 7859 8060 8061 7860 
4 7860 8061 8062 7861 
4 7861 8062 8063 7862 
4 7862 8063 8064 7863 
4 7863 8064 8065 7864 
4 7864 8065 8066 7865 
4 7865 8066 8067 7866 
4 7866 8067 8068 7867 
4 7867 8068 8069 7868 
4 7868 8069 8070 7869 
4 7869 8070 8071 7870 
4 7870 8071 8072 7871 
4 7871 8072 8073 7872 
4 7872 8073 8074 7873 
4 7873 8074 8075 7874 
4 7874 8075 8076 7875 
4 7875 8076 8077 7876 
4 7876 8077 8078 7877 
4 7877 8078 8079 7878 
4 7878 8079 8080 7879 
4 7879 8080 8081 7880 
4 7880 8081 8082 7881 
4 7881 8082 8083 7882 
4 7882 8083 8084 7883 
4 7883 8084 8085 7884 
4 7884 8085 8086 7885 
4 7885 8086 8087 7886 
4 7886 8087 8088 7887 
4 7887 8088 8089 7888 
4 7888 8089 8090 7889 
4 7889 8090 8091 7890 
4 7890 8091 8092 7891 
4 7891 8092 8093 7892 
4 7892 8093 8094 7893 
4 7893 8094 8095 7894 
4 7894 8095 8096 7895 
4 7895 8096 8097 7896 
4 7896 8097 8098 7897 
4 7897 8098 8099 7898 
4 7898 8099 8100 7899 
4 7899 8100 8101 7900 
4 7900 8101 8102 7901 
4 7901 8102 8103 7902 
4 7902 8103 8104 7903 
4 7903 8104 8105 7904 
4 7904 8105 8106 7905 
4 7905 8106 8107 7906 
4 7906 8107 8108 7907 
4 7907 8108 8109 7908 
4 7908 8109 8110 7909 
4 7909 8110 8111 7910 
4 7910 8111 8112 7911 
4 7911 8112 8113 7912 
4 7912 8113 8114 7913 
4 7913 8114 8115 7914 
4 7914 8115 8116 7915 
4 7915 8116 8117 7916 
4 7916 8117 8118 7917 
4 7917 8118 8119 7918 
4 7918 8119 8120 7919 
4 7919 8120 8121 7920 
4 7920 8121 8122 7921 
4 7921 8122 8123 7922 
4 7922 8123 8124 7923 
4 7923 8124 8125 7924 
4 7924 8125 8126 7925 
4 7925 8126 8127 7926 
4 7926 8127 8128 7927 
4 7927 8128 8129 7928 
4 7928 8129 8130 7929 
4 7929 8130 8131 7930 
4 7930 8131 8132 7931 
4 7931 8132 8133 7932 
4 7932 8133 8134 7933 
4 7933 8134 8135 7934 
4 7934 8135 8136 7935 
4 7935 8136 8137 7936 
4 7936 8137 8138 7937 
4 7937 8138 8139 7938 
4 7938 8139 8140 7939 
4 7939 8140 8141 7940 
4 7940 8141 8142 7941 
4 7941 8142 8143 7942 
4 7942 8143 8144 7943 
4 7943 8144 8145 7944 
4 7944 8145 8146 7945 
4 7945 8146 8147 7946 
4 7946 8147 8148 7947 
4 7947 8148 8149 7948 
4 7948 8149 8150 7949 
4 7949 8150 8151 7950 
4 7950 8151 8152 7951 
4 7951 8152 8153 7952 
4 7952 8153 8154 7953 
4 7953 8154 8155 7954 
4 7954 8155 8156 7955 
4 7955 8156 8157 7956 
4 7956 8157 8158 7957 
4 7957 8158 8159 7958 
4 7958 8159 8160 7959 
4 7959 8160 8161 7960 
4 7960 8161 8162 7961 
4 7961 8162 8163 7962 
4 7962 8163 8164 7963 
4 7963 8164 8165 7964 
4 7964 8165 8166 7965 
4 7965 8166 8167 7966 
4 7966 8167 8168 7967 
4 7967 8168 8169 7968 
4 7968 8169 8170 7969 
4 7969 8170 8171 7970 
4 7970 8171 8172 7971 
4 7971 8172 8173 7972 
4 7972 8173 8174 7973 
4 7973 8174 8175 7974 
4 7974 8175 8176 7975 
4 7975 8176 8177 7976 
4 7976 8177 8178 7977 
4 7977 8178 8179 7978 
4 7978 8179 8180 7979 
4 7979 8180 8181 7980 
4 7980 8181 8182 7981 
4 7981 8182 8183 7982 
4 7982 8183 8184 7983 
4 7983 8184 8185 7984 
4 7984 8185 8186 7985 
4 7985 8186 8187 7986 
4 7986 8187 8188 7987 
4 7987 8188 8189 7988 
4 7988 8189 8190 7989 
4 7989 8190 8191 7990 
4 7990 8191 8192 7991 
4 7991 8192 8193 7992 
4 7992 8193 8194 7993 
4 7993 8194 8195 7994 
4 7994 8195 8196 7995 
4 7995 8196 8197 7996 
4 7996 8197 8198 7997 
4 7997 8198 8199 7998 
4 7998 8199 8200 7999 
4 7999 8200 8201 8000 
4 8000 8201 8202 8001 
4 8001 8202 8203 8002 
4 8002 8203 8204 8003 
4 8003 8204 8205 8004 
4 8004 8205 8206 8005 
4 8005 8206 8207 8006 
4 8006 8207 8208 8007 
4 8007 8208 8209 8008 
4 8008 8209 8210 8009 
4 8009 8210 8211 8010 
4 8010 8211 8212 8011 
4 8011 8212 8213 8012 
4 8012 8213 8214 8013 
4 8013 8214 8215 8014 
4 8014 8215 8216 8015 
4 8015 8216 8217 8016 
4 8016 8217 8218 8017 
4 8017 8218 8219 8018 
4 8018 8219 8220 8019 
4 8019 8220 8221 8020 
4 8020 8221 8222 8021 
4 8021 8222 8223 8022 
4 8022 8223 8224 8023 
4 8023 8224 8225 8024 
4 8024 8225 8226 8025 
4 8025 8226 8227 8026 
4 8026 8227 8228 8027 
4 8027 8228 8229 8028 
4 8028 8229 8230 8029 
4 8029 8230 8231 8030 
4 8030 8231 8232 8031 
4 8031 8232 8233 8032 
4 8032 8233 8234 8033 
4 8033 8234 8235 8034 
4 8034 8235 8236 8035 
4 8035 8236 8237 8036 
4 8036 8237 8238 8037 
4 8037 8238 8239 8038 
4 8038 8239 8240 8039 
4 8040 8241 8242 8041 
4 8041 8242 8243 8042 
4 8042 8243 8244 8043 
4 8043 8244 8245 8044 
4 8044 8245 8246 8045 
4 8045 8246 8247 8046 
4 8046 8247 8248 8047 
4 8047 8248 8249 8048 
4 8048 8249 8250 8049 
4 8049 8250 8251 8050 
4 8050 8251 8252 8051 
4 8051 8252 8253 8052 
4 8052 8253 8254 8053 
4 8053 8254 8255 8054 
4 8054 8255 8256 8055 
4 8055 8256 8257 8056 
4 8056 8257 8258 8057 
4 8057 8258 8259 8058 
4 8058 8259 8260 8059 
4 8059 8260 8261 8060 
4 8060 8261 8262 8061 
4 8061 8262 8263 8062 
4 8062 8263 8264 8063 
4 8063 8264 8265 8064 
4 8064 8265 8266 8065 
4 8065 8266 8267 8066 
4 8066 8267 8268 8067 
4 8067 8268 8269 8068 
4 8068 8269 8270 8069 
4 8069 8270 8271 8070 
4 8070 8271 8272 8071 
4 8071 8272 8273 8072 
4 8072 8273 8274 8073 
4 8073 8274 8275 8074 
4 8074 8275 8276 8075 
4 8075 8276 8277 8076 
4 8076 8277 8278 8077 
4 8077 8278 8279 8078 
4 8078 8279 8280 8079 
4 8079 8280 8281 8080 
4 8080 8281 8282 8081 
4 8081 8282 8283 8082 
4 8082 8283 8284 8083 
4 8083 8284 8285 8084 
4 8084 8285 8286 8085 
4 8085 8286 8287 8086 
4 8086 8287 8288 8087 
4 8087 8288 8289 8088 
4 8088 8289 8290 8089 
4 8089 8290 8291 8090 
4 8090 8291 8292 8091 
4 8091 8292 8293 8092 
4 8092 8293 8294 8093 
4 8093 8294 8295 8094 
4 8094 8295 8296 8095 
4 8095 8296 8297 8096 
4 8096 8297 8298 8097 
4 8097 8298 8299 8098 
4 8098 8299 8300 8099 
4 8099 8300 8301 8100 
4 8100 8301 8302 8101 
4 8101 8302 8303 8102 
4 8102 8303 8304 8103 
4 8103 8304 8305 8104 
4 8104 8305 8306 8105 
4 8105 8306 8307 8106 
4 8106 8307 8308 8107 
4 8107 8308 8309 8108 
4 8108 8309 8310 8109 
4 8109 8310 8311 8110 
4 8110 8311 8312 8111 
4 8111 8312 8313 8112 
4 8112 8313 8314 8113 
4 8113 8314 8315 8114 
4 8114 8315 8316 8115 
4 8115 8316 8317 8116 
4 8116 8317 8318 8117 
4 8117 8318 8319 8118 
4 8118 8319 8320 8119 
4 8119 8320 8321 8120 
4 8120 8321 8322 8121 
4 8121 8322 8323 8122 
4 8122 8323 8324 8123 
4 8123 8324 8325 8124 
4 8124 8325 8326 8125 
4 8125 8326 8327 8126 
4 8126 8327 8328 8127 
4 8127 8328 8329 8128 
4 8128 8329 8330 8129 
4 8129 8330 8331 8130 
4 8130 8331 8332 8131 
4 8131 8332 8333 8132 
4 8132 8333 8334 8133 
4 8133 8334 8335 8134 
4 8134 8335 8336 8135 
4 8135 8336 8337 8136 
4 8136 8337 8338 8137 
4 8137 8338 8339 8138 
4 8138 8339 8340 8139 
4 8139 8340 8341 8140 
4 8140 8341 8342 8141 
4 8141 8342 8343 8142 
4 8142 8343 8344 8143 
4 8143 8344 8345 8144 
4 8144 8345 8346 8145 
4 8145 8346 8347 8146 
4 8146 8347 8348 8147 
4 8147 8348 8349 8148 
4 8148 8349 8350 8149 
4 8149 8350 8351 8150 
4 8150 8351 8352 8151 
4 8151 8352 8353 8152 
4 8152 8353 8354 8153 
4 8153 8354 8355 8154 
4 8154 8355 8356 8155 
4 8155 8356 8357 8156 
4 8156 8357 8358 8157 
4 8157 8358 8359 8158 
4 8158 8359 8360 8159 
4 8159 8360 8361 8160 
4 8160 8361 8362 8161 
4 8161 8362 8363 8162 
4 8162 8363 8364 8163 
4 8163 8364 8365 8164 
4 8164 8365 8366 8165 
4 8165 8366 8367 8166 
4 8166 8367 8368 8167 
4 8167 8368 8369 8168 
4 8168 8369 8370 8169 
4 8169 8370 8371 8170 
4 8170 8371 8372 8171 
4 8171 8372 8373 8172 
4 8172 8373 8374 8173 
4 8173 8374 8375 8174 
4 8174 8375 8376 8175 
4 8175 8376 8377 8176 
4 8176 8377 8378 8177 
4 8177 8378 8379 8178 
4 8178 8379 8380 8179 
4 8179 8380 8381 8180 
4 8180 8381 8382 8181 
4 8181 8382 8383 8182 
4 8182 8383 8384 8183 
4 8183 8384 8385 8184 
4 8184 8385 8386 8185 
4 8185 8386 8387 8186 
4 8186 8387 8388 8187 
4 8187 8388 8389 8188 
4 8188 8389 8390 8189 
4 8189 8390 8391 8190 
4 8190 8391 8392 8191 
4 8191 8392 8393 8192 
4 8192 8393 8394 8193 
4 8193 8394 8395 8194 
4 8194 8395 8396 8195 
4 8195 8396 8397 8196 
4 8196 8397 8398 8197 
4 8197 8398 8399 8198 
4 8198 8399 8400 8199 
4 8199 8400 8401 8200 
4 8200 8401 8402 8201 
4 8201 8402 8403 8202 
4 8202 8403 8404 8203 
4 8203 8404 8405 8204 
4 8204 8405 8406 8205 
4 8205 8406 8407 8206 
4 8206 8407 8408 8207 
4 8207 8408 8409 8208 
4 8208 8409 8410 8209 
4 8209 8410 8411 8210 
4 8210 8411 8412 8211 
4 8211 8412 8413 8212 
4 8212 8413 8414 8213 
4 8213 8414 8415 8214 
4 8214 8415 8416 8215 
4 8215 8416 8417 8216 
4 8216 8417 8418 8217 
4 8217 8418 8419 8218 
4 8218 8419 8420 8219 
4 8219 8420 8421 8220 
4 8220 8421 8422 8221 
4 8221 8422 8423 8222 
4 8222 8423 8424 8223 
4 8223 8424 8425 8224 
4 8224 8425 8426 8225 
4 8225 8426 8427 8226 
4 8226 8427 8428 8227 
4 8227 8428 8429 8228 
4 8228 8429 8430 8229 
4 8229 8430 8431 8230 
4 8230 8431 8432 8231 
4 8231 8432 8433 8232 
4 8232 8433 8434 8233 
4 8233 8434 8435 8234 
4 8234 8435 8436 8235 
4 8235 8436 8437 8236 
4 8236 8437 8438 8237 
4 8237 8438 8439 8238 
4 8238 8439 8440 8239 
4 8239 8440 8441 8240 
4 8241 8442 8443 8242 
4 8242 8443 8444 8243 
4 8243 8444 8445 8244 
4 8244 8445 8446 8245 
4 8245 8446 8447 8246 
4 8246 8447 8448 8247 
4 8247 8448 8449 8248 
4 8248 8449 8450 8249 
4 8249 8450 8451 8250 
4 8250 8451 8452 8251 
4 8251 8452 8453 8252 
4 8252 8453 8454 8253 
4 8253 8454 8455 8254 
4 8254 8455 8456 8255 
4 8255 8456 8457 8256 
4 8256 8457 8458 8257 
4 8257 8458 8459 8258 
4 8258 8459 8460 8259 
4 8259 8460 8461 8260 
4 8260 8461 8462 8261 
4 8261 8462 8463 8262 
4 8262 8463 8464 8263 
4 8263 8464 8465 8264 
4 8264 8465 8466 8265 
4 8265 8466 8467 8266 
4 8266 8467 8468 8267 
4 8267 8468 8469 8268 
4 8268 8469 8470 8269 
4 8269 8470 8471 8270 
4 8270 8471 8472 8271 
4 8271 8472 8473 8272 
4 8272 8473 8474 8273 
4 8273 8474 8475 8274 
4 8274 8475 8476 8275 
4 8275 8476 8477 8276 
4 8276 8477 8478 8277 
4 8277 8478 8479 8278 
4 8278 8479 8480 8279 
4 8279 8480 8481 8280 
4 8280 8481 8482 8281 
4 8281 8482 8483 8282 
4 8282 8483 8484 8283 
4 8283 8484 8485 8284 
4 8284 8485 8486 8285 
4 8285 8486 8487 8286 
4 8286 8487 8488 8287 
4 8287 8488 8489 8288 
4 8288 8489 8490 8289 
4 8289 8490 8491 8290 
4 8290 8491 8492 8291 
4 8291 8492 8493 8292 
4 8292 8493 8494 8293 
4 8293 8494 8495 8294 
4 8294 8495 8496 8295 
4 8295 8496 8497 8296 
4 8296 8497 8498 8297 
4 8297 8498 8499 8298 
4 8298 8499 8500 8299 
4 8299 8500 8501 8300 
4 8300 8501 8502 8301 
4 8301 8502 8503 8302 
4 8302 8503 8504 8303 
4 8303 8504 8505 8304 
4 8304 8505 8506 8305 
4 8305 8506 8507 8306 
4 8306 8507 8508 8307 
4 8307 8508 8509 8308 
4 8308 8509 8510 8309 
4 8309 8510 8511 8310 
4 8310 8511 8512 8311 
4 8311 8512 8513 8312 
4 8312 8513 8514 8313 
4 8313 8514 8515 8314 
4 8314 8515 8516 8315 
4 8315 8516 8517 8316 
4 8316 8517 8518 8317 
4 8317 8518 8519 8318 
4 8318 8519 8520 8319 
4 8319 8520 8521 8320 
4 8320 8521 8522 8321 
4 8321 8522 8523 8322 
4 8322 8523 8524 8323 
4 8323 8524 8525 8324 
4 8324 8525 8526 8325 
4 8325 8526 8527 8326 
4 8326 8527 8528 8327 
4 8327 8528 8529 8328 
4 8328 8529 8530 8329 
4 8329 8530 8531 8330 
4 8330 8531 8532 8331 
4 8331 8532 8533 8332 
4 8332 8533 8534 8333 
4 8333 8534 8535 8334 
4 8334 8535 8536 8335 
4 8335 8536 8537 8336 
4 8336 8537 8538 8337 
4 8337 8538 8539 8338 
4 8338 8539 8540 8339 
4 8339 8540 8541 8340 
4 8340 8541 8542 8341 
4 8341 8542 8543 8342 
4 8342 8543 8544 8343 
4 8343 8544 8545 8344 
4 8344 8545 8546 8345 
4 8345 8546 8547 8346 
4 8346 8547 8548 8347 
4 8347 8548 8549 8348 
4 8348 8549 8550 8349 
4 8349 8550 8551 8350 
4 8350 8551 8552 8351 
4 8351 8552 8553 8352 
4 8352 8553 8554 8353 
4 8353 8554 8555 8354 
4 8354 8555 8556 8355 
4 8355 8556 8557 8356 
4 8356 8557 8558 8357 
4 8357 8558 8559 8358 
4 8358 8559 8560 8359 
4 8359 8560 8561 8360 
4 8360 8561 8562 8361 
4 8361 8562 8563 8362 
4 8362 8563 8564 8363 
4 8363 8564 8565 8364 
4 8364 8565 8566 8365 
4 8365 8566 8567 8366 
4 8366 8567 8568 8367 
4 8367 8568 8569 8368 
4 8368 8569 8570 8369 
4 8369 8570 8571 8370 
4 8370 8571 8572 8371 
4 8371 8572 8573 8372 
4 8372 8573 8574 8373 
4 8373 8574 8575 8374 
4 8374 8575 8576 8375 
4 8375 8576 8577 8376 
4 8376 8577 8578 8377 
4 8377 8578 8579 8378 
4 8378 8579 8580 8379 
4 8379 8580 8581 8380 
4 8380 8581 8582 8381 
4 8381 8582 8583 8382 
4 8382 8583 8584 8383 
4 8383 8584 8585 8384 
4 8384 8585 8586 8385 
4 8385 8586 8587 8386 
4 8386 8587 8588 8387 
4 8387 8588 8589 8388 
4 8388 8589 8590 8389 
4 8389 8590 8591 8390 
4 8390 8591 8592 8391 
4 8391 8592 8593 8392 
4 8392 8593 8594 8393 
4 8393 8594 8595 8394 
4 8394 8595 8596 8395 
4 8395 8596 8597 8396 
4 8396 8597 8598 8397 
4 8397 8598 8599 8398 
4 8398 8599 8600 8399 
4 8399 8600 8601 8400 
4 8400 8601 8602 8401 
4 8401 8602 8603 8402 
4 8402 8603 8604 8403 
4 8403 8604 8605 8404 
4 8404 8605 8606 8405 
4 8405 8606 8607 8406 
4 8406 8607 8608 8407 
4 8407 8608 8609 8408 
4 8408 8609 8610 8409 
4 8409 8610 8611 8410 
4 8410 8611 8612 8411 
4 8411 8612 8613 8412 
4 8412 8613 8614 8413 
4 8413 8614 8615 8414 
4 8414 8615 8616 8415 
4 8415 8616 8617 8416 
4 8416 8617 8618 8417 
4 8417 8618 8619 8418 
4 8418 8619 8620 8419 
4 8419 8620 8621 8420 
4 8420 8621 8622 8421 
4 8421 8622 8623 8422 
4 8422 8623 8624 8423 
4 8423 8624 8625 8424 
4 8424 8625 8626 8425 
4 8425 8626 8627 8426 
4 8426 8627 8628 8427 
4 8427 8628 8629 8428 
4 8428 8629 8630 8429 
4 8429 8630 8631 8430 
4 8430 8631 8632 8431 
4 8431 8632 8633 8432 
4 8432 8633 8634 8433 
4 8433 8634 8635 8434 
4 8434 8635 8636 8435 
4 8435 8636 8637 8436 
4 8436 8637 8638 8437 
4 8437 8638 8639 8438 
4 8438 8639 8640 8439 
4 8439 8640 8641 8440 
4 8440 8641 8642 8441 
4 8442 8643 8644 8443 
4 8443 8644 8645 8444 
4 8444 8645 8646 8445 
4 8445 8646 8647 8446 
4 8446 8647 8648 8447 
4 8447 8648 8649 8448 
4 8448 8649 8650 8449 
4 8449 8650 8651 8450 
4 8450 8651 8652 8451 
4 8451 8652 8653 8452 
4 8452 8653 8654 8453 
4 8453 8654 8655 8454 
4 8454 8655 8656 8455 
4 8455 8656 8657 8456 
4 8456 8657 8658 8457 
4 8457 8658 8659 8458 
4 8458 8659 8660 8459 
4 8459 8660 8661 8460 
4 8460 8661 8662 8461 
4 8461 8662 8663 8462 
4 8462 8663 8664 8463 
4 8463 8664 8665 8464 
4 8464 8665 8666 8465 
4 8465 8666 8667 8466 
4 8466 8667 8668 8467 
4 8467 8668 8669 8468 
4 8468 8669 8670 8469 
4 8469 8670 8671 8470 
4 8470 8671 8672 8471 
4 8471 8672 8673 8472 
4 8472 8673 8674 8473 
4 8473 8674 8675 8474 
4 8474 8675 8676 8475 
4 8475 8676 8677 8476 
4 8476 8677 8678 8477 
4 8477 8678 8679 8478 
4 8478 8679 8680 8479 
4 8479 8680 8681 8480 
4 8480 8681 8682 8481 
4 8481 8682 8683 8482 
4 8482 8683 8684 8483 
4 8483 8684 8685 8484 
4 8484 8685 8686 8485 
4 8485 8686 8687 8486 
4 8486 8687 8688 8487 
4 8487 8688 8689 8488 
4 8488 8689 8690 8489 
4 8489 8690 8691 8490 
4 8490 8691 8692 8491 
4 8491 8692 8693 8492 
4 8492 8693 8694 8493 
4 8493 8694 8695 8494 
4 8494 8695 8696 8495 
4 8495 8696 8697 8496 
4 8496 8697 8698 8497 
4 8497 8698 8699 8498 
4 8498 8699 8700 8499 
4 8499 8700 8701 8500 
4 8500 8701 8702 8501 
4 8501 8702 8703 8502 
4 8502 8703 8704 8503 
4 8503 8704 8705 8504 
4 8504 8705 8706 8505 
4 8505 8706 8707 8506 
4 8506 8707 8708 8507 
4 8507 8708 8709 8508 
4 8508 8709 8710 8509 
4 8509 8710 8711 8510 
4 8510 8711 8712 8511 
4 8511 8712 8713 8512 
4 8512 8713 8714 8513 
4 8513 8714 8715 8514 
4 8514 8715 8716 8515 
4 8515 8716 8717 8516 
4 8516 8717 8718 8517 
4 8517 8718 8719 8518 
4 8518 8719 8720 8519 
4 8519 8720 8721 8520 
4 8520 8721 8722 8521 
4 8521 8722 8723 8522 
4 8522 8723 8724 8523 
4 8523 8724 8725 8524 
4 8524 8725 8726 8525 
4 8525 8726 8727 8526 
4 8526 8727 8728 8527 
4 8527 8728 8729 8528 
4 8528 8729 8730 8529 
4 8529 8730 8731 8530 
4 8530 8731 8732 8531 
4 8531 8732 8733 8532 
4 8532 8733 8734 8533 
4 8533 8734 8735 8534 
4 8534 8735 8736 8535 
4 8535 8736 8737 8536 
4 8536 8737 8738 8537 
4 8537 8738 8739 8538 
4 8538 8739 8740 8539 
4 8539 8740 8741 8540 
4 8540 8741 8742 8541 
4 8541 8742 8743 8542 
4 8542 8743 8744 8543 
4 8543 8744 8745 8544 
4 8544 8745 8746 8545 
4 8545 8746 8747 8546 
4 8546 8747 8748 8547 
4 8547 8748 8749 8548 
4 8548 8749 8750 8549 
4 8549 8750 8751 8550 
4 8550 8751 8752 8551 
4 8551 8752 8753 8552 
4 8552 8753 8754 8553 
4 8553 8754 8755 8554 
4 8554 8755 8756 8555 
4 8555 8756 8757 8556 
4 8556 8757 8758 8557 
4 8557 8758 8759 8558 
4 8558 8759 8760 8559 
4 8559 8760 8761 8560 
4 8560 8761 8762 8561 
4 8561 8762 8763 8562 
4 8562 8763 8764 8563 
4 8563 8764 8765 8564 
4 8564 8765 8766 8565 
4 8565 8766 8767 8566 
4 8566 8767 8768 8567 
4 8567 8768 8769 8568 
4 8568 8769 8770 8569 
4 8569 8770 8771 8570 
4 8570 8771 8772 8571 
4 8571 8772 8773 8572 
4 8572 8773 8774 8573 
4 8573 8774 8775 8574 
4 8574 8775 8776 8575 
4 8575 8776 8777 8576 
4 8576 8777 8778 8577 
4 8577 8778 8779 8578 
4 8578 8779 8780 8579 
4 8579 8780 8781 8580 
4 8580 8781 8782 8581 
4 8581 8782 8783 8582 
4 8582 8783 8784 8583 
4 8583 8784 8785 8584 
4 8584 8785 8786 8585 
4 8585 8786 8787 8586 
4 8586 8787 8788 8587 
4 8587 8788 8789 8588 
4 8588 8789 8790 8589 
4 8589 8790 8791 8590 
4 8590 8791 8792 8591 
4 8591 8792 8793 8592 
4 8592 8793 8794 8593 
4 8593 8794 8795 8594 
4 8594 8795 8796 8595 
4 8595 8796 8797 8596 
4 8596 8797 8798 8597 
4 8597 8798 8799 8598 
4 8598 8799 8800 8599 
4 8599 8800 8801 8600 
4 8600 8801 8802 8601 
4 8601 8802 8803 8602 
4 8602 8803 8804 8603 
4 8603 8804 8805 8604 
4 8604 8805 8806 8605 
4 8605 8806 8807 8606 
4 8606 8807 8808 8607 
4 8607 8808 8809 8608 
4 8608 8809 8810 8609 
4 8609 8810 8811 8610 
4 8610 8811 8812 8611 
4 8611 8812 8813 8612 
4 8612 8813 8814 8613 
4 8613 8814 8815 8614 
4 8614 8815 8816 8615 
4 8615 8816 8817 8616 
4 8616 8817 8818 8617 
4 8617 8818 8819 8618 
4 8618 8819 8820 8619 
4 8619 8820 8821 8620 
4 8620 8821 8822 8621 
4 8621 8822 8823 8622 
4 8622 8823 8824 8623 
4 8623 8824 8825 8624 
4 8624 8825 8826 8625 
4 8625 8826 8827 8626 
4 8626 8827 8828 8627 
4 8627 8828 8829 8628 
4 8628 8829 8830 8629 
4 8629 8830 8831 8630 
4 8630 8831 8832 8631 
4 8631 8832 8833 8632 
4 8632 8833 8834 8633 
4 8633 8834 8835 8634 
4 8634 8835 8836 8635 
4 8635 8836 8837 8636 
4 8636 8837 8838 8637 
4 8637 8838 8839 8638 
4 8638 8839 8840 8639 
4 8639 8840 8841 8640 
4 8640 8841 8842 8641 
4 8641 8842 8843 8642 
4 8643 8844 8845 8644 
4 8644 8845 8846 8645 
4 8645 8846 8847 8646 
4 8646 8847 8848 8647 
4 8647 8848 8849 8648 
4 8648 8849 8850 8649 
4 8649 8850 8851 8650 
4 8650 8851 8852 8651 
4 8651 8852 8853 8652 
4 8652 8853 8854 8653 
4 8653 8854 8855 8654 
4 8654 8855 8856 8655 
4 8655 8856 8857 8656 
4 8656 8857 8858 8657 
4 8657 8858 8859 8658 
4 8658 8859 8860 8659 
4 8659 8860 8861 8660 
4 8660 8861 8862 8661 
4 8661 8862 8863 8662 
4 8662 8863 8864 8663 
4 8663 8864 8865 8664 
4 8664 8865 8866 8665 
4 8665 8866 8867 8666 
4 8666 8867 8868 8667 
4 8667 8868 8869 8668 
4 8668 8869 8870 8669 
4 8669 8870 8871 8670 
4 8670 8871 8872 8671 
4 8671 8872 8873 8672 
4 8672 8873 8874 8673 
4 8673 8874 8875 8674 
4 8674 8875 8876 8675 
4 8675 8876 8877 8676 
4 8676 8877 8878 8677 
4 8677 8878 8879 8678 
4 8678 8879 8880 8679 
4 8679 8880 8881 8680 
4 8680 8881 8882 8681 
4 8681 8882 8883 8682 
4 8682 8883 8884 8683 
4 8683 8884 8885 8684 
4 8684 8885 8886 8685 
4 8685 8886 8887 8686 
4 8686 8887 8888 8687 
4 8687 8888 8889 8688 
4 8688 8889 8890 8689 
4 8689 8890 8891 8690 
4 8690 8891 8892 8691 
4 8691 8892 8893 8692 
4 8692 8893 8894 8693 
4 8693 8894 8895 8694 
4 8694 8895 8896 8695 
4 8695 8896 8897 8696 
4 8696 8897 8898 8697 
4 8697 8898 8899 8698 
4 8698 8899 8900 8699 
4 8699 8900 8901 8700 
4 8700 8901 8902 8701 
4 8701 8902 8903 8702 
4 8702 8903 8904 8703 
4 8703 8904 8905 8704 
4 8704 8905 8906 8705 
4 8705 8906 8907 8706 
4 8706 8907 8908 8707 
4 8707 8908 8909 8708 
4 8708 8909 8910 8709 
4 8709 8910 8911 8710 
4 8710 8911 8912 8711 
4 8711 8912 8913 8712 
4 8712 8913 8914 8713 
4 8713 8914 8915 8714 
4 8714 8915 8916 8715 
4 8715 8916 8917 8716 
4 8716 8917 8918 8717 
4 8717 8918 8919 8718 
4 8718 8919 8920 8719 
4 8719 8920 8921 8720 
4 8720 8921 8922 8721 
4 8721 8922 8923 8722 
4 8722 8923 8924 8723 
4 8723 8924 8925 8724 
4 8724 8925 8926 8725 
4 8725 8926 8927 8726 
4 8726 8927 8928 8727 
4 8727 8928 8929 8728 
4 8728 8929 8930 8729 
4 8729 8930 8931 8730 
4 8730 8931 8932 8731 
4 8731 8932 8933 8732 
4 8732 8933 8934 8733 
4 8733 8934 8935 8734 
4 8734 8935 8936 8735 
4 8735 8936 8937 8736 
4 8736 8937 8938 8737 
4 8737 8938 8939 8738 
4 8738 8939 8940 8739 
4 8739 8940 8941 8740 
4 8740 8941 8942 8741 
4 8741 8942 8943 8742 
4 8742 8943 8944 8743 
4 8743 8944 8945 8744 
4 8744 8945 8946 8745 
4 8745 8946 8947 8746 
4 8746 8947 8948 8747 
4 8747 8948 8949 8748 
4 8748 8949 8950 8749 
4 8749 8950 8951 8750 
4 8750 8951 8952 8751 
4 8751 8952 8953 8752 
4 8752 8953 8954 8753 
4 8753 8954 8955 8754 
4 8754 8955 8956 8755 
4 8755 8956 8957 8756 
4 8756 8957 8958 8757 
4 8757 8958 8959 8758 
4 8758 8959 8960 8759 
4 8759 8960 8961 8760 
4 8760 8961 8962 8761 
4 8761 8962 8963 8762 
4 8762 8963 8964 8763 
4 8763 8964 8965 8764 
4 8764 8965 8966 8765 
4 8765 8966 8967 8766 
4 8766 8967 8968 8767 
4 8767 8968 8969 8768 
4 8768 8969 8970 8769 
4 8769 8970 8971 8770 
4 8770 8971 8972 8771 
4 8771 8972 8973 8772 
4 8772 8973 8974 8773 
4 8773 8974 8975 8774 
4 8774 8975 8976 8775 
4 8775 8976 8977 8776 
4 8776 8977 8978 8777 
4 8777 8978 8979 8778 
4 8778 8979 8980 8779 
4 8779 8980 8981 8780 
4 8780 8981 8982 8781 
4 8781 8982 8983 8782 
4 8782 8983 8984 8783 
4 8783 8984 8985 8784 
4 8784 8985 8986 8785 
4 8785 8986 8987 8786 
4 8786 8987 8988 8787 
4 8787 8988 8989 8788 
4 8788 8989 8990 8789 
4 8789 8990 8991 8790 
4 8790 8991 8992 8791 
4 8791 8992 8993 8792 
4 8792 8993 8994 8793 
4 8793 8994 8995 8794 
4 8794 8995 8996 8795 
4 8795 8996 8997 8796 
4 8796 8997 8998 8797 
4 8797 8998 8999 8798 
4 8798 8999 9000 8799 
4 8799 9000 9001 8800 
4 8800 9001 9002 8801 
4 8801 9002 9003 8802 
4 8802 9003 9004 8803 
4 8803 9004 9005 8804 
4 8804 9005 9006 8805 
4 8805 9006 9007 8806 
4 8806 9007 9008 8807 
4 8807 9008 9009 8808 
4 8808 9009 9010 8809 
4 8809 9010 9011 8810 
4 8810 9011 9012 8811 
4 8811 9012 9013 8812 
4 8812 9013 9014 8813 
4 8813 9014 9015 8814 
4 8814 9015 9016 8815 
4 8815 9016 9017 8816 
4 8816 9017 9018 8817 
4 8817 9018 9019 8818 
4 8818 9019 9020 8819 
4 8819 9020 9021 8820 
4 8820 9021 9022 8821 
4 8821 9022 9023 8822 
4 8822 9023 9024 8823 
4 8823 9024 9025 8824 
4 8824 9025 9026 8825 
4 8825 9026 9027 8826 
4 8826 9027 9028 8827 
4 8827 9028 9029 8828 
4 8828 9029 9030 8829 
4 8829 9030 9031 8830 
4 8830 9031 9032 8831 
4 8831 9032 9033 8832 
4 8832 9033 9034 8833 
4 8833 9034 9035 8834 
4 8834 9035 9036 8835 
4 8835 9036 9037 8836 
4 8836 9037 9038 8837 
4 8837 9038 9039 8838 
4 8838 9039 9040 8839 
4 8839 9040 9041 8840 
4 8840 9041 9042 8841 
4 8841 9042 9043 8842 
4 8842 9043 9044 8843 
4 8844 9045 9046 8845 
4 8845 9046 9047 8846 
4 8846 9047 9048 8847 
4 8847 9048 9049 8848 
4 8848 9049 9050 8849 
4 8849 9050 9051 8850 
4 8850 9051 9052 8851 
4 8851 9052 9053 8852 
4 8852 9053 9054 8853 
4 8853 9054 9055 8854 
4 8854 9055 9056 8855 
4 8855 9056 9057 8856 
4 8856 9057 9058 8857 
4 8857 9058 9059 8858 
4 8858 9059 9060 8859 
4 8859 9060 9061 8860 
4 8860 9061 9062 8861 
4 8861 9062 9063 8862 
4 8862 9063 9064 8863 
4 8863 9064 9065 8864 
4 8864 9065 9066 8865 
4 8865 9066 9067 8866 
4 8866 9067 9068 8867 
4 8867 9068 9069 8868 
4 8868 9069 9070 8869 
4 8869 9070 9071 8870 
4 8870 9071 9072 8871 
4 8871 9072 9073 8872 
4 8872 9073 9074 8873 
4 8873 9074 9075 8874 
4 8874 9075 9076 8875 
4 8875 9076 9077 8876 
4 8876 9077 9078 8877 
4 8877 9078 9079 8878 
4 8878 9079 9080 8879 
4 8879 9080 9081 8880 
4 8880 9081 9082 8881 
4 8881 9082 9083 8882 
4 8882 9083 9084 8883 
4 8883 9084 9085 8884 
4 8884 9085 9086 8885 
4 8885 9086 9087 8886 
4 8886 9087 9088 8887 
4 8887 9088 9089 8888 
4 8888 9089 9090 8889 
4 8889 9090 9091 8890 
4 8890 9091 9092 8891 
4 8891 9092 9093 8892 
4 8892 9093 9094 8893 
4 8893 9094 9095 8894 
4 8894 9095 9096 8895 
4 8895 9096 9097 8896 
4 8896 9097 9098 8897 
4 8897 9098 9099 8898 
4 8898 9099 9100 8899 
4 8899 9100 9101 8900 
4 8900 9101 9102 8901 
4 8901 9102 9103 8902 
4 8902 9103 9104 8903 
4 8903 9104 9105 8904 
4 8904 9105 9106 8905 
4 8905 9106 9107 8906 
4 8906 9107 9108 8907 
4 8907 9108 9109 8908 
4 8908 9109 9110 8909 
4 8909 9110 9111 8910 
4 8910 9111 9112 8911 
4 8911 9112 9113 8912 
4 8912 9113 9114 8913 
4 8913 9114 9115 8914 
4 8914 9115 9116 8915 
4 8915 9116 9117 8916 
4 8916 9117 9118 8917 
4 8917 9118 9119 8918 
4 8918 9119 9120 8919 
4 8919 9120 9121 8920 
4 8920 9121 9122 8921 
4 8921 9122 9123 8922 
4 8922 9123 9124 8923 
4 8923 9124 9125 8924 
4 8924 9125 9126 8925 
4 8925 9126 9127 8926 
4 8926 9127 9128 8927 
4 8927 9128 9129 8928 
4 8928 9129 9130 8929 
4 8929 9130 9131 8930 
4 8930 9131 9132 8931 
4 8931 9132 9133 8932 
4 8932 9133 9134 8933 
4 8933 9134 9135 8934 
4 8934 9135 9136 8935 
4 8935 9136 9137 8936 
4 8936 9137 9138 8937 
4 8937 9138 9139 8938 
4 8938 9139 9140 8939 
4 8939 9140 9141 8940 
4 8940 9141 9142 8941 
4 8941 9142 9143 8942 
4 8942 9143 9144 8943 
4 8943 9144 9145 8944 
4 8944 9145 9146 8945 
4 8945 9146 9147 8946 
4 8946 9147 9148 8947 
4 8947 9148 9149 8948 
4 8948 9149 9150 8949 
4 8949 9150 9151 8950 
4 8950 9151 9152 8951 
4 8951 9152 9153 8952 
4 8952 9153 9154 8953 
4 8953 9154 9155 8954 
4 8954 9155 9156 8955 
4 8955 9156 9157 8956 
4 8956 9157 9158 8957 
4 8957 9158 9159 8958 
4 8958 9159 9160 8959 
4 8959 9160 9161 8960 
4 8960 9161 9162 8961 
4 8961 9162 9163 8962 
4 8962 9163 9164 8963 
4 8963 9164 9165 8964 
4 8964 9165 9166 8965 
4 8965 9166 9167 8966 
4 8966 9167 9168 8967 
4 8967 9168 9169 8968 
4 8968 9169 9170 8969 
4 8969 9170 9171 8970 
4 8970 9171 9172 8971 
4 8971 9172 9173 8972 
4 8972 9173 9174 8973 
4 8973 9174 9175 8974 
4 8974 9175 9176 8975 
4 8975 9176 9177 8976 
4 8976 9177 9178 8977 
4 8977 9178 9179 8978 
4 8978 9179 9180 8979 
4 8979 9180 9181 8980 
4 8980 9181 9182 8981 
4 8981 9182 9183 8982 
4 8982 9183 9184 8983 
4 8983 9184 9185 8984 
4 8984 9185 9186 8985 
4 8985 9186 9187 8986 
4 8986 9187 9188 8987 
4 8987 9188 9189 8988 
4 8988 9189 9190 8989 
4 8989 9190 9191 8990 
4 8990 9191 9192 8991 
4 8991 9192 9193 8992 
4 8992 9193 9194 8993 
4 8993 9194 9195 8994 
4 8994 9195 9196 8995 
4 8995 9196 9197 8996 
4 8996 9197 9198 8997 
4 8997 9198 9199 8998 
4 8998 9199 9200 8999 
4 8999 9200 9201 9000 
4 9000 9201 9202 9001 
4 9001 9202 9203 9002 
4 9002 9203 9204 9003 
4 9003 9204 9205 9004 
4 9004 9205 9206 9005 
4 9005 9206 9207 9006 
4 9006 9207 9208 9007 
4 9007 9208 9209 9008 
4 9008 9209 9210 9009 
4 9009 9210 9211 9010 
4 9010 9211 9212 9011 
4 9011 9212 9213 9012 
4 9012 9213 9214 9013 
4 9013 9214 9215 9014 
4 9014 9215 9216 9015 
4 9015 9216 9217 9016 
4 9016 9217 9218 9017 
4 9017 9218 9219 9018 
4 9018 9219 9220 9019 
4 9019 9220 9221 9020 
4 9020 9221 9222 9021 
4 9021 9222 9223 9022 
4 9022 9223 9224 9023 
4 9023 9224 9225 9024 
4 9024 9225 9226 9025 
4 9025 9226 9227 9026 
4 9026 9227 9228 9027 
4 9027 9228 9229 9028 
4 9028 9229 9230 9029 
4 9029 9230 9231 9030 
4 9030 9231 9232 9031 
4 9031 9232 9233 9032 
4 9032 9233 9234 9033 
4 9033 9234 9235 9034 
4 9034 9235 9236 9035 
4 9035 9236 9237 9036 
4 9036 9237 9238 9037 
4 9037 9238 9239 9038 
4 9038 9239 9240 9039 
4 9039 9240 9241 9040 
4 9040 9241 9242 9041 
4 9041 9242 9243 9042 
4 9042 9243 9244 9043 
4 9043 9244 9245 9044 
4 9045 9246 9247 9046 
4 9046 9247 9248 9047 
4 9047 9248 9249 9048 
4 9048 9249 9250 9049 
4 9049 9250 9251 9050 
4 9050 9251 9252 9051 
4 9051 9252 9253 9052 
4 9052 9253 9254 9053 
4 9053 9254 9255 9054 
4 9054 9255 9256 9055 
4 9055 9256 9257 9056 
4 9056 9257 9258 9057 
4 9057 9258 9259 9058 
4 9058 9259 9260 9059 
4 9059 9260 9261 9060 
4 9060 9261 9262 9061 
4 9061 9262 9263 9062 
4 9062 9263 9264 9063 
4 9063 9264 9265 9064 
4 9064 9265 9266 9065 
4 9065 9266 9267 9066 
4 9066 9267 9268 9067 
4 9067 9268 9269 9068 
4 9068 9269 9270 9069 
4 9069 9270 9271 9070 
4 9070 9271 9272 9071 
4 9071 9272 9273 9072 
4 9072 9273 9274 9073 
4 9073 9274 9275 9074 
4 9074 9275 9276 9075 
4 9075 9276 9277 9076 
4 9076 9277 9278 9077 
4 9077 9278 9279 9078 
4 9078 9279 9280 9079 
4 9079 9280 9281 9080 
4 9080 9281 9282 9081 
4 9081 9282 9283 9082 
4 9082 9283 9284 9083 
4 9083 9284 9285 9084 
4 9084 9285 9286 9085 
4 9085 9286 9287 9086 
4 9086 9287 9288 9087 
4 9087 9288 9289 9088 
4 9088 9289 9290 9089 
4 9089 9290 9291 9090 
4 9090 9291 9292 9091 
4 9091 9292 9293 9092 
4 9092 9293 9294 9093 
4 9093 9294 9295 9094 
4 9094 9295 9296 9095 
4 9095 9296 9297 9096 
4 9096 9297 9298 9097 
4 9097 9298 9299 9098 
4 9098 9299 9300 9099 
4 9099 9300 9301 9100 
4 9100 9301 9302 9101 
4 9101 9302 9303 9102 
4 9102 9303 9304 9103 
4 9103 9304 9305 9104 
4 9104 9305 9306 9105 
4 9105 9306 9307 9106 
4 9106 9307 9308 9107 
4 9107 9308 9309 9108 
4 9108 9309 9310 9109 
4 9109 9310 9311 9110 
4 9110 9311 9312 9111 
4 9111 9312 9313 9112 
4 9112 9313 9314 9113 
4 9113 9314 9315 9114 
4 9114 9315 9316 9115 
4 9115 9316 9317 9116 
4 9116 9317 9318 9117 
4 9117 9318 9319 9118 
4 9118 9319 9320 9119 
4 9119 9320 9321 9120 
4 9120 9321 9322 9121 
4 9121 9322 9323 9122 
4 9122 9323 9324 9123 
4 9123 9324 9325 9124 
4 9124 9325 9326 9125 
4 9125 9326 9327 9126 
4 9126 9327 9328 9127 
4 9127 9328 9329 9128 
4 9128 9329 9330 9129 
4 9129 9330 9331 9130 
4 9130 9331 9332 9131 
4 9131 9332 9333 9132 
4 9132 9333 9334 9133 
4 9133 9334 9335 9134 
4 9134 9335 9336 9135 
4 9135 9336 9337 9136 
4 9136 9337 9338 9137 
4 9137 9338 9339 9138 
4 9138 9339 9340 9139 
4 9139 9340 9341 9140 
4 9140 9341 9342 9141 
4 9141 9342 9343 9142 
4 9142 9343 9344 9143 
4 9143 9344 9345 9144 
4 9144 9345 9346 9145 
4 9145 9346 9347 9146 
4 9146 9347 9348 9147 
4 9147 9348 9349 9148 
4 9148 9349 9350 9149 
4 9149 9350 9351 9150 
4 9150 9351 9352 9151 
4 9151 9352 9353 9152 
4 9152 9353 9354 9153 
4 9153 9354 9355 9154 
4 9154 9355 9356 9155 
4 9155 9356 9357 9156 
4 9156 9357 9358 9157 
4 9157 9358 9359 9158 
4 9158 9359 9360 9159 
4 9159 9360 9361 9160 
4 9160 9361 9362 9161 
4 9161 9362 9363 9162 
4 9162 9363 9364 9163 
4 9163 9364 9365 9164 
4 9164 9365 9366 9165 
4 9165 9366 9367 9166 
4 9166 9367 9368 9167 
4 9167 9368 9369 9168 
4 9168 9369 9370 9169 
4 9169 9370 9371 9170 
4 9170 9371 9372 9171 
4 9171 9372 9373 9172 
4 9172 9373 9374 9173 
4 9173 9374 9375 9174 
4 9174 9375 9376 9175 
4 9175 9376 9377 9176 
4 9176 9377 9378 9177 
4 9177 9378 9379 9178 
4 9178 9379 9380 9179 
4 9179 9380 9381 9180 
4 9180 9381 9382 9181 
4 9181 9382 9383 9182 
4 9182 9383 9384 9183 
4 9183 9384 9385 9184 
4 9184 9385 9386 9185 
4 9185 9386 9387 9186 
4 9186 9387 9388 9187 
4 9187 9388 9389 9188 
4 9188 9389 9390 9189 
4 9189 9390 9391 9190 
4 9190 9391 9392 9191 
4 9191 9392 9393 9192 
4 9192 9393 9394 9193 
4 9193 9394 9395 9194 
4 9194 9395 9396 9195 
4 9195 9396 9397 9196 
4 9196 9397 9398 9197 
4 9197 9398 9399 9198 
4 9198 9399 9400 9199 
4 9199 9400 9401 9200 
4 9200 9401 9402 9201 
4 9201 9402 9403 9202 
4 9202 9403 9404 9203 
4 9203 9404 9405 9204 
4 9204 9405 9406 9205 
4 9205 9406 9407 9206 
4 9206 9407 9408 9207 
4 9207 9408 9409 9208 
4 9208 9409 9410 9209 
4 9209 9410 9411 9210 
4 9210 9411 9412 9211 
4 9211 9412 9413 9212 
4 9212 9413 9414 9213 
4 9213 9414 9415 9214 
4 9214 9415 9416 9215 
4 9215 9416 9417 9216 
4 9216 9417 9418 9217 
4 9217 9418 9419 9218 
4 9218 9419 9420 9219 
4 9219 9420 9421 9220 
4 9220 9421 9422 9221 
4 9221 9422 9423 9222 
4 9222 9423 9424 9223 
4 9223 9424 9425 9224 
4 9224 9425 9426 9225 
4 9225 9426 9427 9226 
4 9226 9427 9428 9227 
4 9227 9428 9429 9228 
4 9228 9429 9430 9229 
4 9229 9430 9431 9230 
4 9230 9431 9432 9231 
4 9231 9432 9433 9232 
4 9232 9433 9434 9233 
4 9233 9434 9435 9234 
4 9234 9435 9436 9235 
4 9235 9436 9437 9236 
4 9236 9437 9438 9237 
4 9237 9438 9439 9238 
4 9238 9439 9440 9239 
4 9239 9440 9441 9240 
4 9240 9441 9442 9241 
4 9241 9442 9443 9242 
4 9242 9443 9444 9243 
4 9243 9444 9445 9244 
4 9244 9445 9446 9245 
4 9246 9447 9448 9247 
4 9247 9448 9449 9248 
4 9248 9449 9450 9249 
4 9249 9450 9451 9250 
4 9250 9451 9452 9251 
4 9251 9452 9453 9252 
4 9252 9453 9454 9253 
4 9253 9454 9455 9254 
4 9254 9455 9456 9255 
4 9255 9456 9457 9256 
4 9256 9457 9458 9257 
4 9257 9458 9459 9258 
4 9258 9459 9460 9259 
4 9259 9460 9461 9260 
4 9260 9461 9462 9261 
4 9261 9462 9463 9262 
4 9262 9463 9464 9263 
4 9263 9464 9465 9264 
4 9264 9465 9466 9265 
4 9265 9466 9467 9266 
4 9266 9467 9468 9267 
4 9267 9468 9469 9268 
4 9268 9469 9470 9269 
4 9269 9470 9471 9270 
4 9270 9471 9472 9271 
4 9271 9472 9473 9272 
4 9272 9473 9474 9273 
4 9273 9474 9475 9274 
4 9274 9475 9476 9275 
4 9275 9476 9477 9276 
4 9276 9477 9478 9277 
4 9277 9478 9479 9278 
4 9278 9479 9480 9279 
4 9279 9480 9481 9280 
4 9280 9481 9482 9281 
4 9281 9482 9483 9282 
4 9282 9483 9484 9283 
4 9283 9484 9485 9284 
4 9284 9485 9486 9285 
4 9285 9486 9487 9286 
4 9286 9487 9488 9287 
4 9287 9488 9489 9288 
4 9288 9489 9490 9289 
4 9289 9490 9491 9290 
4 9290 9491 9492 9291 
4 9291 9492 9493 9292 
4 9292 9493 9494 9293 
4 9293 9494 9495 9294 
4 9294 9495 9496 9295 
4 9295 9496 9497 9296 
4 9296 9497 9498 9297 
4 9297 9498 9499 9298 
4 9298 9499 9500 9299 
4 9299 9500 9501 9300 
4 9300 9501 9502 9301 
4 9301 9502 9503 9302 
4 9302 9503 9504 9303 
4 9303 9504 9505 9304 
4 9304 9505 9506 9305 
4 9305 9506 9507 9306 
4 9306 9507 9508 9307 
4 9307 9508 9509 9308 
4 9308 9509 9510 9309 
4 9309 9510 9511 9310 
4 9310 9511 9512 9311 
4 9311 9512 9513 9312 
4 9312 9513 9514 9313 
4 9313 9514 9515 9314 
4 9314 9515 9516 9315 
4 9315 9516 9517 9316 
4 9316 9517 9518 9317 
4 9317 9518 9519 9318 
4 9318 9519 9520 9319 
4 9319 9520 9521 9320 
4 9320 9521 9522 9321 
4 9321 9522 9523 9322 
4 9322 9523 9524 9323 
4 9323 9524 9525 9324 
4 9324 9525 9526 9325 
4 9325 9526 9527 9326 
4 9326 9527 9528 9327 
4 9327 9528 9529 9328 
4 9328 9529 9530 9329 
4 9329 9530 9531 9330 
4 9330 9531 9532 9331 
4 9331 9532 9533 9332 
4 9332 9533 9534 9333 
4 9333 9534 9535 9334 
4 9334 9535 9536 9335 
4 9335 9536 9537 9336 
4 9336 9537 9538 9337 
4 9337 9538 9539 9338 
4 9338 9539 9540 9339 
4 9339 9540 9541 9340 
4 9340 9541 9542 9341 
4 9341 9542 9543 9342 
4 9342 9543 9544 9343 
4 9343 9544 9545 9344 
4 9344 9545 9546 9345 
4 9345 9546 9547 9346 
4 9346 9547 9548 9347 
4 9347 9548 9549 9348 
4 9348 9549 9550 9349 
4 9349 9550 9551 9350 
4 9350 9551 9552 9351 
4 9351 9552 9553 9352 
4 9352 9553 9554 9353 
4 9353 9554 9555 9354 
4 9354 9555 9556 9355 
4 9355 9556 9557 9356 
4 9356 9557 9558 9357 
4 9357 9558 9559 9358 
4 9358 9559 9560 9359 
4 9359 9560 9561 9360 
4 9360 9561 9562 9361 
4 9361 9562 9563 9362 
4 9362 9563 9564 9363 
4 9363 9564 9565 9364 
4 9364 9565 9566 9365 
4 9365 9566 9567 9366 
4 9366 9567 9568 9367 
4 9367 9568 9569 9368 
4 9368 9569 9570 9369 
4 9369 9570 9571 9370 
4 9370 9571 9572 9371 
4 9371 9572 9573 9372 
4 9372 9573 9574 9373 
4 9373 9574 9575 9374 
4 9374 9575 9576 9375 
4 9375 9576 9577 9376 
4 9376 9577 9578 9377 
4 9377 9578 9579 9378 
4 9378 9579 9580 9379 
4 9379 9580 9581 9380 
4 9380 9581 9582 9381 
4 9381 9582 9583 9382 
4 9382 9583 9584 9383 
4 9383 9584 9585 9384 
4 9384 9585 9586 9385 
4 9385 9586 9587 9386 
4 9386 9587 9588 9387 
4 9387 9588 9589 9388 
4 9388 9589 9590 9389 
4 9389 9590 9591 9390 
4 9390 9591 9592 9391 
4 9391 9592 9593 9392 
4 9392 9593 9594 9393 
4 9393 9594 9595 9394 
4 9394 9595 9596 9395 
4 9395 9596 9597 9396 
4 9396 9597 9598 9397 
4 9397 9598 9599 9398 
4 9398 9599 9600 9399 
4 9399 9600 9601 9400 
4 9400 9601 9602 9401 
4 9401 9602 9603 9402 
4 9402 9603 9604 9403 
4 9403 9604 9605 9404 
4 9404 9605 9606 9405 
4 9405 9606 9607 9406 
4 9406 9607 9608 9407 
4 9407 9608 9609 9408 
4 9408 9609 9610 9409 
4 9409 9610 9611 9410 
4 9410 9611 9612 9411 
4 9411 9612 9613 9412 
4 9412 9613 9614 9413 
4 9413 9614 9615 9414 
4 9414 9615 9616 9415 
4 9415 9616 9617 9416 
4 9416 9617 9618 9417 
4 9417 9618 9619 9418 
4 9418 9619 9620 9419 
4 9419 9620 9621 9420 
4 9420 9621 9622 9421 
4 9421 9622 9623 9422 
4 9422 9623 9624 9423 
4 9423 9624 9625 9424 
4 9424 9625 9626 9425 
4 9425 9626 9627 9426 
4 9426 9627 9628 9427 
4 9427 9628 9629 9428 
4 9428 9629 9630 9429 
4 9429 9630 9631 9430 
4 9430 9631 9632 9431 
4 9431 9632 9633 9432 
4 9432 9633 9634 9433 
4 9433 9634 9635 9434 
4 9434 9635 9636 9435 
4 9435 9636 9637 9436 
4 9436 9637 9638 9437 
4 9437 9638 9639 9438 
4 9438 9639 9640 9439 
4 9439 9640 9641 9440 
4 9440 9641 9642 9441 
4 9441 9642 9643 9442 
4 9442 9643 9644 9443 
4 9443 9644 9645 9444 
4 9444 9645 9646 9445 
4 9445 9646 9647 9446 
4 9447 9648 9649 9448 
4 9448 9649 9650 9449 
4 9449 9650 9651 9450 
4 9450 9651 9652 9451 
4 9451 9652 9653 9452 
4 9452 9653 9654 9453 
4 9453 9654 9655 9454 
4 9454 9655 9656 9455 
4 9455 9656 9657 9456 
4 9456 9657 9658 9457 
4 9457 9658 9659 9458 
4 9458 9659 9660 9459 
4 9459 9660 9661 9460 
4 9460 9661 9662 9461 
4 9461 9662 9663 9462 
4 9462 9663 9664 9463 
4 9463 9664 9665 9464 
4 9464 9665 9666 9465 
4 9465 9666 9667 9466 
4 9466 9667 9668 9467 
4 9467 9668 9669 9468 
4 9468 9669 9670 9469 
4 9469 9670 9671 9470 
4 9470 9671 9672 9471 
4 9471 9672 9673 9472 
4 9472 9673 9674 9473 
4 9473 9674 9675 9474 
4 9474 9675 9676 9475 
4 9475 9676 9677 9476 
4 9476 9677 9678 9477 
4 9477 9678 9679 9478 
4 9478 9679 9680 9479 
4 9479 9680 9681 9480 
4 9480 9681 9682 9481 
4 9481 9682 9683 9482 
4 9482 9683 9684 9483 
4 9483 9684 9685 9484 
4 9484 9685 9686 9485 
4 9485 9686 9687 9486 
4 9486 9687 9688 9487 
4 9487 9688 9689 9488 
4 9488 9689 9690 9489 
4 9489 9690 9691 9490 
4 9490 9691 9692 9491 
4 9491 9692 9693 9492 
4 9492 9693 9694 9493 
4 9493 9694 9695 9494 
4 9494 9695 9696 9495 
4 9495 9696 9697 9496 
4 9496 9697 9698 9497 
4 9497 9698 9699 9498 
4 9498 9699 9700 9499 
4 9499 9700 9701 9500 
4 9500 9701 9702 9501 
4 9501 9702 9703 9502 
4 9502 9703 9704 9503 
4 9503 9704 9705 9504 
4 9504 9705 9706 9505 
4 9505 9706 9707 9506 
4 9506 9707 9708 9507 
4 9507 9708 9709 9508 
4 9508 9709 9710 9509 
4 9509 9710 9711 9510 
4 9510 9711 9712 9511 
4 9511 9712 9713 9512 
4 9512 9713 9714 9513 
4 9513 9714 9715 9514 
4 9514 9715 9716 9515 
4 9515 9716 9717 9516 
4 9516 9717 9718 9517 
4 9517 9718 9719 9518 
4 9518 9719 9720 9519 
4 9519 9720 9721 9520 
4 9520 9721 9722 9521 
4 9521 9722 9723 9522 
4 9522 9723 9724 9523 
4 9523 9724 9725 9524 
4 9524 9725 9726 9525 
4 9525 9726 9727 9526 
4 9526 9727 9728 9527 
4 9527 9728 9729 9528 
4 9528 9729 9730 9529 
4 9529 9730 9731 9530 
4 9530 9731 9732 9531 
4 9531 9732 9733 9532 
4 9532 9733 9734 9533 
4 9533 9734 9735 9534 
4 9534 9735 9736 9535 
4 9535 9736 9737 9536 
4 9536 9737 9738 9537 
4 9537 9738 9739 9538 
4 9538 9739 9740 9539 
4 9539 9740 9741 9540 
4 9540 9741 9742 9541 
4 9541 9742 9743 9542 
4 9542 9743 9744 9543 
4 9543 9744 9745 9544 
4 9544 9745 9746 9545 
4 9545 9746 9747 9546 
4 9546 9747 9748 9547 
4 9547 9748 9749 9548 
4 9548 9749 9750 9549 
4 9549 9750 9751 9550 
4 9550 9751 9752 9551 
4 9551 9752 9753 9552 
4 9552 9753 9754 9553 
4 9553 9754 9755 9554 
4 9554 9755 9756 9555 
4 9555 9756 9757 9556 
4 9556 9757 9758 9557 
4 9557 9758 9759 9558 
4 9558 9759 9760 9559 
4 9559 9760 9761 9560 
4 9560 9761 9762 9561 
4 9561 9762 9763 9562 
4 9562 9763 9764 9563 
4 9563 9764 9765 9564 
4 9564 9765 9766 9565 
4 9565 9766 9767 9566 
4 9566 9767 9768 9567 
4 9567 9768 9769 9568 
4 9568 9769 9770 9569 
4 9569 9770 9771 9570 
4 9570 9771 9772 9571 
4 9571 9772 9773 9572 
4 9572 9773 9774 9573 
4 9573 9774 9775 9574 
4 9574 9775 9776 9575 
4 9575 9776 9777 9576 
4 9576 9777 9778 9577 
4 9577 9778 9779 9578 
4 9578 9779 9780 9579 
4 9579 9780 9781 9580 
4 9580 9781 9782 9581 
4 9581 9782 9783 9582 
4 9582 9783 9784 9583 
4 9583 9784 9785 9584 
4 9584 9785 9786 9585 
4 9585 9786 9787 9586 
4 9586 9787 9788 9587 
4 9587 9788 9789 9588 
4 9588 9789 9790 9589 
4 9589 9790 9791 9590 
4 9590 9791 9792 9591 
4 9591 9792 9793 9592 
4 9592 9793 9794 9593 
4 9593 9794 9795 9594 
4 9594 9795 9796 9595 
4 9595 9796 9797 9596 
4 9596 9797 9798 9597 
4 9597 9798 9799 9598 
4 9598 9799 9800 9599 
4 9599 9800 9801 9600 
4 9600 9801 9802 9601 
4 9601 9802 9803 9602 
4 9602 9803 9804 9603 
4 9603 9804 9805 9604 
4 9604 9805 9806 9605 
4 9605 9806 9807 9606 
4 9606 9807 9808 9607 
4 9607 9808 9809 9608 
4 9608 9809 9810 9609 
4 9609 9810 9811 9610 
4 9610 9811 9812 9611 
4 9611 9812 9813 9612 
4 9612 9813 9814 9613 
4 9613 9814 9815 9614 
4 9614 9815 9816 9615 
4 9615 9816 9817 9616 
4 9616 9817 9818 9617 
4 9617 9818 9819 9618 
4 9618 9819 9820 9619 
4 9619 9820 9821 9620 
4 9620 9821 9822 9621 
4 9621 9822 9823 9622 
4 9622 9823 9824 9623 
4 9623 9824 9825 9624 
4 9624 9825 9826 9625 
4 9625 9826 9827 9626 
4 9626 9827 9828 9627 
4 9627 9828 9829 9628 
4 9628 9829 9830 9629 
4 9629 9830 9831 9630 
4 9630 9831 9832 9631 
4 9631 9832 9833 9632 
4 9632 9833 9834 9633 
4 9633 9834 9835 9634 
4 9634 9835 9836 9635 
4 9635 9836 9837 9636 
4 9636 9837 9838 9637 
4 9637 9838 9839 9638 
4 9638 9839 9840 9639 
4 9639 9840 9841 9640 
4 9640 9841 9842 9641 
4 9641 9842 9843 9642 
4 9642 9843 9844 9643 
4 9643 9844 9845 9644 
4 9644 9845 9846 9645 
4 9645 9846 9847 9646 
4 9646 9847 9848 9647 
4 9648 9849 9850 9649 
4 9649 9850 9851 9650 
4 9650 9851 9852 9651 
4 9651 9852 9853 9652 
4 9652 9853 9854 9653 
4 9653 9854 9855 9654 
4 9654 9855 9856 9655 
4 9655 9856 9857 9656 
4 9656 9857 9858 9657 
4 9657 9858 9859 9658 
4 9658 9859 9860 9659 
4 9659 9860 9861 9660 
4 9660 9861 9862 9661 
4 9661 9862 9863 9662 
4 9662 9863 9864 9663 
4 9663 9864 9865 9664 
4 9664 9865 9866 9665 
4 9665 9866 9867 9666 
4 9666 9867 9868 9667 
4 9667 9868 9869 9668 
4 9668 9869 9870 9669 
4 9669 9870 9871 9670 
4 9670 9871 9872 9671 
4 9671 9872 9873 9672 
4 9672 9873 9874 9673 
4 9673 9874 9875 9674 
4 9674 9875 9876 9675 
4 9675 9876 9877 9676 
4 9676 9877 9878 9677 
4 9677 9878 9879 9678 
4 9678 9879 9880 9679 
4 9679 9880 9881 9680 
4 9680 9881 9882 9681 
4 9681 9882 9883 9682 
4 9682 9883 9884 9683 
4 9683 9884 9885 9684 
4 9684 9885 9886 9685 
4 9685 9886 9887 9686 
4 9686 9887 9888 9687 
4 9687 9888 9889 9688 
4 9688 9889 9890 9689 
4 9689 9890 9891 9690 
4 9690 9891 9892 9691 
4 9691 9892 9893 9692 
4 9692 9893 9894 9693 
4 9693 9894 9895 9694 
4 9694 9895 9896 9695 
4 9695 9896 9897 9696 
4 9696 9897 9898 9697 
4 9697 9898 9899 9698 
4 9698 9899 9900 9699 
4 9699 9900 9901 9700 
4 9700 9901 9902 9701 
4 9701 9902 9903 9702 
4 9702 9903 9904 9703 
4 9703 9904 9905 9704 
4 9704 9905 9906 9705 
4 9705 9906 9907 9706 
4 9706 9907 9908 9707 
4 9707 9908 9909 9708 
4 9708 9909 9910 9709 
4 9709 9910 9911 9710 
4 9710 9911 9912 9711 
4 9711 9912 9913 9712 
4 9712 9913 9914 9713 
4 9713 9914 9915 9714 
4 9714 9915 9916 9715 
4 9715 9916 9917 9716 
4 9716 9917 9918 9717 
4 9717 9918 9919 9718 
4 9718 9919 9920 9719 
4 9719 9920 9921 9720 
4 9720 9921 9922 9721 
4 9721 9922 9923 9722 
4 9722 9923 9924 9723 
4 9723 9924 9925 9724 
4 9724 9925 9926 9725 
4 9725 9926 9927 9726 
4 9726 9927 9928 9727 
4 9727 9928 9929 9728 
4 9728 9929 9930 9729 
4 9729 9930 9931 9730 
4 9730 9931 9932 9731 
4 9731 9932 9933 9732 
4 9732 9933 9934 9733 
4 9733 9934 9935 9734 
4 9734 9935 9936 9735 
4 9735 9936 9937 9736 
4 9736 9937 9938 9737 
4 9737 9938 9939 9738 
4 9738 9939 9940 9739 
4 9739 9940 9941 9740 
4 9740 9941 9942 9741 
4 9741 9942 9943 9742 
4 9742 9943 9944 9743 
4 9743 9944 9945 9744 
4 9744 9945 9946 9745 
4 9745 9946 9947 9746 
4 9746 9947 9948 9747 
4 9747 9948 9949 9748 
4 9748 9949 9950 9749 
4 9749 9950 9951 9750 
4 9750 9951 9952 9751 
4 9751 9952 9953 9752 
4 9752 9953 9954 9753 
4 9753 9954 9955 9754 
4 9754 9955 9956 9755 
4 9755 9956 9957 9756 
4 9756 9957 9958 9757 
4 9757 9958 9959 9758 
4 9758 9959 9960 9759 
4 9759 9960 9961 9760 
4 9760 9961 9962 9761 
4 9761 9962 9963 9762 
4 9762 9963 9964 9763 
4 9763 9964 9965 9764 
4 9764 9965 9966 9765 
4 9765 9966 9967 9766 
4 9766 9967 9968 9767 
4 9767 9968 9969 9768 
4 9768 9969 9970 9769 
4 9769 9970 9971 9770 
4 9770 9971 9972 9771 
4 9771 9972 9973 9772 
4 9772 9973 9974 9773 
4 9773 9974 9975 9774 
4 9774 9975 9976 9775 
4 9775 9976 9977 9776 
4 9776 9977 9978 9777 
4 9777 9978 9979 9778 
4 9778 9979 9980 9779 
4 9779 9980 9981 9780 
4 9780 9981 9982 9781 
4 9781 9982 9983 9782 
4 9782 9983 9984 9783 
4 9783 9984 9985 9784 
4 9784 9985 9986 9785 
4 9785 9986 9987 9786 
4 9786 9987 9988 9787 
4 9787 9988 9989 9788 
4 9788 9989 9990 9789 
4 9789 9990 9991 9790 
4 9790 9991 9992 9791 
4 9791 9992 9993 9792 
4 9792 9993 9994 9793 
4 9793 9994 9995 9794 
4 9794 9995 9996 9795 
4 9795 9996 9997 9796 
4 9796 9997 9998 9797 
4 9797 9998 9999 9798 
4 9798 9999 10000 9799 
4 9799 10000 10001 9800 
4 9800 10001 10002 9801 
4 9801 10002 10003 9802 
4 9802 10003 10004 9803 
4 9803 10004 10005 9804 
4 9804 10005 10006 9805 
4 9805 10006 10007 9806 
4 9806 10007 10008 9807 
4 9807 10008 10009 9808 
4 9808 10009 10010 9809 
4 9809 10010 10011 9810 
4 9810 10011 10012 9811 
4 9811 10012 10013 9812 
4 9812 10013 10014 9813 
4 9813 10014 10015 9814 
4 9814 10015 10016 9815 
4 9815 10016 10017 9816 
4 9816 10017 10018 9817 
4 9817 10018 10019 9818 
4 9818 10019 10020 9819 
4 9819 10020 10021 9820 
4 9820 10021 10022 9821 
4 9821 10022 10023 9822 
4 9822 10023 10024 9823 
4 9823 10024 10025 9824 
4 9824 10025 10026 9825 
4 9825 10026 10027 9826 
4 9826 10027 10028 9827 
4 9827 10028 10029 9828 
4 9828 10029 10030 9829 
4 9829 10030 10031 9830 
4 9830 10031 10032 9831 
4 9831 10032 10033 9832 
4 9832 10033 10034 9833 
4 9833 10034 10035 9834 
4 9834 10035 10036 9835 
4 9835 10036 10037 9836 
4 9836 10037 10038 9837 
4 9837 10038 10039 9838 
4 9838 10039 10040 9839 
4 9839 10040 10041 9840 
4 9840 10041 10042 9841 
4 9841 10042 10043 9842 
4 9842 10043 10044 9843 
4 9843 10044 10045 9844 
4 9844 10045 10046 9845 
4 9845 10046 10047 9846 
4 9846 10047 10048 9847 
4 9847 10048 10049 9848 
4 9849 10050 10051 9850 
4 9850 10051 10052 9851 
4 9851 10052 10053 9852 
4 9852 10053 10054 9853 
4 9853 10054 10055 9854 
4 9854 10055 10056 9855 
4 9855 10056 10057 9856 
4 9856 10057 10058 9857 
4 9857 10058 10059 9858 
4 9858 10059 10060 9859 
4 9859 10060 10061 9860 
4 9860 10061 10062 9861 
4 9861 10062 10063 9862 
4 9862 10063 10064 9863 
4 9863 10064 10065 9864 
4 9864 10065 10066 9865 
4 9865 10066 10067 9866 
4 9866 10067 10068 9867 
4 9867 10068 10069 9868 
4 9868 10069 10070 9869 
4 9869 10070 10071 9870 
4 9870 10071 10072 9871 
4 9871 10072 10073 9872 
4 9872 10073 10074 9873 
4 9873 10074 10075 9874 
4 9874 10075 10076 9875 
4 9875 10076 10077 9876 
4 9876 10077 10078 9877 
4 9877 10078 10079 9878 
4 9878 10079 10080 9879 
4 9879 10080 10081 9880 
4 9880 10081 10082 9881 
4 9881 10082 10083 9882 
4 9882 10083 10084 9883 
4 9883 10084 10085 9884 
4 9884 10085 10086 9885 
4 9885 10086 10087 9886 
4 9886 10087 10088 9887 
4 9887 10088 10089 9888 
4 9888 10089 10090 9889 
4 9889 10090 10091 9890 
4 9890 10091 10092 9891 
4 9891 10092 10093 9892 
4 9892 10093 10094 9893 
4 9893 10094 10095 9894 
4 9894 10095 10096 9895 
4 9895 10096 10097 9896 
4 9896 10097 10098 9897 
4 9897 10098 10099 9898 
4 9898 10099 10100 9899 
4 9899 10100 10101 9900 
4 9900 10101 10102 9901 
4 9901 10102 10103 9902 
4 9902 10103 10104 9903 
4 9903 10104 10105 9904 
4 9904 10105 10106 9905 
4 9905 10106 10107 9906 
4 9906 10107 10108 9907 
4 9907 10108 10109 9908 
4 9908 10109 10110 9909 
4 9909 10110 10111 9910 
4 9910 10111 10112 9911 
4 9911 10112 10113 9912 
4 9912 10113 10114 9913 
4 9913 10114 10115 9914 
4 9914 10115 10116 9915 
4 9915 10116 10117 9916 
4 9916 10117 10118 9917 
4 9917 10118 10119 9918 
4 9918 10119 10120 9919 
4 9919 10120 10121 9920 
4 9920 10121 10122 9921 
4 9921 10122 10123 9922 
4 9922 10123 10124 9923 
4 9923 10124 10125 9924 
4 9924 10125 10126 9925 
4 9925 10126 10127 9926 
4 9926 10127 10128 9927 
4 9927 10128 10129 9928 
4 9928 10129 10130 9929 
4 9929 10130 10131 9930 
4 9930 10131 10132 9931 
4 9931 10132 10133 9932 
4 9932 10133 10134 9933 
4 9933 10134 10135 9934 
4 9934 10135 10136 9935 
4 9935 10136 10137 9936 
4 9936 10137 10138 9937 
4 9937 10138 10139 9938 
4 9938 10139 10140 9939 
4 9939 10140 10141 9940 
4 9940 10141 10142 9941 
4 9941 10142 10143 9942 
4 9942 10143 10144 9943 
4 9943 10144 10145 9944 
4 9944 10145 10146 9945 
4 9945 10146 10147 9946 
4 9946 10147 10148 9947 
4 9947 10148 10149 9948 
4 9948 10149 10150 9949 
4 9949 10150 10151 9950 
4 9950 10151 10152 9951 
4 9951 10152 10153 9952 
4 9952 10153 10154 9953 
4 9953 10154 10155 9954 
4 9954 10155 10156 9955 
4 9955 10156 10157 9956 
4 9956 10157 10158 9957 
4 9957 10158 10159 9958 
4 9958 10159 10160 9959 
4 9959 10160 10161 9960 
4 9960 10161 10162 9961 
4 9961 10162 10163 9962 
4 9962 10163 10164 9963 
4 9963 10164 10165 9964 
4 9964 10165 10166 9965 
4 9965 10166 10167 9966 
4 9966 10167 10168 9967 
4 9967 10168 10169 9968 
4 9968 10169 10170 9969 
4 9969 10170 10171 9970 
4 9970 10171 10172 9971 
4 9971 10172 10173 9972 
4 9972 10173 10174 9973 
4 9973 10174 10175 9974 
4 9974 10175 10176 9975 
4 9975 10176 10177 9976 
4 9976 10177 10178 9977 
4 9977 10178 10179 9978 
4 9978 10179 10180 9979 
4 9979 10180 10181 9980 
4 9980 10181 10182 9981 
4 9981 10182 10183 9982 
4 9982 10183 10184 9983 
4 9983 10184 10185 9984 
4 9984 10185 10186 9985 
4 9985 10186 10187 9986 
4 9986 10187 10188 9987 
4 9987 10188 10189 9988 
4 9988 10189 10190 9989 
4 9989 10190 10191 9990 
4 9990 10191 10192 9991 
4 9991 10192 10193 9992 
4 9992 10193 10194 9993 
4 9993 10194 10195 9994 
4 9994 10195 10196 9995 
4 9995 10196 10197 9996 
4 9996 10197 10198 9997 
4 9997 10198 10199 9998 
4 9998 10199 10200 9999 
4 9999 10200 10201 10000 
4 10000 10201 10202 10001 
4 10001 10202 10203 10002 
4 10002 10203 10204 10003 
4 10003 10204 10205 10004 
4 10004 10205 10206 10005 
4 10005 10206 10207 10006 
4 10006 10207 10208 10007 
4 10007 10208 10209 10008 
4 10008 10209 10210 10009 
4 10009 10210 10211 10010 
4 10010 10211 10212 10011 
4 10011 10212 10213 10012 
4 10012 10213 10214 10013 
4 10013 10214 10215 10014 
4 10014 10215 10216 10015 
4 10015 10216 10217 10016 
4 10016 10217 10218 10017 
4 10017 10218 10219 10018 
4 10018 10219 10220 10019 
4 10019 10220 10221 10020 
4 10020 10221 10222 10021 
4 10021 10222 10223 10022 
4 10022 10223 10224 10023 
4 10023 10224 10225 10024 
4 10024 10225 10226 10025 
4 10025 10226 10227 10026 
4 10026 10227 10228 10027 
4 10027 10228 10229 10028 
4 10028 10229 10230 10029 
4 10029 10230 10231 10030 
4 10030 10231 10232 10031 
4 10031 10232 10233 10032 
4 10032 10233 10234 10033 
4 10033 10234 10235 10034 
4 10034 10235 10236 10035 
4 10035 10236 10237 10036 
4 10036 10237 10238 10037 
4 10037 10238 10239 10038 
4 10038 10239 10240 10039 
4 10039 10240 10241 10040 
4 10040 10241 10242 10041 
4 10041 10242 10243 10042 
4 10042 10243 10244 10043 
4 10043 10244 10245 10044 
4 10044 10245 10246 10045 
4 10045 10246 10247 10046 
4 10046 10247 10248 10047 
4 10047 10248 10249 10048 
4 10048 10249 10250 10049 
4 10050 10251 10252 10051 
4 10051 10252 10253 10052 
4 10052 10253 10254 10053 
4 10053 10254 10255 10054 
4 10054 10255 10256 10055 
4 10055 10256 10257 10056 
4 10056 10257 10258 10057 
4 10057 10258 10259 10058 
4 10058 10259 10260 10059 
4 10059 10260 10261 10060 
4 10060 10261 10262 10061 
4 10061 10262 10263 10062 
4 10062 10263 10264 10063 
4 10063 10264 10265 10064 
4 10064 10265 10266 10065 
4 10065 10266 10267 10066 
4 10066 10267 10268 10067 
4 10067 10268 10269 10068 
4 10068 10269 10270 10069 
4 10069 10270 10271 10070 
4 10070 10271 10272 10071 
4 10071 10272 10273 10072 
4 10072 10273 10274 10073 
4 10073 10274 10275 10074 
4 10074 10275 10276 10075 
4 10075 10276 10277 10076 
4 10076 10277 10278 10077 
4 10077 10278 10279 10078 
4 10078 10279 10280 10079 
4 10079 10280 10281 10080 
4 10080 10281 10282 10081 
4 10081 10282 10283 10082 
4 10082 10283 10284 10083 
4 10083 10284 10285 10084 
4 10084 10285 10286 10085 
4 10085 10286 10287 10086 
4 10086 10287 10288 10087 
4 10087 10288 10289 10088 
4 10088 10289 10290 10089 
4 10089 10290 10291 10090 
4 10090 10291 10292 10091 
4 10091 10292 10293 10092 
4 10092 10293 10294 10093 
4 10093 10294 10295 10094 
4 10094 10295 10296 10095 
4 10095 10296 10297 10096 
4 10096 10297 10298 10097 
4 10097 10298 10299 10098 
4 10098 10299 10300 10099 
4 10099 10300 10301 10100 
4 10100 10301 10302 10101 
4 10101 10302 10303 10102 
4 10102 10303 10304 10103 
4 10103 10304 10305 10104 
4 10104 10305 10306 10105 
4 10105 10306 10307 10106 
4 10106 10307 10308 10107 
4 10107 10308 10309 10108 
4 10108 10309 10310 10109 
4 10109 10310 10311 10110 
4 10110 10311 10312 10111 
4 10111 10312 10313 10112 
4 10112 10313 10314 10113 
4 10113 10314 10315 10114 
4 10114 10315 10316 10115 
4 10115 10316 10317 10116 
4 10116 10317 10318 10117 
4 10117 10318 10319 10118 
4 10118 10319 10320 10119 
4 10119 10320 10321 10120 
4 10120 10321 10322 10121 
4 10121 10322 10323 10122 
4 10122 10323 10324 10123 
4 10123 10324 10325 10124 
4 10124 10325 10326 10125 
4 10125 10326 10327 10126 
4 10126 10327 10328 10127 
4 10127 10328 10329 10128 
4 10128 10329 10330 10129 
4 10129 10330 10331 10130 
4 10130 10331 10332 10131 
4 10131 10332 10333 10132 
4 10132 10333 10334 10133 
4 10133 10334 10335 10134 
4 10134 10335 10336 10135 
4 10135 10336 10337 10136 
4 10136 10337 10338 10137 
4 10137 10338 10339 10138 
4 10138 10339 10340 10139 
4 10139 10340 10341 10140 
4 10140 10341 10342 10141 
4 10141 10342 10343 10142 
4 10142 10343 10344 10143 
4 10143 10344 10345 10144 
4 10144 10345 10346 10145 
4 10145 10346 10347 10146 
4 10146 10347 10348 10147 
4 10147 10348 10349 10148 
4 10148 10349 10350 10149 
4 10149 10350 10351 10150 
4 10150 10351 10352 10151 
4 10151 10352 10353 10152 
4 10152 10353 10354 10153 
4 10153 10354 10355 10154 
4 10154 10355 10356 10155 
4 10155 10356 10357 10156 
4 10156 10357 10358 10157 
4 10157 10358 10359 10158 
4 10158 10359 10360 10159 
4 10159 10360 10361 10160 
4 10160 10361 10362 10161 
4 10161 10362 10363 10162 
4 10162 10363 10364 10163 
4 10163 10364 10365 10164 
4 10164 10365 10366 10165 
4 10165 10366 10367 10166 
4 10166 10367 10368 10167 
4 10167 10368 10369 10168 
4 10168 10369 10370 10169 
4 10169 10370 10371 10170 
4 10170 10371 10372 10171 
4 10171 10372 10373 10172 
4 10172 10373 10374 10173 
4 10173 10374 10375 10174 
4 10174 10375 10376 10175 
4 10175 10376 10377 10176 
4 10176 10377 10378 10177 
4 10177 10378 10379 10178 
4 10178 10379 10380 10179 
4 10179 10380 10381 10180 
4 10180 10381 10382 10181 
4 10181 10382 10383 10182 
4 10182 10383 10384 10183 
4 10183 10384 10385 10184 
4 10184 10385 10386 10185 
4 10185 10386 10387 10186 
4 10186 10387 10388 10187 
4 10187 10388 10389 10188 
4 10188 10389 10390 10189 
4 10189 10390 10391 10190 
4 10190 10391 10392 10191 
4 10191 10392 10393 10192 
4 10192 10393 10394 10193 
4 10193 10394 10395 10194 
4 10194 10395 10396 10195 
4 10195 10396 10397 10196 
4 10196 10397 10398 10197 
4 10197 10398 10399 10198 
4 10198 10399 10400 10199 
4 10199 10400 10401 10200 
4 10200 10401 10402 10201 
4 10201 10402 10403 10202 
4 10202 10403 10404 10203 
4 10203 10404 10405 10204 
4 10204 10405 10406 10205 
4 10205 10406 10407 10206 
4 10206 10407 10408 10207 
4 10207 10408 10409 10208 
4 10208 10409 10410 10209 
4 10209 10410 10411 10210 
4 10210 10411 10412 10211 
4 10211 10412 10413 10212 
4 10212 10413 10414 10213 
4 10213 10414 10415 10214 
4 10214 10415 10416 10215 
4 10215 10416 10417 10216 
4 10216 10417 10418 10217 
4 10217 10418 10419 10218 
4 10218 10419 10420 10219 
4 10219 10420 10421 10220 
4 10220 10421 10422 10221 
4 10221 10422 10423 10222 
4 10222 10423 10424 10223 
4 10223 10424 10425 10224 
4 10224 10425 10426 10225 
4 10225 10426 10427 10226 
4 10226 10427 10428 10227 
4 10227 10428 10429 10228 
4 10228 10429 10430 10229 
4 10229 10430 10431 10230 
4 10230 10431 10432 10231 
4 10231 10432 10433 10232 
4 10232 10433 10434 10233 
4 10233 10434 10435 10234 
4 10234 10435 10436 10235 
4 10235 10436 10437 10236 
4 10236 10437 10438 10237 
4 10237 10438 10439 10238 
4 10238 10439 10440 10239 
4 10239 10440 10441 10240 
4 10240 10441 10442 10241 
4 10241 10442 10443 10242 
4 10242 10443 10444 10243 
4 10243 10444 10445 10244 
4 10244 10445 10446 10245 
4 10245 10446 10447 10246 
4 10246 10447 10448 10247 
4 10247 10448 10449 10248 
4 10248 10449 10450 10249 
4 10249 10450 10451 10250 
4 10251 10452 10453 10252 
4 10252 10453 10454 10253 
4 10253 10454 10455 10254 
4 10254 10455 10456 10255 
4 10255 10456 10457 10256 
4 10256 10457 10458 10257 
4 10257 10458 10459 10258 
4 10258 10459 10460 10259 
4 10259 10460 10461 10260 
4 10260 10461 10462 10261 
4 10261 10462 10463 10262 
4 10262 10463 10464 10263 
4 10263 10464 10465 10264 
4 10264 10465 10466 10265 
4 10265 10466 10467 10266 
4 10266 10467 10468 10267 
4 10267 10468 10469 10268 
4 10268 10469 10470 10269 
4 10269 10470 10471 10270 
4 10270 10471 10472 10271 
4 10271 10472 10473 10272 
4 10272 10473 10474 10273 
4 10273 10474 10475 10274 
4 10274 10475 10476 10275 
4 10275 10476 10477 10276 
4 10276 10477 10478 10277 
4 10277 10478 10479 10278 
4 10278 10479 10480 10279 
4 10279 10480 10481 10280 
4 10280 10481 10482 10281 
4 10281 10482 10483 10282 
4 10282 10483 10484 10283 
4 10283 10484 10485 10284 
4 10284 10485 10486 10285 
4 10285 10486 10487 10286 
4 10286 10487 10488 10287 
4 10287 10488 10489 10288 
4 10288 10489 10490 10289 
4 10289 10490 10491 10290 
4 10290 10491 10492 10291 
4 10291 10492 10493 10292 
4 10292 10493 10494 10293 
4 10293 10494 10495 10294 
4 10294 10495 10496 10295 
4 10295 10496 10497 10296 
4 10296 10497 10498 10297 
4 10297 10498 10499 10298 
4 10298 10499 10500 10299 
4 10299 10500 10501 10300 
4 10300 10501 10502 10301 
4 10301 10502 10503 10302 
4 10302 10503 10504 10303 
4 10303 10504 10505 10304 
4 10304 10505 10506 10305 
4 10305 10506 10507 10306 
4 10306 10507 10508 10307 
4 10307 10508 10509 10308 
4 10308 10509 10510 10309 
4 10309 10510 10511 10310 
4 10310 10511 10512 10311 
4 10311 10512 10513 10312 
4 10312 10513 10514 10313 
4 10313 10514 10515 10314 
4 10314 10515 10516 10315 
4 10315 10516 10517 10316 
4 10316 10517 10518 10317 
4 10317 10518 10519 10318 
4 10318 10519 10520 10319 
4 10319 10520 10521 10320 
4 10320 10521 10522 10321 
4 10321 10522 10523 10322 
4 10322 10523 10524 10323 
4 10323 10524 10525 10324 
4 10324 10525 10526 10325 
4 10325 10526 10527 10326 
4 10326 10527 10528 10327 
4 10327 10528 10529 10328 
4 10328 10529 10530 10329 
4 10329 10530 10531 10330 
4 10330 10531 10532 10331 
4 10331 10532 10533 10332 
4 10332 10533 10534 10333 
4 10333 10534 10535 10334 
4 10334 10535 10536 10335 
4 10335 10536 10537 10336 
4 10336 10537 10538 10337 
4 10337 10538 10539 10338 
4 10338 10539 10540 10339 
4 10339 10540 10541 10340 
4 10340 10541 10542 10341 
4 10341 10542 10543 10342 
4 10342 10543 10544 10343 
4 10343 10544 10545 10344 
4 10344 10545 10546 10345 
4 10345 10546 10547 10346 
4 10346 10547 10548 10347 
4 10347 10548 10549 10348 
4 10348 10549 10550 10349 
4 10349 10550 10551 10350 
4 10350 10551 10552 10351 
4 10351 10552 10553 10352 
4 10352 10553 10554 10353 
4 10353 10554 10555 10354 
4 10354 10555 10556 10355 
4 10355 10556 10557 10356 
4 10356 10557 10558 10357 
4 10357 10558 10559 10358 
4 10358 10559 10560 10359 
4 10359 10560 10561 10360 
4 10360 10561 10562 10361 
4 10361 10562 10563 10362 
4 10362 10563 10564 10363 
4 10363 10564 10565 10364 
4 10364 10565 10566 10365 
4 10365 10566 10567 10366 
4 10366 10567 10568 10367 
4 10367 10568 10569 10368 
4 10368 10569 10570 10369 
4 10369 10570 10571 10370 
4 10370 10571 10572 10371 
4 10371 10572 10573 10372 
4 10372 10573 10574 10373 
4 10373 10574 10575 10374 
4 10374 10575 10576 10375 
4 10375 10576 10577 10376 
4 10376 10577 10578 10377 
4 10377 10578 10579 10378 
4 10378 10579 10580 10379 
4 10379 10580 10581 10380 
4 10380 10581 10582 10381 
4 10381 10582 10583 10382 
4 10382 10583 10584 10383 
4 10383 10584 10585 10384 
4 10384 10585 10586 10385 
4 10385 10586 10587 10386 
4 10386 10587 10588 10387 
4 10387 10588 10589 10388 
4 10388 10589 10590 10389 
4 10389 10590 10591 10390 
4 10390 10591 10592 10391 
4 10391 10592 10593 10392 
4 10392 10593 10594 10393 
4 10393 10594 10595 10394 
4 10394 10595 10596 10395 
4 10395 10596 10597 10396 
4 10396 10597 10598 10397 
4 10397 10598 10599 10398 
4 10398 10599 10600 10399 
4 10399 10600 10601 10400 
4 10400 10601 10602 10401 
4 10401 10602 10603 10402 
4 10402 10603 10604 10403 
4 10403 10604 10605 10404 
4 10404 10605 10606 10405 
4 10405 10606 10607 10406 
4 10406 10607 10608 10407 
4 10407 10608 10609 10408 
4 10408 10609 10610 10409 
4 10409 10610 10611 10410 
4 10410 10611 10612 10411 
4 10411 10612 10613 10412 
4 10412 10613 10614 10413 
4 10413 10614 10615 10414 
4 10414 10615 10616 10415 
4 10415 10616 10617 10416 
4 10416 10617 10618 10417 
4 10417 10618 10619 10418 
4 10418 10619 10620 10419 
4 10419 10620 10621 10420 
4 10420 10621 10622 10421 
4 10421 10622 10623 10422 
4 10422 10623 10624 10423 
4 10423 10624 10625 10424 
4 10424 10625 10626 10425 
4 10425 10626 10627 10426 
4 10426 10627 10628 10427 
4 10427 10628 10629 10428 
4 10428 10629 10630 10429 
4 10429 10630 10631 10430 
4 10430 10631 10632 10431 
4 10431 10632 10633 10432 
4 10432 10633 10634 10433 
4 10433 10634 10635 10434 
4 10434 10635 10636 10435 
4 10435 10636 10637 10436 
4 10436 10637 10638 10437 
4 10437 10638 10639 10438 
4 10438 10639 10640 10439 
4 10439 10640 10641 10440 
4 10440 10641 10642 10441 
4 10441 10642 10643 10442 
4 10442 10643 10644 10443 
4 10443 10644 10645 10444 
4 10444 10645 10646 10445 
4 10445 10646 10647 10446 
4 10446 10647 10648 10447 
4 10447 10648 10649 10448 
4 10448 10649 10650 10449 
4 10449 10650 10651 10450 
4 10450 10651 10652 10451 
4 10452 10653 10654 10453 
4 10453 10654 10655 10454 
4 10454 10655 10656 10455 
4 10455 10656 10657 10456 
4 10456 10657 10658 10457 
4 10457 10658 10659 10458 
4 10458 10659 10660 10459 
4 10459 10660 10661 10460 
4 10460 10661 10662 10461 
4 10461 10662 10663 10462 
4 10462 10663 10664 10463 
4 10463 10664 10665 10464 
4 10464 10665 10666 10465 
4 10465 10666 10667 10466 
4 10466 10667 10668 10467 
4 10467 10668 10669 10468 
4 10468 10669 10670 10469 
4 10469 10670 10671 10470 
4 10470 10671 10672 10471 
4 10471 10672 10673 10472 
4 10472 10673 10674 10473 
4 10473 10674 10675 10474 
4 10474 10675 10676 10475 
4 10475 10676 10677 10476 
4 10476 10677 10678 10477 
4 10477 10678 10679 10478 
4 10478 10679 10680 10479 
4 10479 10680 10681 10480 
4 10480 10681 10682 10481 
4 10481 10682 10683 10482 
4 10482 10683 10684 10483 
4 10483 10684 10685 10484 
4 10484 10685 10686 10485 
4 10485 10686 10687 10486 
4 10486 10687 10688 10487 
4 10487 10688 10689 10488 
4 10488 10689 10690 10489 
4 10489 10690 10691 10490 
4 10490 10691 10692 10491 
4 10491 10692 10693 10492 
4 10492 10693 10694 10493 
4 10493 10694 10695 10494 
4 10494 10695 10696 10495 
4 10495 10696 10697 10496 
4 10496 10697 10698 10497 
4 10497 10698 10699 10498 
4 10498 10699 10700 10499 
4 10499 10700 10701 10500 
4 10500 10701 10702 10501 
4 10501 10702 10703 10502 
4 10502 10703 10704 10503 
4 10503 10704 10705 10504 
4 10504 10705 10706 10505 
4 10505 10706 10707 10506 
4 10506 10707 10708 10507 
4 10507 10708 10709 10508 
4 10508 10709 10710 10509 
4 10509 10710 10711 10510 
4 10510 10711 10712 10511 
4 10511 10712 10713 10512 
4 10512 10713 10714 10513 
4 10513 10714 10715 10514 
4 10514 10715 10716 10515 
4 10515 10716 10717 10516 
4 10516 10717 10718 10517 
4 10517 10718 10719 10518 
4 10518 10719 10720 10519 
4 10519 10720 10721 10520 
4 10520 10721 10722 10521 
4 10521 10722 10723 10522 
4 10522 10723 10724 10523 
4 10523 10724 10725 10524 
4 10524 10725 10726 10525 
4 10525 10726 10727 10526 
4 10526 10727 10728 10527 
4 10527 10728 10729 10528 
4 10528 10729 10730 10529 
4 10529 10730 10731 10530 
4 10530 10731 10732 10531 
4 10531 10732 10733 10532 
4 10532 10733 10734 10533 
4 10533 10734 10735 10534 
4 10534 10735 10736 10535 
4 10535 10736 10737 10536 
4 10536 10737 10738 10537 
4 10537 10738 10739 10538 
4 10538 10739 10740 10539 
4 10539 10740 10741 10540 
4 10540 10741 10742 10541 
4 10541 10742 10743 10542 
4 10542 10743 10744 10543 
4 10543 10744 10745 10544 
4 10544 10745 10746 10545 
4 10545 10746 10747 10546 
4 10546 10747 10748 10547 
4 10547 10748 10749 10548 
4 10548 10749 10750 10549 
4 10549 10750 10751 10550 
4 10550 10751 10752 10551 
4 10551 10752 10753 10552 
4 10552 10753 10754 10553 
4 10553 10754 10755 10554 
4 10554 10755 10756 10555 
4 10555 10756 10757 10556 
4 10556 10757 10758 10557 
4 10557 10758 10759 10558 
4 10558 10759 10760 10559 
4 10559 10760 10761 10560 
4 10560 10761 10762 10561 
4 10561 10762 10763 10562 
4 10562 10763 10764 10563 
4 10563 10764 10765 10564 
4 10564 10765 10766 10565 
4 10565 10766 10767 10566 
4 10566 10767 10768 10567 
4 10567 10768 10769 10568 
4 10568 10769 10770 10569 
4 10569 10770 10771 10570 
4 10570 10771 10772 10571 
4 10571 10772 10773 10572 
4 10572 10773 10774 10573 
4 10573 10774 10775 10574 
4 10574 10775 10776 10575 
4 10575 10776 10777 10576 
4 10576 10777 10778 10577 
4 10577 10778 10779 10578 
4 10578 10779 10780 10579 
4 10579 10780 10781 10580 
4 10580 10781 10782 10581 
4 10581 10782 10783 10582 
4 10582 10783 10784 10583 
4 10583 10784 10785 10584 
4 10584 10785 10786 10585 
4 10585 10786 10787 10586 
4 10586 10787 10788 10587 
4 10587 10788 10789 10588 
4 10588 10789 10790 10589 
4 10589 10790 10791 10590 
4 10590 10791 10792 10591 
4 10591 10792 10793 10592 
4 10592 10793 10794 10593 
4 10593 10794 10795 10594 
4 10594 10795 10796 10595 
4 10595 10796 10797 10596 
4 10596 10797 10798 10597 
4 10597 10798 10799 10598 
4 10598 10799 10800 10599 
4 10599 10800 10801 10600 
4 10600 10801 10802 10601 
4 10601 10802 10803 10602 
4 10602 10803 10804 10603 
4 10603 10804 10805 10604 
4 10604 10805 10806 10605 
4 10605 10806 10807 10606 
4 10606 10807 10808 10607 
4 10607 10808 10809 10608 
4 10608 10809 10810 10609 
4 10609 10810 10811 10610 
4 10610 10811 10812 10611 
4 10611 10812 10813 10612 
4 10612 10813 10814 10613 
4 10613 10814 10815 10614 
4 10614 10815 10816 10615 
4 10615 10816 10817 10616 
4 10616 10817 10818 10617 
4 10617 10818 10819 10618 
4 10618 10819 10820 10619 
4 10619 10820 10821 10620 
4 10620 10821 10822 10621 
4 10621 10822 10823 10622 
4 10622 10823 10824 10623 
4 10623 10824 10825 10624 
4 10624 10825 10826 10625 
4 10625 10826 10827 10626 
4 10626 10827 10828 10627 
4 10627 10828 10829 10628 
4 10628 10829 10830 10629 
4 10629 10830 10831 10630 
4 10630 10831 10832 10631 
4 10631 10832 10833 10632 
4 10632 10833 10834 10633 
4 10633 10834 10835 10634 
4 10634 10835 10836 10635 
4 10635 10836 10837 10636 
4 10636 10837 10838 10637 
4 10637 10838 10839 10638 
4 10638 10839 10840 10639 
4 10639 10840 10841 10640 
4 10640 10841 10842 10641 
4 10641 10842 10843 10642 
4 10642 10843 10844 10643 
4 10643 10844 10845 10644 
4 10644 10845 10846 10645 
4 10645 10846 10847 10646 
4 10646 10847 10848 10647 
4 10647 10848 10849 10648 
4 10648 10849 10850 10649 
4 10649 10850 10851 10650 
4 10650 10851 10852 10651 
4 10651 10852 10853 10652 
4 10653 10854 10855 10654 
4 10654 10855 10856 10655 
4 10655 10856 10857 10656 
4 10656 10857 10858 10657 
4 10657 10858 10859 10658 
4 10658 10859 10860 10659 
4 10659 10860 10861 10660 
4 10660 10861 10862 10661 
4 10661 10862 10863 10662 
4 10662 10863 10864 10663 
4 10663 10864 10865 10664 
4 10664 10865 10866 10665 
4 10665 10866 10867 10666 
4 10666 10867 10868 10667 
4 10667 10868 10869 10668 
4 10668 10869 10870 10669 
4 10669 10870 10871 10670 
4 10670 10871 10872 10671 
4 10671 10872 10873 10672 
4 10672 10873 10874 10673 
4 10673 10874 10875 10674 
4 10674 10875 10876 10675 
4 10675 10876 10877 10676 
4 10676 10877 10878 10677 
4 10677 10878 10879 10678 
4 10678 10879 10880 10679 
4 10679 10880 10881 10680 
4 10680 10881 10882 10681 
4 10681 10882 10883 10682 
4 10682 10883 10884 10683 
4 10683 10884 10885 10684 
4 10684 10885 10886 10685 
4 10685 10886 10887 10686 
4 10686 10887 10888 10687 
4 10687 10888 10889 10688 
4 10688 10889 10890 10689 
4 10689 10890 10891 10690 
4 10690 10891 10892 10691 
4 10691 10892 10893 10692 
4 10692 10893 10894 10693 
4 10693 10894 10895 10694 
4 10694 10895 10896 10695 
4 10695 10896 10897 10696 
4 10696 10897 10898 10697 
4 10697 10898 10899 10698 
4 10698 10899 10900 10699 
4 10699 10900 10901 10700 
4 10700 10901 10902 10701 
4 10701 10902 10903 10702 
4 10702 10903 10904 10703 
4 10703 10904 10905 10704 
4 10704 10905 10906 10705 
4 10705 10906 10907 10706 
4 10706 10907 10908 10707 
4 10707 10908 10909 10708 
4 10708 10909 10910 10709 
4 10709 10910 10911 10710 
4 10710 10911 10912 10711 
4 10711 10912 10913 10712 
4 10712 10913 10914 10713 
4 10713 10914 10915 10714 
4 10714 10915 10916 10715 
4 10715 10916 10917 10716 
4 10716 10917 10918 10717 
4 10717 10918 10919 10718 
4 10718 10919 10920 10719 
4 10719 10920 10921 10720 
4 10720 10921 10922 10721 
4 10721 10922 10923 10722 
4 10722 10923 10924 10723 
4 10723 10924 10925 10724 
4 10724 10925 10926 10725 
4 10725 10926 10927 10726 
4 10726 10927 10928 10727 
4 10727 10928 10929 10728 
4 10728 10929 10930 10729 
4 10729 10930 10931 10730 
4 10730 10931 10932 10731 
4 10731 10932 10933 10732 
4 10732 10933 10934 10733 
4 10733 10934 10935 10734 
4 10734 10935 10936 10735 
4 10735 10936 10937 10736 
4 10736 10937 10938 10737 
4 10737 10938 10939 10738 
4 10738 10939 10940 10739 
4 10739 10940 10941 10740 
4 10740 10941 10942 10741 
4 10741 10942 10943 10742 
4 10742 10943 10944 10743 
4 10743 10944 10945 10744 
4 10744 10945 10946 10745 
4 10745 10946 10947 10746 
4 10746 10947 10948 10747 
4 10747 10948 10949 10748 
4 10748 10949 10950 10749 
4 10749 10950 10951 10750 
4 10750 10951 10952 10751 
4 10751 10952 10953 10752 
4 10752 10953 10954 10753 
4 10753 10954 10955 10754 
4 10754 10955 10956 10755 
4 10755 10956 10957 10756 
4 10756 10957 10958 10757 
4 10757 10958 10959 10758 
4 10758 10959 10960 10759 
4 10759 10960 10961 10760 
4 10760 10961 10962 10761 
4 10761 10962 10963 10762 
4 10762 10963 10964 10763 
4 10763 10964 10965 10764 
4 10764 10965 10966 10765 
4 10765 10966 10967 10766 
4 10766 10967 10968 10767 
4 10767 10968 10969 10768 
4 10768 10969 10970 10769 
4 10769 10970 10971 10770 
4 10770 10971 10972 10771 
4 10771 10972 10973 10772 
4 10772 10973 10974 10773 
4 10773 10974 10975 10774 
4 10774 10975 10976 10775 
4 10775 10976 10977 10776 
4 10776 10977 10978 10777 
4 10777 10978 10979 10778 
4 10778 10979 10980 10779 
4 10779 10980 10981 10780 
4 10780 10981 10982 10781 
4 10781 10982 10983 10782 
4 10782 10983 10984 10783 
4 10783 10984 10985 10784 
4 10784 10985 10986 10785 
4 10785 10986 10987 10786 
4 10786 10987 10988 10787 
4 10787 10988 10989 10788 
4 10788 10989 10990 10789 
4 10789 10990 10991 10790 
4 10790 10991 10992 10791 
4 10791 10992 10993 10792 
4 10792 10993 10994 10793 
4 10793 10994 10995 10794 
4 10794 10995 10996 10795 
4 10795 10996 10997 10796 
4 10796 10997 10998 10797 
4 10797 10998 10999 10798 
4 10798 10999 11000 10799 
4 10799 11000 11001 10800 
4 10800 11001 11002 10801 
4 10801 11002 11003 10802 
4 10802 11003 11004 10803 
4 10803 11004 11005 10804 
4 10804 11005 11006 10805 
4 10805 11006 11007 10806 
4 10806 11007 11008 10807 
4 10807 11008 11009 10808 
4 10808 11009 11010 10809 
4 10809 11010 11011 10810 
4 10810 11011 11012 10811 
4 10811 11012 11013 10812 
4 10812 11013 11014 10813 
4 10813 11014 11015 10814 
4 10814 11015 11016 10815 
4 10815 11016 11017 10816 
4 10816 11017 11018 10817 
4 10817 11018 11019 10818 
4 10818 11019 11020 10819 
4 10819 11020 11021 10820 
4 10820 11021 11022 10821 
4 10821 11022 11023 10822 
4 10822 11023 11024 10823 
4 10823 11024 11025 10824 
4 10824 11025 11026 10825 
4 10825 11026 11027 10826 
4 10826 11027 11028 10827 
4 10827 11028 11029 10828 
4 10828 11029 11030 10829 
4 10829 11030 11031 10830 
4 10830 11031 11032 10831 
4 10831 11032 11033 10832 
4 10832 11033 11034 10833 
4 10833 11034 11035 10834 
4 10834 11035 11036 10835 
4 10835 11036 11037 10836 
4 10836 11037 11038 10837 
4 10837 11038 11039 10838 
4 10838 11039 11040 10839 
4 10839 11040 11041 10840 
4 10840 11041 11042 10841 
4 10841 11042 11043 10842 
4 10842 11043 11044 10843 
4 10843 11044 11045 10844 
4 10844 11045 11046 10845 
4 10845 11046 11047 10846 
4 10846 11047 11048 10847 
4 10847 11048 11049 10848 
4 10848 11049 11050 10849 
4 10849 11050 11051 10850 
4 10850 11051 11052 10851 
4 10851 11052 11053 10852 
4 10852 11053 11054 10853 
4 10854 11055 11056 10855 
4 10855 11056 11057 10856 
4 10856 11057 11058 10857 
4 10857 11058 11059 10858 
4 10858 11059 11060 10859 
4 10859 11060 11061 10860 
4 10860 11061 11062 10861 
4 10861 11062 11063 10862 
4 10862 11063 11064 10863 
4 10863 11064 11065 10864 
4 10864 11065 11066 10865 
4 10865 11066 11067 10866 
4 10866 11067 11068 10867 
4 10867 11068 11069 10868 
4 10868 11069 11070 10869 
4 10869 11070 11071 10870 
4 10870 11071 11072 10871 
4 10871 11072 11073 10872 
4 10872 11073 11074 10873 
4 10873 11074 11075 10874 
4 10874 11075 11076 10875 
4 10875 11076 11077 10876 
4 10876 11077 11078 10877 
4 10877 11078 11079 10878 
4 10878 11079 11080 10879 
4 10879 11080 11081 10880 
4 10880 11081 11082 10881 
4 10881 11082 11083 10882 
4 10882 11083 11084 10883 
4 10883 11084 11085 10884 
4 10884 11085 11086 10885 
4 10885 11086 11087 10886 
4 10886 11087 11088 10887 
4 10887 11088 11089 10888 
4 10888 11089 11090 10889 
4 10889 11090 11091 10890 
4 10890 11091 11092 10891 
4 10891 11092 11093 10892 
4 10892 11093 11094 10893 
4 10893 11094 11095 10894 
4 10894 11095 11096 10895 
4 10895 11096 11097 10896 
4 10896 11097 11098 10897 
4 10897 11098 11099 10898 
4 10898 11099 11100 10899 
4 10899 11100 11101 10900 
4 10900 11101 11102 10901 
4 10901 11102 11103 10902 
4 10902 11103 11104 10903 
4 10903 11104 11105 10904 
4 10904 11105 11106 10905 
4 10905 11106 11107 10906 
4 10906 11107 11108 10907 
4 10907 11108 11109 10908 
4 10908 11109 11110 10909 
4 10909 11110 11111 10910 
4 10910 11111 11112 10911 
4 10911 11112 11113 10912 
4 10912 11113 11114 10913 
4 10913 11114 11115 10914 
4 10914 11115 11116 10915 
4 10915 11116 11117 10916 
4 10916 11117 11118 10917 
4 10917 11118 11119 10918 
4 10918 11119 11120 10919 
4 10919 11120 11121 10920 
4 10920 11121 11122 10921 
4 10921 11122 11123 10922 
4 10922 11123 11124 10923 
4 10923 11124 11125 10924 
4 10924 11125 11126 10925 
4 10925 11126 11127 10926 
4 10926 11127 11128 10927 
4 10927 11128 11129 10928 
4 10928 11129 11130 10929 
4 10929 11130 11131 10930 
4 10930 11131 11132 10931 
4 10931 11132 11133 10932 
4 10932 11133 11134 10933 
4 10933 11134 11135 10934 
4 10934 11135 11136 10935 
4 10935 11136 11137 10936 
4 10936 11137 11138 10937 
4 10937 11138 11139 10938 
4 10938 11139 11140 10939 
4 10939 11140 11141 10940 
4 10940 11141 11142 10941 
4 10941 11142 11143 10942 
4 10942 11143 11144 10943 
4 10943 11144 11145 10944 
4 10944 11145 11146 10945 
4 10945 11146 11147 10946 
4 10946 11147 11148 10947 
4 10947 11148 11149 10948 
4 10948 11149 11150 10949 
4 10949 11150 11151 10950 
4 10950 11151 11152 10951 
4 10951 11152 11153 10952 
4 10952 11153 11154 10953 
4 10953 11154 11155 10954 
4 10954 11155 11156 10955 
4 10955 11156 11157 10956 
4 10956 11157 11158 10957 
4 10957 11158 11159 10958 
4 10958 11159 11160 10959 
4 10959 11160 11161 10960 
4 10960 11161 11162 10961 
4 10961 11162 11163 10962 
4 10962 11163 11164 10963 
4 10963 11164 11165 10964 
4 10964 11165 11166 10965 
4 10965 11166 11167 10966 
4 10966 11167 11168 10967 
4 10967 11168 11169 10968 
4 10968 11169 11170 10969 
4 10969 11170 11171 10970 
4 10970 11171 11172 10971 
4 10971 11172 11173 10972 
4 10972 11173 11174 10973 
4 10973 11174 11175 10974 
4 10974 11175 11176 10975 
4 10975 11176 11177 10976 
4 10976 11177 11178 10977 
4 10977 11178 11179 10978 
4 10978 11179 11180 10979 
4 10979 11180 11181 10980 
4 10980 11181 11182 10981 
4 10981 11182 11183 10982 
4 10982 11183 11184 10983 
4 10983 11184 11185 10984 
4 10984 11185 11186 10985 
4 10985 11186 11187 10986 
4 10986 11187 11188 10987 
4 10987 11188 11189 10988 
4 10988 11189 11190 10989 
4 10989 11190 11191 10990 
4 10990 11191 11192 10991 
4 10991 11192 11193 10992 
4 10992 11193 11194 10993 
4 10993 11194 11195 10994 
4 10994 11195 11196 10995 
4 10995 11196 11197 10996 
4 10996 11197 11198 10997 
4 10997 11198 11199 10998 
4 10998 11199 11200 10999 
4 10999 11200 11201 11000 
4 11000 11201 11202 11001 
4 11001 11202 11203 11002 
4 11002 11203 11204 11003 
4 11003 11204 11205 11004 
4 11004 11205 11206 11005 
4 11005 11206 11207 11006 
4 11006 11207 11208 11007 
4 11007 11208 11209 11008 
4 11008 11209 11210 11009 
4 11009 11210 11211 11010 
4 11010 11211 11212 11011 
4 11011 11212 11213 11012 
4 11012 11213 11214 11013 
4 11013 11214 11215 11014 
4 11014 11215 11216 11015 
4 11015 11216 11217 11016 
4 11016 11217 11218 11017 
4 11017 11218 11219 11018 
4 11018 11219 11220 11019 
4 11019 11220 11221 11020 
4 11020 11221 11222 11021 
4 11021 11222 11223 11022 
4 11022 11223 11224 11023 
4 11023 11224 11225 11024 
4 11024 11225 11226 11025 
4 11025 11226 11227 11026 
4 11026 11227 11228 11027 
4 11027 11228 11229 11028 
4 11028 11229 11230 11029 
4 11029 11230 11231 11030 
4 11030 11231 11232 11031 
4 11031 11232 11233 11032 
4 11032 11233 11234 11033 
4 11033 11234 11235 11034 
4 11034 11235 11236 11035 
4 11035 11236 11237 11036 
4 11036 11237 11238 11037 
4 11037 11238 11239 11038 
4 11038 11239 11240 11039 
4 11039 11240 11241 11040 
4 11040 11241 11242 11041 
4 11041 11242 11243 11042 
4 11042 11243 11244 11043 
4 11043 11244 11245 11044 
4 11044 11245 11246 11045 
4 11045 11246 11247 11046 
4 11046 11247 11248 11047 
4 11047 11248 11249 11048 
4 11048 11249 11250 11049 
4 11049 11250 11251 11050 
4 11050 11251 11252 11051 
4 11051 11252 11253 11052 
4 11052 11253 11254 11053 
4 11053 11254 11255 11054 
4 11055 11256 11257 11056 
4 11056 11257 11258 11057 
4 11057 11258 11259 11058 
4 11058 11259 11260 11059 
4 11059 11260 11261 11060 
4 11060 11261 11262 11061 
4 11061 11262 11263 11062 
4 11062 11263 11264 11063 
4 11063 11264 11265 11064 
4 11064 11265 11266 11065 
4 11065 11266 11267 11066 
4 11066 11267 11268 11067 
4 11067 11268 11269 11068 
4 11068 11269 11270 11069 
4 11069 11270 11271 11070 
4 11070 11271 11272 11071 
4 11071 11272 11273 11072 
4 11072 11273 11274 11073 
4 11073 11274 11275 11074 
4 11074 11275 11276 11075 
4 11075 11276 11277 11076 
4 11076 11277 11278 11077 
4 11077 11278 11279 11078 
4 11078 11279 11280 11079 
4 11079 11280 11281 11080 
4 11080 11281 11282 11081 
4 11081 11282 11283 11082 
4 11082 11283 11284 11083 
4 11083 11284 11285 11084 
4 11084 11285 11286 11085 
4 11085 11286 11287 11086 
4 11086 11287 11288 11087 
4 11087 11288 11289 11088 
4 11088 11289 11290 11089 
4 11089 11290 11291 11090 
4 11090 11291 11292 11091 
4 11091 11292 11293 11092 
4 11092 11293 11294 11093 
4 11093 11294 11295 11094 
4 11094 11295 11296 11095 
4 11095 11296 11297 11096 
4 11096 11297 11298 11097 
4 11097 11298 11299 11098 
4 11098 11299 11300 11099 
4 11099 11300 11301 11100 
4 11100 11301 11302 11101 
4 11101 11302 11303 11102 
4 11102 11303 11304 11103 
4 11103 11304 11305 11104 
4 11104 11305 11306 11105 
4 11105 11306 11307 11106 
4 11106 11307 11308 11107 
4 11107 11308 11309 11108 
4 11108 11309 11310 11109 
4 11109 11310 11311 11110 
4 11110 11311 11312 11111 
4 11111 11312 11313 11112 
4 11112 11313 11314 11113 
4 11113 11314 11315 11114 
4 11114 11315 11316 11115 
4 11115 11316 11317 11116 
4 11116 11317 11318 11117 
4 11117 11318 11319 11118 
4 11118 11319 11320 11119 
4 11119 11320 11321 11120 
4 11120 11321 11322 11121 
4 11121 11322 11323 11122 
4 11122 11323 11324 11123 
4 11123 11324 11325 11124 
4 11124 11325 11326 11125 
4 11125 11326 11327 11126 
4 11126 11327 11328 11127 
4 11127 11328 11329 11128 
4 11128 11329 11330 11129 
4 11129 11330 11331 11130 
4 11130 11331 11332 11131 
4 11131 11332 11333 11132 
4 11132 11333 11334 11133 
4 11133 11334 11335 11134 
4 11134 11335 11336 11135 
4 11135 11336 11337 11136 
4 11136 11337 11338 11137 
4 11137 11338 11339 11138 
4 11138 11339 11340 11139 
4 11139 11340 11341 11140 
4 11140 11341 11342 11141 
4 11141 11342 11343 11142 
4 11142 11343 11344 11143 
4 11143 11344 11345 11144 
4 11144 11345 11346 11145 
4 11145 11346 11347 11146 
4 11146 11347 11348 11147 
4 11147 11348 11349 11148 
4 11148 11349 11350 11149 
4 11149 11350 11351 11150 
4 11150 11351 11352 11151 
4 11151 11352 11353 11152 
4 11152 11353 11354 11153 
4 11153 11354 11355 11154 
4 11154 11355 11356 11155 
4 11155 11356 11357 11156 
4 11156 11357 11358 11157 
4 11157 11358 11359 11158 
4 11158 11359 11360 11159 
4 11159 11360 11361 11160 
4 11160 11361 11362 11161 
4 11161 11362 11363 11162 
4 11162 11363 11364 11163 
4 11163 11364 11365 11164 
4 11164 11365 11366 11165 
4 11165 11366 11367 11166 
4 11166 11367 11368 11167 
4 11167 11368 11369 11168 
4 11168 11369 11370 11169 
4 11169 11370 11371 11170 
4 11170 11371 11372 11171 
4 11171 11372 11373 11172 
4 11172 11373 11374 11173 
4 11173 11374 11375 11174 
4 11174 11375 11376 11175 
4 11175 11376 11377 11176 
4 11176 11377 11378 11177 
4 11177 11378 11379 11178 
4 11178 11379 11380 11179 
4 11179 11380 11381 11180 
4 11180 11381 11382 11181 
4 11181 11382 11383 11182 
4 11182 11383 11384 11183 
4 11183 11384 11385 11184 
4 11184 11385 11386 11185 
4 11185 11386 11387 11186 
4 11186 11387 11388 11187 
4 11187 11388 11389 11188 
4 11188 11389 11390 11189 
4 11189 11390 11391 11190 
4 11190 11391 11392 11191 
4 11191 11392 11393 11192 
4 11192 11393 11394 11193 
4 11193 11394 11395 11194 
4 11194 11395 11396 11195 
4 11195 11396 11397 11196 
4 11196 11397 11398 11197 
4 11197 11398 11399 11198 
4 11198 11399 11400 11199 
4 11199 11400 11401 11200 
4 11200 11401 11402 11201 
4 11201 11402 11403 11202 
4 11202 11403 11404 11203 
4 11203 11404 11405 11204 
4 11204 11405 11406 11205 
4 11205 11406 11407 11206 
4 11206 11407 11408 11207 
4 11207 11408 11409 11208 
4 11208 11409 11410 11209 
4 11209 11410 11411 11210 
4 11210 11411 11412 11211 
4 11211 11412 11413 11212 
4 11212 11413 11414 11213 
4 11213 11414 11415 11214 
4 11214 11415 11416 11215 
4 11215 11416 11417 11216 
4 11216 11417 11418 11217 
4 11217 11418 11419 11218 
4 11218 11419 11420 11219 
4 11219 11420 11421 11220 
4 11220 11421 11422 11221 
4 11221 11422 11423 11222 
4 11222 11423 11424 11223 
4 11223 11424 11425 11224 
4 11224 11425 11426 11225 
4 11225 11426 11427 11226 
4 11226 11427 11428 11227 
4 11227 11428 11429 11228 
4 11228 11429 11430 11229 
4 11229 11430 11431 11230 
4 11230 11431 11432 11231 
4 11231 11432 11433 11232 
4 11232 11433 11434 11233 
4 11233 11434 11435 11234 
4 11234 11435 11436 11235 
4 11235 11436 11437 11236 
4 11236 11437 11438 11237 
4 11237 11438 11439 11238 
4 11238 11439 11440 11239 
4 11239 11440 11441 11240 
4 11240 11441 11442 11241 
4 11241 11442 11443 11242 
4 11242 11443 11444 11243 
4 11243 11444 11445 11244 
4 11244 11445 11446 11245 
4 11245 11446 11447 11246 
4 11246 11447 11448 11247 
4 11247 11448 11449 11248 
4 11248 11449 11450 11249 
4 11249 11450 11451 11250 
4 11250 11451 11452 11251 
4 11251 11452 11453 11252 
4 11252 11453 11454 11253 
4 11253 11454 11455 11254 
4 11254 11455 11456 11255 
4 11256 11457 11458 11257 
4 11257 11458 11459 11258 
4 11258 11459 11460 11259 
4 11259 11460 11461 11260 
4 11260 11461 11462 11261 
4 11261 11462 11463 11262 
4 11262 11463 11464 11263 
4 11263 11464 11465 11264 
4 11264 11465 11466 11265 
4 11265 11466 11467 11266 
4 11266 11467 11468 11267 
4 11267 11468 11469 11268 
4 11268 11469 11470 11269 
4 11269 11470 11471 11270 
4 11270 11471 11472 11271 
4 11271 11472 11473 11272 
4 11272 11473 11474 11273 
4 11273 11474 11475 11274 
4 11274 11475 11476 11275 
4 11275 11476 11477 11276 
4 11276 11477 11478 11277 
4 11277 11478 11479 11278 
4 11278 11479 11480 11279 
4 11279 11480 11481 11280 
4 11280 11481 11482 11281 
4 11281 11482 11483 11282 
4 11282 11483 11484 11283 
4 11283 11484 11485 11284 
4 11284 11485 11486 11285 
4 11285 11486 11487 11286 
4 11286 11487 11488 11287 
4 11287 11488 11489 11288 
4 11288 11489 11490 11289 
4 11289 11490 11491 11290 
4 11290 11491 11492 11291 
4 11291 11492 11493 11292 
4 11292 11493 11494 11293 
4 11293 11494 11495 11294 
4 11294 11495 11496 11295 
4 11295 11496 11497 11296 
4 11296 11497 11498 11297 
4 11297 11498 11499 11298 
4 11298 11499 11500 11299 
4 11299 11500 11501 11300 
4 11300 11501 11502 11301 
4 11301 11502 11503 11302 
4 11302 11503 11504 11303 
4 11303 11504 11505 11304 
4 11304 11505 11506 11305 
4 11305 11506 11507 11306 
4 11306 11507 11508 11307 
4 11307 11508 11509 11308 
4 11308 11509 11510 11309 
4 11309 11510 11511 11310 
4 11310 11511 11512 11311 
4 11311 11512 11513 11312 
4 11312 11513 11514 11313 
4 11313 11514 11515 11314 
4 11314 11515 11516 11315 
4 11315 11516 11517 11316 
4 11316 11517 11518 11317 
4 11317 11518 11519 11318 
4 11318 11519 11520 11319 
4 11319 11520 11521 11320 
4 11320 11521 11522 11321 
4 11321 11522 11523 11322 
4 11322 11523 11524 11323 
4 11323 11524 11525 11324 
4 11324 11525 11526 11325 
4 11325 11526 11527 11326 
4 11326 11527 11528 11327 
4 11327 11528 11529 11328 
4 11328 11529 11530 11329 
4 11329 11530 11531 11330 
4 11330 11531 11532 11331 
4 11331 11532 11533 11332 
4 11332 11533 11534 11333 
4 11333 11534 11535 11334 
4 11334 11535 11536 11335 
4 11335 11536 11537 11336 
4 11336 11537 11538 11337 
4 11337 11538 11539 11338 
4 11338 11539 11540 11339 
4 11339 11540 11541 11340 
4 11340 11541 11542 11341 
4 11341 11542 11543 11342 
4 11342 11543 11544 11343 
4 11343 11544 11545 11344 
4 11344 11545 11546 11345 
4 11345 11546 11547 11346 
4 11346 11547 11548 11347 
4 11347 11548 11549 11348 
4 11348 11549 11550 11349 
4 11349 11550 11551 11350 
4 11350 11551 11552 11351 
4 11351 11552 11553 11352 
4 11352 11553 11554 11353 
4 11353 11554 11555 11354 
4 11354 11555 11556 11355 
4 11355 11556 11557 11356 
4 11356 11557 11558 11357 
4 11357 11558 11559 11358 
4 11358 11559 11560 11359 
4 11359 11560 11561 11360 
4 11360 11561 11562 11361 
4 11361 11562 11563 11362 
4 11362 11563 11564 11363 
4 11363 11564 11565 11364 
4 11364 11565 11566 11365 
4 11365 11566 11567 11366 
4 11366 11567 11568 11367 
4 11367 11568 11569 11368 
4 11368 11569 11570 11369 
4 11369 11570 11571 11370 
4 11370 11571 11572 11371 
4 11371 11572 11573 11372 
4 11372 11573 11574 11373 
4 11373 11574 11575 11374 
4 11374 11575 11576 11375 
4 11375 11576 11577 11376 
4 11376 11577 11578 11377 
4 11377 11578 11579 11378 
4 11378 11579 11580 11379 
4 11379 11580 11581 11380 
4 11380 11581 11582 11381 
4 11381 11582 11583 11382 
4 11382 11583 11584 11383 
4 11383 11584 11585 11384 
4 11384 11585 11586 11385 
4 11385 11586 11587 11386 
4 11386 11587 11588 11387 
4 11387 11588 11589 11388 
4 11388 11589 11590 11389 
4 11389 11590 11591 11390 
4 11390 11591 11592 11391 
4 11391 11592 11593 11392 
4 11392 11593 11594 11393 
4 11393 11594 11595 11394 
4 11394 11595 11596 11395 
4 11395 11596 11597 11396 
4 11396 11597 11598 11397 
4 11397 11598 11599 11398 
4 11398 11599 11600 11399 
4 11399 11600 11601 11400 
4 11400 11601 11602 11401 
4 11401 11602 11603 11402 
4 11402 11603 11604 11403 
4 11403 11604 11605 11404 
4 11404 11605 11606 11405 
4 11405 11606 11607 11406 
4 11406 11607 11608 11407 
4 11407 11608 11609 11408 
4 11408 11609 11610 11409 
4 11409 11610 11611 11410 
4 11410 11611 11612 11411 
4 11411 11612 11613 11412 
4 11412 11613 11614 11413 
4 11413 11614 11615 11414 
4 11414 11615 11616 11415 
4 11415 11616 11617 11416 
4 11416 11617 11618 11417 
4 11417 11618 11619 11418 
4 11418 11619 11620 11419 
4 11419 11620 11621 11420 
4 11420 11621 11622 11421 
4 11421 11622 11623 11422 
4 11422 11623 11624 11423 
4 11423 11624 11625 11424 
4 11424 11625 11626 11425 
4 11425 11626 11627 11426 
4 11426 11627 11628 11427 
4 11427 11628 11629 11428 
4 11428 11629 11630 11429 
4 11429 11630 11631 11430 
4 11430 11631 11632 11431 
4 11431 11632 11633 11432 
4 11432 11633 11634 11433 
4 11433 11634 11635 11434 
4 11434 11635 11636 11435 
4 11435 11636 11637 11436 
4 11436 11637 11638 11437 
4 11437 11638 11639 11438 
4 11438 11639 11640 11439 
4 11439 11640 11641 11440 
4 11440 11641 11642 11441 
4 11441 11642 11643 11442 
4 11442 11643 11644 11443 
4 11443 11644 11645 11444 
4 11444 11645 11646 11445 
4 11445 11646 11647 11446 
4 11446 11647 11648 11447 
4 11447 11648 11649 11448 
4 11448 11649 11650 11449 
4 11449 11650 11651 11450 
4 11450 11651 11652 11451 
4 11451 11652 11653 11452 
4 11452 11653 11654 11453 
4 11453 11654 11655 11454 
4 11454 11655 11656 11455 
4 11455 11656 11657 11456 
4 11457 11658 11659 11458 
4 11458 11659 11660 11459 
4 11459 11660 11661 11460 
4 11460 11661 11662 11461 
4 11461 11662 11663 11462 
4 11462 11663 11664 11463 
4 11463 11664 11665 11464 
4 11464 11665 11666 11465 
4 11465 11666 11667 11466 
4 11466 11667 11668 11467 
4 11467 11668 11669 11468 
4 11468 11669 11670 11469 
4 11469 11670 11671 11470 
4 11470 11671 11672 11471 
4 11471 11672 11673 11472 
4 11472 11673 11674 11473 
4 11473 11674 11675 11474 
4 11474 11675 11676 11475 
4 11475 11676 11677 11476 
4 11476 11677 11678 11477 
4 11477 11678 11679 11478 
4 11478 11679 11680 11479 
4 11479 11680 11681 11480 
4 11480 11681 11682 11481 
4 11481 11682 11683 11482 
4 11482 11683 11684 11483 
4 11483 11684 11685 11484 
4 11484 11685 11686 11485 
4 11485 11686 11687 11486 
4 11486 11687 11688 11487 
4 11487 11688 11689 11488 
4 11488 11689 11690 11489 
4 11489 11690 11691 11490 
4 11490 11691 11692 11491 
4 11491 11692 11693 11492 
4 11492 11693 11694 11493 
4 11493 11694 11695 11494 
4 11494 11695 11696 11495 
4 11495 11696 11697 11496 
4 11496 11697 11698 11497 
4 11497 11698 11699 11498 
4 11498 11699 11700 11499 
4 11499 11700 11701 11500 
4 11500 11701 11702 11501 
4 11501 11702 11703 11502 
4 11502 11703 11704 11503 
4 11503 11704 11705 11504 
4 11504 11705 11706 11505 
4 11505 11706 11707 11506 
4 11506 11707 11708 11507 
4 11507 11708 11709 11508 
4 11508 11709 11710 11509 
4 11509 11710 11711 11510 
4 11510 11711 11712 11511 
4 11511 11712 11713 11512 
4 11512 11713 11714 11513 
4 11513 11714 11715 11514 
4 11514 11715 11716 11515 
4 11515 11716 11717 11516 
4 11516 11717 11718 11517 
4 11517 11718 11719 11518 
4 11518 11719 11720 11519 
4 11519 11720 11721 11520 
4 11520 11721 11722 11521 
4 11521 11722 11723 11522 
4 11522 11723 11724 11523 
4 11523 11724 11725 11524 
4 11524 11725 11726 11525 
4 11525 11726 11727 11526 
4 11526 11727 11728 11527 
4 11527 11728 11729 11528 
4 11528 11729 11730 11529 
4 11529 11730 11731 11530 
4 11530 11731 11732 11531 
4 11531 11732 11733 11532 
4 11532 11733 11734 11533 
4 11533 11734 11735 11534 
4 11534 11735 11736 11535 
4 11535 11736 11737 11536 
4 11536 11737 11738 11537 
4 11537 11738 11739 11538 
4 11538 11739 11740 11539 
4 11539 11740 11741 11540 
4 11540 11741 11742 11541 
4 11541 11742 11743 11542 
4 11542 11743 11744 11543 
4 11543 11744 11745 11544 
4 11544 11745 11746 11545 
4 11545 11746 11747 11546 
4 11546 11747 11748 11547 
4 11547 11748 11749 11548 
4 11548 11749 11750 11549 
4 11549 11750 11751 11550 
4 11550 11751 11752 11551 
4 11551 11752 11753 11552 
4 11552 11753 11754 11553 
4 11553 11754 11755 11554 
4 11554 11755 11756 11555 
4 11555 11756 11757 11556 
4 11556 11757 11758 11557 
4 11557 11758 11759 11558 
4 11558 11759 11760 11559 
4 11559 11760 11761 11560 
4 11560 11761 11762 11561 
4 11561 11762 11763 11562 
4 11562 11763 11764 11563 
4 11563 11764 11765 11564 
4 11564 11765 11766 11565 
4 11565 11766 11767 11566 
4 11566 11767 11768 11567 
4 11567 11768 11769 11568 
4 11568 11769 11770 11569 
4 11569 11770 11771 11570 
4 11570 11771 11772 11571 
4 11571 11772 11773 11572 
4 11572 11773 11774 11573 
4 11573 11774 11775 11574 
4 11574 11775 11776 11575 
4 11575 11776 11777 11576 
4 11576 11777 11778 11577 
4 11577 11778 11779 11578 
4 11578 11779 11780 11579 
4 11579 11780 11781 11580 
4 11580 11781 11782 11581 
4 11581 11782 11783 11582 
4 11582 11783 11784 11583 
4 11583 11784 11785 11584 
4 11584 11785 11786 11585 
4 11585 11786 11787 11586 
4 11586 11787 11788 11587 
4 11587 11788 11789 11588 
4 11588 11789 11790 11589 
4 11589 11790 11791 11590 
4 11590 11791 11792 11591 
4 11591 11792 11793 11592 
4 11592 11793 11794 11593 
4 11593 11794 11795 11594 
4 11594 11795 11796 11595 
4 11595 11796 11797 11596 
4 11596 11797 11798 11597 
4 11597 11798 11799 11598 
4 11598 11799 11800 11599 
4 11599 11800 11801 11600 
4 11600 11801 11802 11601 
4 11601 11802 11803 11602 
4 11602 11803 11804 11603 
4 11603 11804 11805 11604 
4 11604 11805 11806 11605 
4 11605 11806 11807 11606 
4 11606 11807 11808 11607 
4 11607 11808 11809 11608 
4 11608 11809 11810 11609 
4 11609 11810 11811 11610 
4 11610 11811 11812 11611 
4 11611 11812 11813 11612 
4 11612 11813 11814 11613 
4 11613 11814 11815 11614 
4 11614 11815 11816 11615 
4 11615 11816 11817 11616 
4 11616 11817 11818 11617 
4 11617 11818 11819 11618 
4 11618 11819 11820 11619 
4 11619 11820 11821 11620 
4 11620 11821 11822 11621 
4 11621 11822 11823 11622 
4 11622 11823 11824 11623 
4 11623 11824 11825 11624 
4 11624 11825 11826 11625 
4 11625 11826 11827 11626 
4 11626 11827 11828 11627 
4 11627 11828 11829 11628 
4 11628 11829 11830 11629 
4 11629 11830 11831 11630 
4 11630 11831 11832 11631 
4 11631 11832 11833 11632 
4 11632 11833 11834 11633 
4 11633 11834 11835 11634 
4 11634 11835 11836 11635 
4 11635 11836 11837 11636 
4 11636 11837 11838 11637 
4 11637 11838 11839 11638 
4 11638 11839 11840 11639 
4 11639 11840 11841 11640 
4 11640 11841 11842 11641 
4 11641 11842 11843 11642 
4 11642 11843 11844 11643 
4 11643 11844 11845 11644 
4 11644 11845 11846 11645 
4 11645 11846 11847 11646 
4 11646 11847 11848 11647 
4 11647 11848 11849 11648 
4 11648 11849 11850 11649 
4 11649 11850 11851 11650 
4 11650 11851 11852 11651 
4 11651 11852 11853 11652 
4 11652 11853 11854 11653 
4 11653 11854 11855 11654 
4 11654 11855 11856 11655 
4 11655 11856 11857 11656 
4 11656 11857 11858 11657 
4 11658 11859 11860 11659 
4 11659 11860 11861 11660 
4 11660 11861 11862 11661 
4 11661 11862 11863 11662 
4 11662 11863 11864 11663 
4 11663 11864 11865 11664 
4 11664 11865 11866 11665 
4 11665 11866 11867 11666 
4 11666 11867 11868 11667 
4 11667 11868 11869 11668 
4 11668 11869 11870 11669 
4 11669 11870 11871 11670 
4 11670 11871 11872 11671 
4 11671 11872 11873 11672 
4 11672 11873 11874 11673 
4 11673 11874 11875 11674 
4 11674 11875 11876 11675 
4 11675 11876 11877 11676 
4 11676 11877 11878 11677 
4 11677 11878 11879 11678 
4 11678 11879 11880 11679 
4 11679 11880 11881 11680 
4 11680 11881 11882 11681 
4 11681 11882 11883 11682 
4 11682 11883 11884 11683 
4 11683 11884 11885 11684 
4 11684 11885 11886 11685 
4 11685 11886 11887 11686 
4 11686 11887 11888 11687 
4 11687 11888 11889 11688 
4 11688 11889 11890 11689 
4 11689 11890 11891 11690 
4 11690 11891 11892 11691 
4 11691 11892 11893 11692 
4 11692 11893 11894 11693 
4 11693 11894 11895 11694 
4 11694 11895 11896 11695 
4 11695 11896 11897 11696 
4 11696 11897 11898 11697 
4 11697 11898 11899 11698 
4 11698 11899 11900 11699 
4 11699 11900 11901 11700 
4 11700 11901 11902 11701 
4 11701 11902 11903 11702 
4 11702 11903 11904 11703 
4 11703 11904 11905 11704 
4 11704 11905 11906 11705 
4 11705 11906 11907 11706 
4 11706 11907 11908 11707 
4 11707 11908 11909 11708 
4 11708 11909 11910 11709 
4 11709 11910 11911 11710 
4 11710 11911 11912 11711 
4 11711 11912 11913 11712 
4 11712 11913 11914 11713 
4 11713 11914 11915 11714 
4 11714 11915 11916 11715 
4 11715 11916 11917 11716 
4 11716 11917 11918 11717 
4 11717 11918 11919 11718 
4 11718 11919 11920 11719 
4 11719 11920 11921 11720 
4 11720 11921 11922 11721 
4 11721 11922 11923 11722 
4 11722 11923 11924 11723 
4 11723 11924 11925 11724 
4 11724 11925 11926 11725 
4 11725 11926 11927 11726 
4 11726 11927 11928 11727 
4 11727 11928 11929 11728 
4 11728 11929 11930 11729 
4 11729 11930 11931 11730 
4 11730 11931 11932 11731 
4 11731 11932 11933 11732 
4 11732 11933 11934 11733 
4 11733 11934 11935 11734 
4 11734 11935 11936 11735 
4 11735 11936 11937 11736 
4 11736 11937 11938 11737 
4 11737 11938 11939 11738 
4 11738 11939 11940 11739 
4 11739 11940 11941 11740 
4 11740 11941 11942 11741 
4 11741 11942 11943 11742 
4 11742 11943 11944 11743 
4 11743 11944 11945 11744 
4 11744 11945 11946 11745 
4 11745 11946 11947 11746 
4 11746 11947 11948 11747 
4 11747 11948 11949 11748 
4 11748 11949 11950 11749 
4 11749 11950 11951 11750 
4 11750 11951 11952 11751 
4 11751 11952 11953 11752 
4 11752 11953 11954 11753 
4 11753 11954 11955 11754 
4 11754 11955 11956 11755 
4 11755 11956 11957 11756 
4 11756 11957 11958 11757 
4 11757 11958 11959 11758 
4 11758 11959 11960 11759 
4 11759 11960 11961 11760 
4 11760 11961 11962 11761 
4 11761 11962 11963 11762 
4 11762 11963 11964 11763 
4 11763 11964 11965 11764 
4 11764 11965 11966 11765 
4 11765 11966 11967 11766 
4 11766 11967 11968 11767 
4 11767 11968 11969 11768 
4 11768 11969 11970 11769 
4 11769 11970 11971 11770 
4 11770 11971 11972 11771 
4 11771 11972 11973 11772 
4 11772 11973 11974 11773 
4 11773 11974 11975 11774 
4 11774 11975 11976 11775 
4 11775 11976 11977 11776 
4 11776 11977 11978 11777 
4 11777 11978 11979 11778 
4 11778 11979 11980 11779 
4 11779 11980 11981 11780 
4 11780 11981 11982 11781 
4 11781 11982 11983 11782 
4 11782 11983 11984 11783 
4 11783 11984 11985 11784 
4 11784 11985 11986 11785 
4 11785 11986 11987 11786 
4 11786 11987 11988 11787 
4 11787 11988 11989 11788 
4 11788 11989 11990 11789 
4 11789 11990 11991 11790 
4 11790 11991 11992 11791 
4 11791 11992 11993 11792 
4 11792 11993 11994 11793 
4 11793 11994 11995 11794 
4 11794 11995 11996 11795 
4 11795 11996 11997 11796 
4 11796 11997 11998 11797 
4 11797 11998 11999 11798 
4 11798 11999 12000 11799 
4 11799 12000 12001 11800 
4 11800 12001 12002 11801 
4 11801 12002 12003 11802 
4 11802 12003 12004 11803 
4 11803 12004 12005 11804 
4 11804 12005 12006 11805 
4 11805 12006 12007 11806 
4 11806 12007 12008 11807 
4 11807 12008 12009 11808 
4 11808 12009 12010 11809 
4 11809 12010 12011 11810 
4 11810 12011 12012 11811 
4 11811 12012 12013 11812 
4 11812 12013 12014 11813 
4 11813 12014 12015 11814 
4 11814 12015 12016 11815 
4 11815 12016 12017 11816 
4 11816 12017 12018 11817 
4 11817 12018 12019 11818 
4 11818 12019 12020 11819 
4 11819 12020 12021 11820 
4 11820 12021 12022 11821 
4 11821 12022 12023 11822 
4 11822 12023 12024 11823 
4 11823 12024 12025 11824 
4 11824 12025 12026 11825 
4 11825 12026 12027 11826 
4 11826 12027 12028 11827 
4 11827 12028 12029 11828 
4 11828 12029 12030 11829 
4 11829 12030 12031 11830 
4 11830 12031 12032 11831 
4 11831 12032 12033 11832 
4 11832 12033 12034 11833 
4 11833 12034 12035 11834 
4 11834 12035 12036 11835 
4 11835 12036 12037 11836 
4 11836 12037 12038 11837 
4 11837 12038 12039 11838 
4 11838 12039 12040 11839 
4 11839 12040 12041 11840 
4 11840 12041 12042 11841 
4 11841 12042 12043 11842 
4 11842 12043 12044 11843 
4 11843 12044 12045 11844 
4 11844 12045 12046 11845 
4 11845 12046 12047 11846 
4 11846 12047 12048 11847 
4 11847 12048 12049 11848 
4 11848 12049 12050 11849 
4 11849 12050 12051 11850 
4 11850 12051 12052 11851 
4 11851 12052 12053 11852 
4 11852 12053 12054 11853 
4 11853 12054 12055 11854 
4 11854 12055 12056 11855 
4 11855 12056 12057 11856 
4 11856 12057 12058 11857 
4 11857 12058 12059 11858 
4 11859 12060 12061 11860 
4 11860 12061 12062 11861 
4 11861 12062 12063 11862 
4 11862 12063 12064 11863 
4 11863 12064 12065 11864 
4 11864 12065 12066 11865 
4 11865 12066 12067 11866 
4 11866 12067 12068 11867 
4 11867 12068 12069 11868 
4 11868 12069 12070 11869 
4 11869 12070 12071 11870 
4 11870 12071 12072 11871 
4 11871 12072 12073 11872 
4 11872 12073 12074 11873 
4 11873 12074 12075 11874 
4 11874 12075 12076 11875 
4 11875 12076 12077 11876 
4 11876 12077 12078 11877 
4 11877 12078 12079 11878 
4 11878 12079 12080 11879 
4 11879 12080 12081 11880 
4 11880 12081 12082 11881 
4 11881 12082 12083 11882 
4 11882 12083 12084 11883 
4 11883 12084 12085 11884 
4 11884 12085 12086 11885 
4 11885 12086 12087 11886 
4 11886 12087 12088 11887 
4 11887 12088 12089 11888 
4 11888 12089 12090 11889 
4 11889 12090 12091 11890 
4 11890 12091 12092 11891 
4 11891 12092 12093 11892 
4 11892 12093 12094 11893 
4 11893 12094 12095 11894 
4 11894 12095 12096 11895 
4 11895 12096 12097 11896 
4 11896 12097 12098 11897 
4 11897 12098 12099 11898 
4 11898 12099 12100 11899 
4 11899 12100 12101 11900 
4 11900 12101 12102 11901 
4 11901 12102 12103 11902 
4 11902 12103 12104 11903 
4 11903 12104 12105 11904 
4 11904 12105 12106 11905 
4 11905 12106 12107 11906 
4 11906 12107 12108 11907 
4 11907 12108 12109 11908 
4 11908 12109 12110 11909 
4 11909 12110 12111 11910 
4 11910 12111 12112 11911 
4 11911 12112 12113 11912 
4 11912 12113 12114 11913 
4 11913 12114 12115 11914 
4 11914 12115 12116 11915 
4 11915 12116 12117 11916 
4 11916 12117 12118 11917 
4 11917 12118 12119 11918 
4 11918 12119 12120 11919 
4 11919 12120 12121 11920 
4 11920 12121 12122 11921 
4 11921 12122 12123 11922 
4 11922 12123 12124 11923 
4 11923 12124 12125 11924 
4 11924 12125 12126 11925 
4 11925 12126 12127 11926 
4 11926 12127 12128 11927 
4 11927 12128 12129 11928 
4 11928 12129 12130 11929 
4 11929 12130 12131 11930 
4 11930 12131 12132 11931 
4 11931 12132 12133 11932 
4 11932 12133 12134 11933 
4 11933 12134 12135 11934 
4 11934 12135 12136 11935 
4 11935 12136 12137 11936 
4 11936 12137 12138 11937 
4 11937 12138 12139 11938 
4 11938 12139 12140 11939 
4 11939 12140 12141 11940 
4 11940 12141 12142 11941 
4 11941 12142 12143 11942 
4 11942 12143 12144 11943 
4 11943 12144 12145 11944 
4 11944 12145 12146 11945 
4 11945 12146 12147 11946 
4 11946 12147 12148 11947 
4 11947 12148 12149 11948 
4 11948 12149 12150 11949 
4 11949 12150 12151 11950 
4 11950 12151 12152 11951 
4 11951 12152 12153 11952 
4 11952 12153 12154 11953 
4 11953 12154 12155 11954 
4 11954 12155 12156 11955 
4 11955 12156 12157 11956 
4 11956 12157 12158 11957 
4 11957 12158 12159 11958 
4 11958 12159 12160 11959 
4 11959 12160 12161 11960 
4 11960 12161 12162 11961 
4 11961 12162 12163 11962 
4 11962 12163 12164 11963 
4 11963 12164 12165 11964 
4 11964 12165 12166 11965 
4 11965 12166 12167 11966 
4 11966 12167 12168 11967 
4 11967 12168 12169 11968 
4 11968 12169 12170 11969 
4 11969 12170 12171 11970 
4 11970 12171 12172 11971 
4 11971 12172 12173 11972 
4 11972 12173 12174 11973 
4 11973 12174 12175 11974 
4 11974 12175 12176 11975 
4 11975 12176 12177 11976 
4 11976 12177 12178 11977 
4 11977 12178 12179 11978 
4 11978 12179 12180 11979 
4 11979 12180 12181 11980 
4 11980 12181 12182 11981 
4 11981 12182 12183 11982 
4 11982 12183 12184 11983 
4 11983 12184 12185 11984 
4 11984 12185 12186 11985 
4 11985 12186 12187 11986 
4 11986 12187 12188 11987 
4 11987 12188 12189 11988 
4 11988 12189 12190 11989 
4 11989 12190 12191 11990 
4 11990 12191 12192 11991 
4 11991 12192 12193 11992 
4 11992 12193 12194 11993 
4 11993 12194 12195 11994 
4 11994 12195 12196 11995 
4 11995 12196 12197 11996 
4 11996 12197 12198 11997 
4 11997 12198 12199 11998 
4 11998 12199 12200 11999 
4 11999 12200 12201 12000 
4 12000 12201 12202 12001 
4 12001 12202 12203 12002 
4 12002 12203 12204 12003 
4 12003 12204 12205 12004 
4 12004 12205 12206 12005 
4 12005 12206 12207 12006 
4 12006 12207 12208 12007 
4 12007 12208 12209 12008 
4 12008 12209 12210 12009 
4 12009 12210 12211 12010 
4 12010 12211 12212 12011 
4 12011 12212 12213 12012 
4 12012 12213 12214 12013 
4 12013 12214 12215 12014 
4 12014 12215 12216 12015 
4 12015 12216 12217 12016 
4 12016 12217 12218 12017 
4 12017 12218 12219 12018 
4 12018 12219 12220 12019 
4 12019 12220 12221 12020 
4 12020 12221 12222 12021 
4 12021 12222 12223 12022 
4 12022 12223 12224 12023 
4 12023 12224 12225 12024 
4 12024 12225 12226 12025 
4 12025 12226 12227 12026 
4 12026 12227 12228 12027 
4 12027 12228 12229 12028 
4 12028 12229 12230 12029 
4 12029 12230 12231 12030 
4 12030 12231 12232 12031 
4 12031 12232 12233 12032 
4 12032 12233 12234 12033 
4 12033 12234 12235 12034 
4 12034 12235 12236 12035 
4 12035 12236 12237 12036 
4 12036 12237 12238 12037 
4 12037 12238 12239 12038 
4 12038 12239 12240 12039 
4 12039 12240 12241 12040 
4 12040 12241 12242 12041 
4 12041 12242 12243 12042 
4 12042 12243 12244 12043 
4 12043 12244 12245 12044 
4 12044 12245 12246 12045 
4 12045 12246 12247 12046 
4 12046 12247 12248 12047 
4 12047 12248 12249 12048 
4 12048 12249 12250 12049 
4 12049 12250 12251 12050 
4 12050 12251 12252 12051 
4 12051 12252 12253 12052 
4 12052 12253 12254 12053 
4 12053 12254 12255 12054 
4 12054 12255 12256 12055 
4 12055 12256 12257 12056 
4 12056 12257 12258 12057 
4 12057 12258 12259 12058 
4 12058 12259 12260 12059 
4 12060 12261 12262 12061 
4 12061 12262 12263 12062 
4 12062 12263 12264 12063 
4 12063 12264 12265 12064 
4 12064 12265 12266 12065 
4 12065 12266 12267 12066 
4 12066 12267 12268 12067 
4 12067 12268 12269 12068 
4 12068 12269 12270 12069 
4 12069 12270 12271 12070 
4 12070 12271 12272 12071 
4 12071 12272 12273 12072 
4 12072 12273 12274 12073 
4 12073 12274 12275 12074 
4 12074 12275 12276 12075 
4 12075 12276 12277 12076 
4 12076 12277 12278 12077 
4 12077 12278 12279 12078 
4 12078 12279 12280 12079 
4 12079 12280 12281 12080 
4 12080 12281 12282 12081 
4 12081 12282 12283 12082 
4 12082 12283 12284 12083 
4 12083 12284 12285 12084 
4 12084 12285 12286 12085 
4 12085 12286 12287 12086 
4 12086 12287 12288 12087 
4 12087 12288 12289 12088 
4 12088 12289 12290 12089 
4 12089 12290 12291 12090 
4 12090 12291 12292 12091 
4 12091 12292 12293 12092 
4 12092 12293 12294 12093 
4 12093 12294 12295 12094 
4 12094 12295 12296 12095 
4 12095 12296 12297 12096 
4 12096 12297 12298 12097 
4 12097 12298 12299 12098 
4 12098 12299 12300 12099 
4 12099 12300 12301 12100 
4 12100 12301 12302 12101 
4 12101 12302 12303 12102 
4 12102 12303 12304 12103 
4 12103 12304 12305 12104 
4 12104 12305 12306 12105 
4 12105 12306 12307 12106 
4 12106 12307 12308 12107 
4 12107 12308 12309 12108 
4 12108 12309 12310 12109 
4 12109 12310 12311 12110 
4 12110 12311 12312 12111 
4 12111 12312 12313 12112 
4 12112 12313 12314 12113 
4 12113 12314 12315 12114 
4 12114 12315 12316 12115 
4 12115 12316 12317 12116 
4 12116 12317 12318 12117 
4 12117 12318 12319 12118 
4 12118 12319 12320 12119 
4 12119 12320 12321 12120 
4 12120 12321 12322 12121 
4 12121 12322 12323 12122 
4 12122 12323 12324 12123 
4 12123 12324 12325 12124 
4 12124 12325 12326 12125 
4 12125 12326 12327 12126 
4 12126 12327 12328 12127 
4 12127 12328 12329 12128 
4 12128 12329 12330 12129 
4 12129 12330 12331 12130 
4 12130 12331 12332 12131 
4 12131 12332 12333 12132 
4 12132 12333 12334 12133 
4 12133 12334 12335 12134 
4 12134 12335 12336 12135 
4 12135 12336 12337 12136 
4 12136 12337 12338 12137 
4 12137 12338 12339 12138 
4 12138 12339 12340 12139 
4 12139 12340 12341 12140 
4 12140 12341 12342 12141 
4 12141 12342 12343 12142 
4 12142 12343 12344 12143 
4 12143 12344 12345 12144 
4 12144 12345 12346 12145 
4 12145 12346 12347 12146 
4 12146 12347 12348 12147 
4 12147 12348 12349 12148 
4 12148 12349 12350 12149 
4 12149 12350 12351 12150 
4 12150 12351 12352 12151 
4 12151 12352 12353 12152 
4 12152 12353 12354 12153 
4 12153 12354 12355 12154 
4 12154 12355 12356 12155 
4 12155 12356 12357 12156 
4 12156 12357 12358 12157 
4 12157 12358 12359 12158 
4 12158 12359 12360 12159 
4 12159 12360 12361 12160 
4 12160 12361 12362 12161 
4 12161 12362 12363 12162 
4 12162 12363 12364 12163 
4 12163 12364 12365 12164 
4 12164 12365 12366 12165 
4 12165 12366 12367 12166 
4 12166 12367 12368 12167 
4 12167 12368 12369 12168 
4 12168 12369 12370 12169 
4 12169 12370 12371 12170 
4 12170 12371 12372 12171 
4 12171 12372 12373 12172 
4 12172 12373 12374 12173 
4 12173 12374 12375 12174 
4 12174 12375 12376 12175 
4 12175 12376 12377 12176 
4 12176 12377 12378 12177 
4 12177 12378 12379 12178 
4 12178 12379 12380 12179 
4 12179 12380 12381 12180 
4 12180 12381 12382 12181 
4 12181 12382 12383 12182 
4 12182 12383 12384 12183 
4 12183 12384 12385 12184 
4 12184 12385 12386 12185 
4 12185 12386 12387 12186 
4 12186 12387 12388 12187 
4 12187 12388 12389 12188 
4 12188 12389 12390 12189 
4 12189 12390 12391 12190 
4 12190 12391 12392 12191 
4 12191 12392 12393 12192 
4 12192 12393 12394 12193 
4 12193 12394 12395 12194 
4 12194 12395 12396 12195 
4 12195 12396 12397 12196 
4 12196 12397 12398 12197 
4 12197 12398 12399 12198 
4 12198 12399 12400 12199 
4 12199 12400 12401 12200 
4 12200 12401 12402 12201 
4 12201 12402 12403 12202 
4 12202 12403 12404 12203 
4 12203 12404 12405 12204 
4 12204 12405 12406 12205 
4 12205 12406 12407 12206 
4 12206 12407 12408 12207 
4 12207 12408 12409 12208 
4 12208 12409 12410 12209 
4 12209 12410 12411 12210 
4 12210 12411 12412 12211 
4 12211 12412 12413 12212 
4 12212 12413 12414 12213 
4 12213 12414 12415 12214 
4 12214 12415 12416 12215 
4 12215 12416 12417 12216 
4 12216 12417 12418 12217 
4 12217 12418 12419 12218 
4 12218 12419 12420 12219 
4 12219 12420 12421 12220 
4 12220 12421 12422 12221 
4 12221 12422 12423 12222 
4 12222 12423 12424 12223 
4 12223 12424 12425 12224 
4 12224 12425 12426 12225 
4 12225 12426 12427 12226 
4 12226 12427 12428 12227 
4 12227 12428 12429 12228 
4 12228 12429 12430 12229 
4 12229 12430 12431 12230 
4 12230 12431 12432 12231 
4 12231 12432 12433 12232 
4 12232 12433 12434 12233 
4 12233 12434 12435 12234 
4 12234 12435 12436 12235 
4 12235 12436 12437 12236 
4 12236 12437 12438 12237 
4 12237 12438 12439 12238 
4 12238 12439 12440 12239 
4 12239 12440 12441 12240 
4 12240 12441 12442 12241 
4 12241 12442 12443 12242 
4 12242 12443 12444 12243 
4 12243 12444 12445 12244 
4 12244 12445 12446 12245 
4 12245 12446 12447 12246 
4 12246 12447 12448 12247 
4 12247 12448 12449 12248 
4 12248 12449 12450 12249 
4 12249 12450 12451 12250 
4 12250 12451 12452 12251 
4 12251 12452 12453 12252 
4 12252 12453 12454 12253 
4 12253 12454 12455 12254 
4 12254 12455 12456 12255 
4 12255 12456 12457 12256 
4 12256 12457 12458 12257 
4 12257 12458 12459 12258 
4 12258 12459 12460 12259 
4 12259 12460 12461 12260 
4 12261 12462 12463 12262 
4 12262 12463 12464 12263 
4 12263 12464 12465 12264 
4 12264 12465 12466 12265 
4 12265 12466 12467 12266 
4 12266 12467 12468 12267 
4 12267 12468 12469 12268 
4 12268 12469 12470 12269 
4 12269 12470 12471 12270 
4 12270 12471 12472 12271 
4 12271 12472 12473 12272 
4 12272 12473 12474 12273 
4 12273 12474 12475 12274 
4 12274 12475 12476 12275 
4 12275 12476 12477 12276 
4 12276 12477 12478 12277 
4 12277 12478 12479 12278 
4 12278 12479 12480 12279 
4 12279 12480 12481 12280 
4 12280 12481 12482 12281 
4 12281 12482 12483 12282 
4 12282 12483 12484 12283 
4 12283 12484 12485 12284 
4 12284 12485 12486 12285 
4 12285 12486 12487 12286 
4 12286 12487 12488 12287 
4 12287 12488 12489 12288 
4 12288 12489 12490 12289 
4 12289 12490 12491 12290 
4 12290 12491 12492 12291 
4 12291 12492 12493 12292 
4 12292 12493 12494 12293 
4 12293 12494 12495 12294 
4 12294 12495 12496 12295 
4 12295 12496 12497 12296 
4 12296 12497 12498 12297 
4 12297 12498 12499 12298 
4 12298 12499 12500 12299 
4 12299 12500 12501 12300 
4 12300 12501 12502 12301 
4 12301 12502 12503 12302 
4 12302 12503 12504 12303 
4 12303 12504 12505 12304 
4 12304 12505 12506 12305 
4 12305 12506 12507 12306 
4 12306 12507 12508 12307 
4 12307 12508 12509 12308 
4 12308 12509 12510 12309 
4 12309 12510 12511 12310 
4 12310 12511 12512 12311 
4 12311 12512 12513 12312 
4 12312 12513 12514 12313 
4 12313 12514 12515 12314 
4 12314 12515 12516 12315 
4 12315 12516 12517 12316 
4 12316 12517 12518 12317 
4 12317 12518 12519 12318 
4 12318 12519 12520 12319 
4 12319 12520 12521 12320 
4 12320 12521 12522 12321 
4 12321 12522 12523 12322 
4 12322 12523 12524 12323 
4 12323 12524 12525 12324 
4 12324 12525 12526 12325 
4 12325 12526 12527 12326 
4 12326 12527 12528 12327 
4 12327 12528 12529 12328 
4 12328 12529 12530 12329 
4 12329 12530 12531 12330 
4 12330 12531 12532 12331 
4 12331 12532 12533 12332 
4 12332 12533 12534 12333 
4 12333 12534 12535 12334 
4 12334 12535 12536 12335 
4 12335 12536 12537 12336 
4 12336 12537 12538 12337 
4 12337 12538 12539 12338 
4 12338 12539 12540 12339 
4 12339 12540 12541 12340 
4 12340 12541 12542 12341 
4 12341 12542 12543 12342 
4 12342 12543 12544 12343 
4 12343 12544 12545 12344 
4 12344 12545 12546 12345 
4 12345 12546 12547 12346 
4 12346 12547 12548 12347 
4 12347 12548 12549 12348 
4 12348 12549 12550 12349 
4 12349 12550 12551 12350 
4 12350 12551 12552 12351 
4 12351 12552 12553 12352 
4 12352 12553 12554 12353 
4 12353 12554 12555 12354 
4 12354 12555 12556 12355 
4 12355 12556 12557 12356 
4 12356 12557 12558 12357 
4 12357 12558 12559 12358 
4 12358 12559 12560 12359 
4 12359 12560 12561 12360 
4 12360 12561 12562 12361 
4 12361 12562 12563 12362 
4 12362 12563 12564 12363 
4 12363 12564 12565 12364 
4 12364 12565 12566 12365 
4 12365 12566 12567 12366 
4 12366 12567 12568 12367 
4 12367 12568 12569 12368 
4 12368 12569 12570 12369 
4 12369 12570 12571 12370 
4 12370 12571 12572 12371 
4 12371 12572 12573 12372 
4 12372 12573 12574 12373 
4 12373 12574 12575 12374 
4 12374 12575 12576 12375 
4 12375 12576 12577 12376 
4 12376 12577 12578 12377 
4 12377 12578 12579 12378 
4 12378 12579 12580 12379 
4 12379 12580 12581 12380 
4 12380 12581 12582 12381 
4 12381 12582 12583 12382 
4 12382 12583 12584 12383 
4 12383 12584 12585 12384 
4 12384 12585 12586 12385 
4 12385 12586 12587 12386 
4 12386 12587 12588 12387 
4 12387 12588 12589 12388 
4 12388 12589 12590 12389 
4 12389 12590 12591 12390 
4 12390 12591 12592 12391 
4 12391 12592 12593 12392 
4 12392 12593 12594 12393 
4 12393 12594 12595 12394 
4 12394 12595 12596 12395 
4 12395 12596 12597 12396 
4 12396 12597 12598 12397 
4 12397 12598 12599 12398 
4 12398 12599 12600 12399 
4 12399 12600 12601 12400 
4 12400 12601 12602 12401 
4 12401 12602 12603 12402 
4 12402 12603 12604 12403 
4 12403 12604 12605 12404 
4 12404 12605 12606 12405 
4 12405 12606 12607 12406 
4 12406 12607 12608 12407 
4 12407 12608 12609 12408 
4 12408 12609 12610 12409 
4 12409 12610 12611 12410 
4 12410 12611 12612 12411 
4 12411 12612 12613 12412 
4 12412 12613 12614 12413 
4 12413 12614 12615 12414 
4 12414 12615 12616 12415 
4 12415 12616 12617 12416 
4 12416 12617 12618 12417 
4 12417 12618 12619 12418 
4 12418 12619 12620 12419 
4 12419 12620 12621 12420 
4 12420 12621 12622 12421 
4 12421 12622 12623 12422 
4 12422 12623 12624 12423 
4 12423 12624 12625 12424 
4 12424 12625 12626 12425 
4 12425 12626 12627 12426 
4 12426 12627 12628 12427 
4 12427 12628 12629 12428 
4 12428 12629 12630 12429 
4 12429 12630 12631 12430 
4 12430 12631 12632 12431 
4 12431 12632 12633 12432 
4 12432 12633 12634 12433 
4 12433 12634 12635 12434 
4 12434 12635 12636 12435 
4 12435 12636 12637 12436 
4 12436 12637 12638 12437 
4 12437 12638 12639 12438 
4 12438 12639 12640 12439 
4 12439 12640 12641 12440 
4 12440 12641 12642 12441 
4 12441 12642 12643 12442 
4 12442 12643 12644 12443 
4 12443 12644 12645 12444 
4 12444 12645 12646 12445 
4 12445 12646 12647 12446 
4 12446 12647 12648 12447 
4 12447 12648 12649 12448 
4 12448 12649 12650 12449 
4 12449 12650 12651 12450 
4 12450 12651 12652 12451 
4 12451 12652 12653 12452 
4 12452 12653 12654 12453 
4 12453 12654 12655 12454 
4 12454 12655 12656 12455 
4 12455 12656 12657 12456 
4 12456 12657 12658 12457 
4 12457 12658 12659 12458 
4 12458 12659 12660 12459 
4 12459 12660 12661 12460 
4 12460 12661 12662 12461 
4 12462 12663 12664 12463 
4 12463 12664 12665 12464 
4 12464 12665 12666 12465 
4 12465 12666 12667 12466 
4 12466 12667 12668 12467 
4 12467 12668 12669 12468 
4 12468 12669 12670 12469 
4 12469 12670 12671 12470 
4 12470 12671 12672 12471 
4 12471 12672 12673 12472 
4 12472 12673 12674 12473 
4 12473 12674 12675 12474 
4 12474 12675 12676 12475 
4 12475 12676 12677 12476 
4 12476 12677 12678 12477 
4 12477 12678 12679 12478 
4 12478 12679 12680 12479 
4 12479 12680 12681 12480 
4 12480 12681 12682 12481 
4 12481 12682 12683 12482 
4 12482 12683 12684 12483 
4 12483 12684 12685 12484 
4 12484 12685 12686 12485 
4 12485 12686 12687 12486 
4 12486 12687 12688 12487 
4 12487 12688 12689 12488 
4 12488 12689 12690 12489 
4 12489 12690 12691 12490 
4 12490 12691 12692 12491 
4 12491 12692 12693 12492 
4 12492 12693 12694 12493 
4 12493 12694 12695 12494 
4 12494 12695 12696 12495 
4 12495 12696 12697 12496 
4 12496 12697 12698 12497 
4 12497 12698 12699 12498 
4 12498 12699 12700 12499 
4 12499 12700 12701 12500 
4 12500 12701 12702 12501 
4 12501 12702 12703 12502 
4 12502 12703 12704 12503 
4 12503 12704 12705 12504 
4 12504 12705 12706 12505 
4 12505 12706 12707 12506 
4 12506 12707 12708 12507 
4 12507 12708 12709 12508 
4 12508 12709 12710 12509 
4 12509 12710 12711 12510 
4 12510 12711 12712 12511 
4 12511 12712 12713 12512 
4 12512 12713 12714 12513 
4 12513 12714 12715 12514 
4 12514 12715 12716 12515 
4 12515 12716 12717 12516 
4 12516 12717 12718 12517 
4 12517 12718 12719 12518 
4 12518 12719 12720 12519 
4 12519 12720 12721 12520 
4 12520 12721 12722 12521 
4 12521 12722 12723 12522 
4 12522 12723 12724 12523 
4 12523 12724 12725 12524 
4 12524 12725 12726 12525 
4 12525 12726 12727 12526 
4 12526 12727 12728 12527 
4 12527 12728 12729 12528 
4 12528 12729 12730 12529 
4 12529 12730 12731 12530 
4 12530 12731 12732 12531 
4 12531 12732 12733 12532 
4 12532 12733 12734 12533 
4 12533 12734 12735 12534 
4 12534 12735 12736 12535 
4 12535 12736 12737 12536 
4 12536 12737 12738 12537 
4 12537 12738 12739 12538 
4 12538 12739 12740 12539 
4 12539 12740 12741 12540 
4 12540 12741 12742 12541 
4 12541 12742 12743 12542 
4 12542 12743 12744 12543 
4 12543 12744 12745 12544 
4 12544 12745 12746 12545 
4 12545 12746 12747 12546 
4 12546 12747 12748 12547 
4 12547 12748 12749 12548 
4 12548 12749 12750 12549 
4 12549 12750 12751 12550 
4 12550 12751 12752 12551 
4 12551 12752 12753 12552 
4 12552 12753 12754 12553 
4 12553 12754 12755 12554 
4 12554 12755 12756 12555 
4 12555 12756 12757 12556 
4 12556 12757 12758 12557 
4 12557 12758 12759 12558 
4 12558 12759 12760 12559 
4 12559 12760 12761 12560 
4 12560 12761 12762 12561 
4 12561 12762 12763 12562 
4 12562 12763 12764 12563 
4 12563 12764 12765 12564 
4 12564 12765 12766 12565 
4 12565 12766 12767 12566 
4 12566 12767 12768 12567 
4 12567 12768 12769 12568 
4 12568 12769 12770 12569 
4 12569 12770 12771 12570 
4 12570 12771 12772 12571 
4 12571 12772 12773 12572 
4 12572 12773 12774 12573 
4 12573 12774 12775 12574 
4 12574 12775 12776 12575 
4 12575 12776 12777 12576 
4 12576 12777 12778 12577 
4 12577 12778 12779 12578 
4 12578 12779 12780 12579 
4 12579 12780 12781 12580 
4 12580 12781 12782 12581 
4 12581 12782 12783 12582 
4 12582 12783 12784 12583 
4 12583 12784 12785 12584 
4 12584 12785 12786 12585 
4 12585 12786 12787 12586 
4 12586 12787 12788 12587 
4 12587 12788 12789 12588 
4 12588 12789 12790 12589 
4 12589 12790 12791 12590 
4 12590 12791 12792 12591 
4 12591 12792 12793 12592 
4 12592 12793 12794 12593 
4 12593 12794 12795 12594 
4 12594 12795 12796 12595 
4 12595 12796 12797 12596 
4 12596 12797 12798 12597 
4 12597 12798 12799 12598 
4 12598 12799 12800 12599 
4 12599 12800 12801 12600 
4 12600 12801 12802 12601 
4 12601 12802 12803 12602 
4 12602 12803 12804 12603 
4 12603 12804 12805 12604 
4 12604 12805 12806 12605 
4 12605 12806 12807 12606 
4 12606 12807 12808 12607 
4 12607 12808 12809 12608 
4 12608 12809 12810 12609 
4 12609 12810 12811 12610 
4 12610 12811 12812 12611 
4 12611 12812 12813 12612 
4 12612 12813 12814 12613 
4 12613 12814 12815 12614 
4 12614 12815 12816 12615 
4 12615 12816 12817 12616 
4 12616 12817 12818 12617 
4 12617 12818 12819 12618 
4 12618 12819 12820 12619 
4 12619 12820 12821 12620 
4 12620 12821 12822 12621 
4 12621 12822 12823 12622 
4 12622 12823 12824 12623 
4 12623 12824 12825 12624 
4 12624 12825 12826 12625 
4 12625 12826 12827 12626 
4 12626 12827 12828 12627 
4 12627 12828 12829 12628 
4 12628 12829 12830 12629 
4 12629 12830 12831 12630 
4 12630 12831 12832 12631 
4 12631 12832 12833 12632 
4 12632 12833 12834 12633 
4 12633 12834 12835 12634 
4 12634 12835 12836 12635 
4 12635 12836 12837 12636 
4 12636 12837 12838 12637 
4 12637 12838 12839 12638 
4 12638 12839 12840 12639 
4 12639 12840 12841 12640 
4 12640 12841 12842 12641 
4 12641 12842 12843 12642 
4 12642 12843 12844 12643 
4 12643 12844 12845 12644 
4 12644 12845 12846 12645 
4 12645 12846 12847 12646 
4 12646 12847 12848 12647 
4 12647 12848 12849 12648 
4 12648 12849 12850 12649 
4 12649 12850 12851 12650 
4 12650 12851 12852 12651 
4 12651 12852 12853 12652 
4 12652 12853 12854 12653 
4 12653 12854 12855 12654 
4 12654 12855 12856 12655 
4 12655 12856 12857 12656 
4 12656 12857 12858 12657 
4 12657 12858 12859 12658 
4 12658 12859 12860 12659 
4 12659 12860 12861 12660 
4 12660 12861 12862 12661 
4 12661 12862 12863 12662 
4 12663 12864 12865 12664 
4 12664 12865 12866 12665 
4 12665 12866 12867 12666 
4 12666 12867 12868 12667 
4 12667 12868 12869 12668 
4 12668 12869 12870 12669 
4 12669 12870 12871 12670 
4 12670 12871 12872 12671 
4 12671 12872 12873 12672 
4 12672 12873 12874 12673 
4 12673 12874 12875 12674 
4 12674 12875 12876 12675 
4 12675 12876 12877 12676 
4 12676 12877 12878 12677 
4 12677 12878 12879 12678 
4 12678 12879 12880 12679 
4 12679 12880 12881 12680 
4 12680 12881 12882 12681 
4 12681 12882 12883 12682 
4 12682 12883 12884 12683 
4 12683 12884 12885 12684 
4 12684 12885 12886 12685 
4 12685 12886 12887 12686 
4 12686 12887 12888 12687 
4 12687 12888 12889 12688 
4 12688 12889 12890 12689 
4 12689 12890 12891 12690 
4 12690 12891 12892 12691 
4 12691 12892 12893 12692 
4 12692 12893 12894 12693 
4 12693 12894 12895 12694 
4 12694 12895 12896 12695 
4 12695 12896 12897 12696 
4 12696 12897 12898 12697 
4 12697 12898 12899 12698 
4 12698 12899 12900 12699 
4 12699 12900 12901 12700 
4 12700 12901 12902 12701 
4 12701 12902 12903 12702 
4 12702 12903 12904 12703 
4 12703 12904 12905 12704 
4 12704 12905 12906 12705 
4 12705 12906 12907 12706 
4 12706 12907 12908 12707 
4 12707 12908 12909 12708 
4 12708 12909 12910 12709 
4 12709 12910 12911 12710 
4 12710 12911 12912 12711 
4 12711 12912 12913 12712 
4 12712 12913 12914 12713 
4 12713 12914 12915 12714 
4 12714 12915 12916 12715 
4 12715 12916 12917 12716 
4 12716 12917 12918 12717 
4 12717 12918 12919 12718 
4 12718 12919 12920 12719 
4 12719 12920 12921 12720 
4 12720 12921 12922 12721 
4 12721 12922 12923 12722 
4 12722 12923 12924 12723 
4 12723 12924 12925 12724 
4 12724 12925 12926 12725 
4 12725 12926 12927 12726 
4 12726 12927 12928 12727 
4 12727 12928 12929 12728 
4 12728 12929 12930 12729 
4 12729 12930 12931 12730 
4 12730 12931 12932 12731 
4 12731 12932 12933 12732 
4 12732 12933 12934 12733 
4 12733 12934 12935 12734 
4 12734 12935 12936 12735 
4 12735 12936 12937 12736 
4 12736 12937 12938 12737 
4 12737 12938 12939 12738 
4 12738 12939 12940 12739 
4 12739 12940 12941 12740 
4 12740 12941 12942 12741 
4 12741 12942 12943 12742 
4 12742 12943 12944 12743 
4 12743 12944 12945 12744 
4 12744 12945 12946 12745 
4 12745 12946 12947 12746 
4 12746 12947 12948 12747 
4 12747 12948 12949 12748 
4 12748 12949 12950 12749 
4 12749 12950 12951 12750 
4 12750 12951 12952 12751 
4 12751 12952 12953 12752 
4 12752 12953 12954 12753 
4 12753 12954 12955 12754 
4 12754 12955 12956 12755 
4 12755 12956 12957 12756 
4 12756 12957 12958 12757 
4 12757 12958 12959 12758 
4 12758 12959 12960 12759 
4 12759 12960 12961 12760 
4 12760 12961 12962 12761 
4 12761 12962 12963 12762 
4 12762 12963 12964 12763 
4 12763 12964 12965 12764 
4 12764 12965 12966 12765 
4 12765 12966 12967 12766 
4 12766 12967 12968 12767 
4 12767 12968 12969 12768 
4 12768 12969 12970 12769 
4 12769 12970 12971 12770 
4 12770 12971 12972 12771 
4 12771 12972 12973 12772 
4 12772 12973 12974 12773 
4 12773 12974 12975 12774 
4 12774 12975 12976 12775 
4 12775 12976 12977 12776 
4 12776 12977 12978 12777 
4 12777 12978 12979 12778 
4 12778 12979 12980 12779 
4 12779 12980 12981 12780 
4 12780 12981 12982 12781 
4 12781 12982 12983 12782 
4 12782 12983 12984 12783 
4 12783 12984 12985 12784 
4 12784 12985 12986 12785 
4 12785 12986 12987 12786 
4 12786 12987 12988 12787 
4 12787 12988 12989 12788 
4 12788 12989 12990 12789 
4 12789 12990 12991 12790 
4 12790 12991 12992 12791 
4 12791 12992 12993 12792 
4 12792 12993 12994 12793 
4 12793 12994 12995 12794 
4 12794 12995 12996 12795 
4 12795 12996 12997 12796 
4 12796 12997 12998 12797 
4 12797 12998 12999 12798 
4 12798 12999 13000 12799 
4 12799 13000 13001 12800 
4 12800 13001 13002 12801 
4 12801 13002 13003 12802 
4 12802 13003 13004 12803 
4 12803 13004 13005 12804 
4 12804 13005 13006 12805 
4 12805 13006 13007 12806 
4 12806 13007 13008 12807 
4 12807 13008 13009 12808 
4 12808 13009 13010 12809 
4 12809 13010 13011 12810 
4 12810 13011 13012 12811 
4 12811 13012 13013 12812 
4 12812 13013 13014 12813 
4 12813 13014 13015 12814 
4 12814 13015 13016 12815 
4 12815 13016 13017 12816 
4 12816 13017 13018 12817 
4 12817 13018 13019 12818 
4 12818 13019 13020 12819 
4 12819 13020 13021 12820 
4 12820 13021 13022 12821 
4 12821 13022 13023 12822 
4 12822 13023 13024 12823 
4 12823 13024 13025 12824 
4 12824 13025 13026 12825 
4 12825 13026 13027 12826 
4 12826 13027 13028 12827 
4 12827 13028 13029 12828 
4 12828 13029 13030 12829 
4 12829 13030 13031 12830 
4 12830 13031 13032 12831 
4 12831 13032 13033 12832 
4 12832 13033 13034 12833 
4 12833 13034 13035 12834 
4 12834 13035 13036 12835 
4 12835 13036 13037 12836 
4 12836 13037 13038 12837 
4 12837 13038 13039 12838 
4 12838 13039 13040 12839 
4 12839 13040 13041 12840 
4 12840 13041 13042 12841 
4 12841 13042 13043 12842 
4 12842 13043 13044 12843 
4 12843 13044 13045 12844 
4 12844 13045 13046 12845 
4 12845 13046 13047 12846 
4 12846 13047 13048 12847 
4 12847 13048 13049 12848 
4 12848 13049 13050 12849 
4 12849 13050 13051 12850 
4 12850 13051 13052 12851 
4 12851 13052 13053 12852 
4 12852 13053 13054 12853 
4 12853 13054 13055 12854 
4 12854 13055 13056 12855 
4 12855 13056 13057 12856 
4 12856 13057 13058 12857 
4 12857 13058 13059 12858 
4 12858 13059 13060 12859 
4 12859 13060 13061 12860 
4 12860 13061 13062 12861 
4 12861 13062 13063 12862 
4 12862 13063 13064 12863 
4 12864 13065 13066 12865 
4 12865 13066 13067 12866 
4 12866 13067 13068 12867 
4 12867 13068 13069 12868 
4 12868 13069 13070 12869 
4 12869 13070 13071 12870 
4 12870 13071 13072 12871 
4 12871 13072 13073 12872 
4 12872 13073 13074 12873 
4 12873 13074 13075 12874 
4 12874 13075 13076 12875 
4 12875 13076 13077 12876 
4 12876 13077 13078 12877 
4 12877 13078 13079 12878 
4 12878 13079 13080 12879 
4 12879 13080 13081 12880 
4 12880 13081 13082 12881 
4 12881 13082 13083 12882 
4 12882 13083 13084 12883 
4 12883 13084 13085 12884 
4 12884 13085 13086 12885 
4 12885 13086 13087 12886 
4 12886 13087 13088 12887 
4 12887 13088 13089 12888 
4 12888 13089 13090 12889 
4 12889 13090 13091 12890 
4 12890 13091 13092 12891 
4 12891 13092 13093 12892 
4 12892 13093 13094 12893 
4 12893 13094 13095 12894 
4 12894 13095 13096 12895 
4 12895 13096 13097 12896 
4 12896 13097 13098 12897 
4 12897 13098 13099 12898 
4 12898 13099 13100 12899 
4 12899 13100 13101 12900 
4 12900 13101 13102 12901 
4 12901 13102 13103 12902 
4 12902 13103 13104 12903 
4 12903 13104 13105 12904 
4 12904 13105 13106 12905 
4 12905 13106 13107 12906 
4 12906 13107 13108 12907 
4 12907 13108 13109 12908 
4 12908 13109 13110 12909 
4 12909 13110 13111 12910 
4 12910 13111 13112 12911 
4 12911 13112 13113 12912 
4 12912 13113 13114 12913 
4 12913 13114 13115 12914 
4 12914 13115 13116 12915 
4 12915 13116 13117 12916 
4 12916 13117 13118 12917 
4 12917 13118 13119 12918 
4 12918 13119 13120 12919 
4 12919 13120 13121 12920 
4 12920 13121 13122 12921 
4 12921 13122 13123 12922 
4 12922 13123 13124 12923 
4 12923 13124 13125 12924 
4 12924 13125 13126 12925 
4 12925 13126 13127 12926 
4 12926 13127 13128 12927 
4 12927 13128 13129 12928 
4 12928 13129 13130 12929 
4 12929 13130 13131 12930 
4 12930 13131 13132 12931 
4 12931 13132 13133 12932 
4 12932 13133 13134 12933 
4 12933 13134 13135 12934 
4 12934 13135 13136 12935 
4 12935 13136 13137 12936 
4 12936 13137 13138 12937 
4 12937 13138 13139 12938 
4 12938 13139 13140 12939 
4 12939 13140 13141 12940 
4 12940 13141 13142 12941 
4 12941 13142 13143 12942 
4 12942 13143 13144 12943 
4 12943 13144 13145 12944 
4 12944 13145 13146 12945 
4 12945 13146 13147 12946 
4 12946 13147 13148 12947 
4 12947 13148 13149 12948 
4 12948 13149 13150 12949 
4 12949 13150 13151 12950 
4 12950 13151 13152 12951 
4 12951 13152 13153 12952 
4 12952 13153 13154 12953 
4 12953 13154 13155 12954 
4 12954 13155 13156 12955 
4 12955 13156 13157 12956 
4 12956 13157 13158 12957 
4 12957 13158 13159 12958 
4 12958 13159 13160 12959 
4 12959 13160 13161 12960 
4 12960 13161 13162 12961 
4 12961 13162 13163 12962 
4 12962 13163 13164 12963 
4 12963 13164 13165 12964 
4 12964 13165 13166 12965 
4 12965 13166 13167 12966 
4 12966 13167 13168 12967 
4 12967 13168 13169 12968 
4 12968 13169 13170 12969 
4 12969 13170 13171 12970 
4 12970 13171 13172 12971 
4 12971 13172 13173 12972 
4 12972 13173 13174 12973 
4 12973 13174 13175 12974 
4 12974 13175 13176 12975 
4 12975 13176 13177 12976 
4 12976 13177 13178 12977 
4 12977 13178 13179 12978 
4 12978 13179 13180 12979 
4 12979 13180 13181 12980 
4 12980 13181 13182 12981 
4 12981 13182 13183 12982 
4 12982 13183 13184 12983 
4 12983 13184 13185 12984 
4 12984 13185 13186 12985 
4 12985 13186 13187 12986 
4 12986 13187 13188 12987 
4 12987 13188 13189 12988 
4 12988 13189 13190 12989 
4 12989 13190 13191 12990 
4 12990 13191 13192 12991 
4 12991 13192 13193 12992 
4 12992 13193 13194 12993 
4 12993 13194 13195 12994 
4 12994 13195 13196 12995 
4 12995 13196 13197 12996 
4 12996 13197 13198 12997 
4 12997 13198 13199 12998 
4 12998 13199 13200 12999 
4 12999 13200 13201 13000 
4 13000 13201 13202 13001 
4 13001 13202 13203 13002 
4 13002 13203 13204 13003 
4 13003 13204 13205 13004 
4 13004 13205 13206 13005 
4 13005 13206 13207 13006 
4 13006 13207 13208 13007 
4 13007 13208 13209 13008 
4 13008 13209 13210 13009 
4 13009 13210 13211 13010 
4 13010 13211 13212 13011 
4 13011 13212 13213 13012 
4 13012 13213 13214 13013 
4 13013 13214 13215 13014 
4 13014 13215 13216 13015 
4 13015 13216 13217 13016 
4 13016 13217 13218 13017 
4 13017 13218 13219 13018 
4 13018 13219 13220 13019 
4 13019 13220 13221 13020 
4 13020 13221 13222 13021 
4 13021 13222 13223 13022 
4 13022 13223 13224 13023 
4 13023 13224 13225 13024 
4 13024 13225 13226 13025 
4 13025 13226 13227 13026 
4 13026 13227 13228 13027 
4 13027 13228 13229 13028 
4 13028 13229 13230 13029 
4 13029 13230 13231 13030 
4 13030 13231 13232 13031 
4 13031 13232 13233 13032 
4 13032 13233 13234 13033 
4 13033 13234 13235 13034 
4 13034 13235 13236 13035 
4 13035 13236 13237 13036 
4 13036 13237 13238 13037 
4 13037 13238 13239 13038 
4 13038 13239 13240 13039 
4 13039 13240 13241 13040 
4 13040 13241 13242 13041 
4 13041 13242 13243 13042 
4 13042 13243 13244 13043 
4 13043 13244 13245 13044 
4 13044 13245 13246 13045 
4 13045 13246 13247 13046 
4 13046 13247 13248 13047 
4 13047 13248 13249 13048 
4 13048 13249 13250 13049 
4 13049 13250 13251 13050 
4 13050 13251 13252 13051 
4 13051 13252 13253 13052 
4 13052 13253 13254 13053 
4 13053 13254 13255 13054 
4 13054 13255 13256 13055 
4 13055 13256 13257 13056 
4 13056 13257 13258 13057 
4 13057 13258 13259 13058 
4 13058 13259 13260 13059 
4 13059 13260 13261 13060 
4 13060 13261 13262 13061 
4 13061 13262 13263 13062 
4 13062 13263 13264 13063 
4 13063 13264 13265 13064 
4 13065 13266 13267 13066 
4 13066 13267 13268 13067 
4 13067 13268 13269 13068 
4 13068 13269 13270 13069 
4 13069 13270 13271 13070 
4 13070 13271 13272 13071 
4 13071 13272 13273 13072 
4 13072 13273 13274 13073 
4 13073 13274 13275 13074 
4 13074 13275 13276 13075 
4 13075 13276 13277 13076 
4 13076 13277 13278 13077 
4 13077 13278 13279 13078 
4 13078 13279 13280 13079 
4 13079 13280 13281 13080 
4 13080 13281 13282 13081 
4 13081 13282 13283 13082 
4 13082 13283 13284 13083 
4 13083 13284 13285 13084 
4 13084 13285 13286 13085 
4 13085 13286 13287 13086 
4 13086 13287 13288 13087 
4 13087 13288 13289 13088 
4 13088 13289 13290 13089 
4 13089 13290 13291 13090 
4 13090 13291 13292 13091 
4 13091 13292 13293 13092 
4 13092 13293 13294 13093 
4 13093 13294 13295 13094 
4 13094 13295 13296 13095 
4 13095 13296 13297 13096 
4 13096 13297 13298 13097 
4 13097 13298 13299 13098 
4 13098 13299 13300 13099 
4 13099 13300 13301 13100 
4 13100 13301 13302 13101 
4 13101 13302 13303 13102 
4 13102 13303 13304 13103 
4 13103 13304 13305 13104 
4 13104 13305 13306 13105 
4 13105 13306 13307 13106 
4 13106 13307 13308 13107 
4 13107 13308 13309 13108 
4 13108 13309 13310 13109 
4 13109 13310 13311 13110 
4 13110 13311 13312 13111 
4 13111 13312 13313 13112 
4 13112 13313 13314 13113 
4 13113 13314 13315 13114 
4 13114 13315 13316 13115 
4 13115 13316 13317 13116 
4 13116 13317 13318 13117 
4 13117 13318 13319 13118 
4 13118 13319 13320 13119 
4 13119 13320 13321 13120 
4 13120 13321 13322 13121 
4 13121 13322 13323 13122 
4 13122 13323 13324 13123 
4 13123 13324 13325 13124 
4 13124 13325 13326 13125 
4 13125 13326 13327 13126 
4 13126 13327 13328 13127 
4 13127 13328 13329 13128 
4 13128 13329 13330 13129 
4 13129 13330 13331 13130 
4 13130 13331 13332 13131 
4 13131 13332 13333 13132 
4 13132 13333 13334 13133 
4 13133 13334 13335 13134 
4 13134 13335 13336 13135 
4 13135 13336 13337 13136 
4 13136 13337 13338 13137 
4 13137 13338 13339 13138 
4 13138 13339 13340 13139 
4 13139 13340 13341 13140 
4 13140 13341 13342 13141 
4 13141 13342 13343 13142 
4 13142 13343 13344 13143 
4 13143 13344 13345 13144 
4 13144 13345 13346 13145 
4 13145 13346 13347 13146 
4 13146 13347 13348 13147 
4 13147 13348 13349 13148 
4 13148 13349 13350 13149 
4 13149 13350 13351 13150 
4 13150 13351 13352 13151 
4 13151 13352 13353 13152 
4 13152 13353 13354 13153 
4 13153 13354 13355 13154 
4 13154 13355 13356 13155 
4 13155 13356 13357 13156 
4 13156 13357 13358 13157 
4 13157 13358 13359 13158 
4 13158 13359 13360 13159 
4 13159 13360 13361 13160 
4 13160 13361 13362 13161 
4 13161 13362 13363 13162 
4 13162 13363 13364 13163 
4 13163 13364 13365 13164 
4 13164 13365 13366 13165 
4 13165 13366 13367 13166 
4 13166 13367 13368 13167 
4 13167 13368 13369 13168 
4 13168 13369 13370 13169 
4 13169 13370 13371 13170 
4 13170 13371 13372 13171 
4 13171 13372 13373 13172 
4 13172 13373 13374 13173 
4 13173 13374 13375 13174 
4 13174 13375 13376 13175 
4 13175 13376 13377 13176 
4 13176 13377 13378 13177 
4 13177 13378 13379 13178 
4 13178 13379 13380 13179 
4 13179 13380 13381 13180 
4 13180 13381 13382 13181 
4 13181 13382 13383 13182 
4 13182 13383 13384 13183 
4 13183 13384 13385 13184 
4 13184 13385 13386 13185 
4 13185 13386 13387 13186 
4 13186 13387 13388 13187 
4 13187 13388 13389 13188 
4 13188 13389 13390 13189 
4 13189 13390 13391 13190 
4 13190 13391 13392 13191 
4 13191 13392 13393 13192 
4 13192 13393 13394 13193 
4 13193 13394 13395 13194 
4 13194 13395 13396 13195 
4 13195 13396 13397 13196 
4 13196 13397 13398 13197 
4 13197 13398 13399 13198 
4 13198 13399 13400 13199 
4 13199 13400 13401 13200 
4 13200 13401 13402 13201 
4 13201 13402 13403 13202 
4 13202 13403 13404 13203 
4 13203 13404 13405 13204 
4 13204 13405 13406 13205 
4 13205 13406 13407 13206 
4 13206 13407 13408 13207 
4 13207 13408 13409 13208 
4 13208 13409 13410 13209 
4 13209 13410 13411 13210 
4 13210 13411 13412 13211 
4 13211 13412 13413 13212 
4 13212 13413 13414 13213 
4 13213 13414 13415 13214 
4 13214 13415 13416 13215 
4 13215 13416 13417 13216 
4 13216 13417 13418 13217 
4 13217 13418 13419 13218 
4 13218 13419 13420 13219 
4 13219 13420 13421 13220 
4 13220 13421 13422 13221 
4 13221 13422 13423 13222 
4 13222 13423 13424 13223 
4 13223 13424 13425 13224 
4 13224 13425 13426 13225 
4 13225 13426 13427 13226 
4 13226 13427 13428 13227 
4 13227 13428 13429 13228 
4 13228 13429 13430 13229 
4 13229 13430 13431 13230 
4 13230 13431 13432 13231 
4 13231 13432 13433 13232 
4 13232 13433 13434 13233 
4 13233 13434 13435 13234 
4 13234 13435 13436 13235 
4 13235 13436 13437 13236 
4 13236 13437 13438 13237 
4 13237 13438 13439 13238 
4 13238 13439 13440 13239 
4 13239 13440 13441 13240 
4 13240 13441 13442 13241 
4 13241 13442 13443 13242 
4 13242 13443 13444 13243 
4 13243 13444 13445 13244 
4 13244 13445 13446 13245 
4 13245 13446 13447 13246 
4 13246 13447 13448 13247 
4 13247 13448 13449 13248 
4 13248 13449 13450 13249 
4 13249 13450 13451 13250 
4 13250 13451 13452 13251 
4 13251 13452 13453 13252 
4 13252 13453 13454 13253 
4 13253 13454 13455 13254 
4 13254 13455 13456 13255 
4 13255 13456 13457 13256 
4 13256 13457 13458 13257 
4 13257 13458 13459 13258 
4 13258 13459 13460 13259 
4 13259 13460 13461 13260 
4 13260 13461 13462 13261 
4 13261 13462 13463 13262 
4 13262 13463 13464 13263 
4 13263 13464 13465 13264 
4 13264 13465 13466 13265 
4 13266 13467 13468 13267 
4 13267 13468 13469 13268 
4 13268 13469 13470 13269 
4 13269 13470 13471 13270 
4 13270 13471 13472 13271 
4 13271 13472 13473 13272 
4 13272 13473 13474 13273 
4 13273 13474 13475 13274 
4 13274 13475 13476 13275 
4 13275 13476 13477 13276 
4 13276 13477 13478 13277 
4 13277 13478 13479 13278 
4 13278 13479 13480 13279 
4 13279 13480 13481 13280 
4 13280 13481 13482 13281 
4 13281 13482 13483 13282 
4 13282 13483 13484 13283 
4 13283 13484 13485 13284 
4 13284 13485 13486 13285 
4 13285 13486 13487 13286 
4 13286 13487 13488 13287 
4 13287 13488 13489 13288 
4 13288 13489 13490 13289 
4 13289 13490 13491 13290 
4 13290 13491 13492 13291 
4 13291 13492 13493 13292 
4 13292 13493 13494 13293 
4 13293 13494 13495 13294 
4 13294 13495 13496 13295 
4 13295 13496 13497 13296 
4 13296 13497 13498 13297 
4 13297 13498 13499 13298 
4 13298 13499 13500 13299 
4 13299 13500 13501 13300 
4 13300 13501 13502 13301 
4 13301 13502 13503 13302 
4 13302 13503 13504 13303 
4 13303 13504 13505 13304 
4 13304 13505 13506 13305 
4 13305 13506 13507 13306 
4 13306 13507 13508 13307 
4 13307 13508 13509 13308 
4 13308 13509 13510 13309 
4 13309 13510 13511 13310 
4 13310 13511 13512 13311 
4 13311 13512 13513 13312 
4 13312 13513 13514 13313 
4 13313 13514 13515 13314 
4 13314 13515 13516 13315 
4 13315 13516 13517 13316 
4 13316 13517 13518 13317 
4 13317 13518 13519 13318 
4 13318 13519 13520 13319 
4 13319 13520 13521 13320 
4 13320 13521 13522 13321 
4 13321 13522 13523 13322 
4 13322 13523 13524 13323 
4 13323 13524 13525 13324 
4 13324 13525 13526 13325 
4 13325 13526 13527 13326 
4 13326 13527 13528 13327 
4 13327 13528 13529 13328 
4 13328 13529 13530 13329 
4 13329 13530 13531 13330 
4 13330 13531 13532 13331 
4 13331 13532 13533 13332 
4 13332 13533 13534 13333 
4 13333 13534 13535 13334 
4 13334 13535 13536 13335 
4 13335 13536 13537 13336 
4 13336 13537 13538 13337 
4 13337 13538 13539 13338 
4 13338 13539 13540 13339 
4 13339 13540 13541 13340 
4 13340 13541 13542 13341 
4 13341 13542 13543 13342 
4 13342 13543 13544 13343 
4 13343 13544 13545 13344 
4 13344 13545 13546 13345 
4 13345 13546 13547 13346 
4 13346 13547 13548 13347 
4 13347 13548 13549 13348 
4 13348 13549 13550 13349 
4 13349 13550 13551 13350 
4 13350 13551 13552 13351 
4 13351 13552 13553 13352 
4 13352 13553 13554 13353 
4 13353 13554 13555 13354 
4 13354 13555 13556 13355 
4 13355 13556 13557 13356 
4 13356 13557 13558 13357 
4 13357 13558 13559 13358 
4 13358 13559 13560 13359 
4 13359 13560 13561 13360 
4 13360 13561 13562 13361 
4 13361 13562 13563 13362 
4 13362 13563 13564 13363 
4 13363 13564 13565 13364 
4 13364 13565 13566 13365 
4 13365 13566 13567 13366 
4 13366 13567 13568 13367 
4 13367 13568 13569 13368 
4 13368 13569 13570 13369 
4 13369 13570 13571 13370 
4 13370 13571 13572 13371 
4 13371 13572 13573 13372 
4 13372 13573 13574 13373 
4 13373 13574 13575 13374 
4 13374 13575 13576 13375 
4 13375 13576 13577 13376 
4 13376 13577 13578 13377 
4 13377 13578 13579 13378 
4 13378 13579 13580 13379 
4 13379 13580 13581 13380 
4 13380 13581 13582 13381 
4 13381 13582 13583 13382 
4 13382 13583 13584 13383 
4 13383 13584 13585 13384 
4 13384 13585 13586 13385 
4 13385 13586 13587 13386 
4 13386 13587 13588 13387 
4 13387 13588 13589 13388 
4 13388 13589 13590 13389 
4 13389 13590 13591 13390 
4 13390 13591 13592 13391 
4 13391 13592 13593 13392 
4 13392 13593 13594 13393 
4 13393 13594 13595 13394 
4 13394 13595 13596 13395 
4 13395 13596 13597 13396 
4 13396 13597 13598 13397 
4 13397 13598 13599 13398 
4 13398 13599 13600 13399 
4 13399 13600 13601 13400 
4 13400 13601 13602 13401 
4 13401 13602 13603 13402 
4 13402 13603 13604 13403 
4 13403 13604 13605 13404 
4 13404 13605 13606 13405 
4 13405 13606 13607 13406 
4 13406 13607 13608 13407 
4 13407 13608 13609 13408 
4 13408 13609 13610 13409 
4 13409 13610 13611 13410 
4 13410 13611 13612 13411 
4 13411 13612 13613 13412 
4 13412 13613 13614 13413 
4 13413 13614 13615 13414 
4 13414 13615 13616 13415 
4 13415 13616 13617 13416 
4 13416 13617 13618 13417 
4 13417 13618 13619 13418 
4 13418 13619 13620 13419 
4 13419 13620 13621 13420 
4 13420 13621 13622 13421 
4 13421 13622 13623 13422 
4 13422 13623 13624 13423 
4 13423 13624 13625 13424 
4 13424 13625 13626 13425 
4 13425 13626 13627 13426 
4 13426 13627 13628 13427 
4 13427 13628 13629 13428 
4 13428 13629 13630 13429 
4 13429 13630 13631 13430 
4 13430 13631 13632 13431 
4 13431 13632 13633 13432 
4 13432 13633 13634 13433 
4 13433 13634 13635 13434 
4 13434 13635 13636 13435 
4 13435 13636 13637 13436 
4 13436 13637 13638 13437 
4 13437 13638 13639 13438 
4 13438 13639 13640 13439 
4 13439 13640 13641 13440 
4 13440 13641 13642 13441 
4 13441 13642 13643 13442 
4 13442 13643 13644 13443 
4 13443 13644 13645 13444 
4 13444 13645 13646 13445 
4 13445 13646 13647 13446 
4 13446 13647 13648 13447 
4 13447 13648 13649 13448 
4 13448 13649 13650 13449 
4 13449 13650 13651 13450 
4 13450 13651 13652 13451 
4 13451 13652 13653 13452 
4 13452 13653 13654 13453 
4 13453 13654 13655 13454 
4 13454 13655 13656 13455 
4 13455 13656 13657 13456 
4 13456 13657 13658 13457 
4 13457 13658 13659 13458 
4 13458 13659 13660 13459 
4 13459 13660 13661 13460 
4 13460 13661 13662 13461 
4 13461 13662 13663 13462 
4 13462 13663 13664 13463 
4 13463 13664 13665 13464 
4 13464 13665 13666 13465 
4 13465 13666 13667 13466 
4 13467 13668 13669 13468 
4 13468 13669 13670 13469 
4 13469 13670 13671 13470 
4 13470 13671 13672 13471 
4 13471 13672 13673 13472 
4 13472 13673 13674 13473 
4 13473 13674 13675 13474 
4 13474 13675 13676 13475 
4 13475 13676 13677 13476 
4 13476 13677 13678 13477 
4 13477 13678 13679 13478 
4 13478 13679 13680 13479 
4 13479 13680 13681 13480 
4 13480 13681 13682 13481 
4 13481 13682 13683 13482 
4 13482 13683 13684 13483 
4 13483 13684 13685 13484 
4 13484 13685 13686 13485 
4 13485 13686 13687 13486 
4 13486 13687 13688 13487 
4 13487 13688 13689 13488 
4 13488 13689 13690 13489 
4 13489 13690 13691 13490 
4 13490 13691 13692 13491 
4 13491 13692 13693 13492 
4 13492 13693 13694 13493 
4 13493 13694 13695 13494 
4 13494 13695 13696 13495 
4 13495 13696 13697 13496 
4 13496 13697 13698 13497 
4 13497 13698 13699 13498 
4 13498 13699 13700 13499 
4 13499 13700 13701 13500 
4 13500 13701 13702 13501 
4 13501 13702 13703 13502 
4 13502 13703 13704 13503 
4 13503 13704 13705 13504 
4 13504 13705 13706 13505 
4 13505 13706 13707 13506 
4 13506 13707 13708 13507 
4 13507 13708 13709 13508 
4 13508 13709 13710 13509 
4 13509 13710 13711 13510 
4 13510 13711 13712 13511 
4 13511 13712 13713 13512 
4 13512 13713 13714 13513 
4 13513 13714 13715 13514 
4 13514 13715 13716 13515 
4 13515 13716 13717 13516 
4 13516 13717 13718 13517 
4 13517 13718 13719 13518 
4 13518 13719 13720 13519 
4 13519 13720 13721 13520 
4 13520 13721 13722 13521 
4 13521 13722 13723 13522 
4 13522 13723 13724 13523 
4 13523 13724 13725 13524 
4 13524 13725 13726 13525 
4 13525 13726 13727 13526 
4 13526 13727 13728 13527 
4 13527 13728 13729 13528 
4 13528 13729 13730 13529 
4 13529 13730 13731 13530 
4 13530 13731 13732 13531 
4 13531 13732 13733 13532 
4 13532 13733 13734 13533 
4 13533 13734 13735 13534 
4 13534 13735 13736 13535 
4 13535 13736 13737 13536 
4 13536 13737 13738 13537 
4 13537 13738 13739 13538 
4 13538 13739 13740 13539 
4 13539 13740 13741 13540 
4 13540 13741 13742 13541 
4 13541 13742 13743 13542 
4 13542 13743 13744 13543 
4 13543 13744 13745 13544 
4 13544 13745 13746 13545 
4 13545 13746 13747 13546 
4 13546 13747 13748 13547 
4 13547 13748 13749 13548 
4 13548 13749 13750 13549 
4 13549 13750 13751 13550 
4 13550 13751 13752 13551 
4 13551 13752 13753 13552 
4 13552 13753 13754 13553 
4 13553 13754 13755 13554 
4 13554 13755 13756 13555 
4 13555 13756 13757 13556 
4 13556 13757 13758 13557 
4 13557 13758 13759 13558 
4 13558 13759 13760 13559 
4 13559 13760 13761 13560 
4 13560 13761 13762 13561 
4 13561 13762 13763 13562 
4 13562 13763 13764 13563 
4 13563 13764 13765 13564 
4 13564 13765 13766 13565 
4 13565 13766 13767 13566 
4 13566 13767 13768 13567 
4 13567 13768 13769 13568 
4 13568 13769 13770 13569 
4 13569 13770 13771 13570 
4 13570 13771 13772 13571 
4 13571 13772 13773 13572 
4 13572 13773 13774 13573 
4 13573 13774 13775 13574 
4 13574 13775 13776 13575 
4 13575 13776 13777 13576 
4 13576 13777 13778 13577 
4 13577 13778 13779 13578 
4 13578 13779 13780 13579 
4 13579 13780 13781 13580 
4 13580 13781 13782 13581 
4 13581 13782 13783 13582 
4 13582 13783 13784 13583 
4 13583 13784 13785 13584 
4 13584 13785 13786 13585 
4 13585 13786 13787 13586 
4 13586 13787 13788 13587 
4 13587 13788 13789 13588 
4 13588 13789 13790 13589 
4 13589 13790 13791 13590 
4 13590 13791 13792 13591 
4 13591 13792 13793 13592 
4 13592 13793 13794 13593 
4 13593 13794 13795 13594 
4 13594 13795 13796 13595 
4 13595 13796 13797 13596 
4 13596 13797 13798 13597 
4 13597 13798 13799 13598 
4 13598 13799 13800 13599 
4 13599 13800 13801 13600 
4 13600 13801 13802 13601 
4 13601 13802 13803 13602 
4 13602 13803 13804 13603 
4 13603 13804 13805 13604 
4 13604 13805 13806 13605 
4 13605 13806 13807 13606 
4 13606 13807 13808 13607 
4 13607 13808 13809 13608 
4 13608 13809 13810 13609 
4 13609 13810 13811 13610 
4 13610 13811 13812 13611 
4 13611 13812 13813 13612 
4 13612 13813 13814 13613 
4 13613 13814 13815 13614 
4 13614 13815 13816 13615 
4 13615 13816 13817 13616 
4 13616 13817 13818 13617 
4 13617 13818 13819 13618 
4 13618 13819 13820 13619 
4 13619 13820 13821 13620 
4 13620 13821 13822 13621 
4 13621 13822 13823 13622 
4 13622 13823 13824 13623 
4 13623 13824 13825 13624 
4 13624 13825 13826 13625 
4 13625 13826 13827 13626 
4 13626 13827 13828 13627 
4 13627 13828 13829 13628 
4 13628 13829 13830 13629 
4 13629 13830 13831 13630 
4 13630 13831 13832 13631 
4 13631 13832 13833 13632 
4 13632 13833 13834 13633 
4 13633 13834 13835 13634 
4 13634 13835 13836 13635 
4 13635 13836 13837 13636 
4 13636 13837 13838 13637 
4 13637 13838 13839 13638 
4 13638 13839 13840 13639 
4 13639 13840 13841 13640 
4 13640 13841 13842 13641 
4 13641 13842 13843 13642 
4 13642 13843 13844 13643 
4 13643 13844 13845 13644 
4 13644 13845 13846 13645 
4 13645 13846 13847 13646 
4 13646 13847 13848 13647 
4 13647 13848 13849 13648 
4 13648 13849 13850 13649 
4 13649 13850 13851 13650 
4 13650 13851 13852 13651 
4 13651 13852 13853 13652 
4 13652 13853 13854 13653 
4 13653 13854 13855 13654 
4 13654 13855 13856 13655 
4 13655 13856 13857 13656 
4 13656 13857 13858 13657 
4 13657 13858 13859 13658 
4 13658 13859 13860 13659 
4 13659 13860 13861 13660 
4 13660 13861 13862 13661 
4 13661 13862 13863 13662 
4 13662 13863 13864 13663 
4 13663 13864 13865 13664 
4 13664 13865 13866 13665 
4 13665 13866 13867 13666 
4 13666 13867 13868 13667 
4 13668 13869 13870 13669 
4 13669 13870 13871 13670 
4 13670 13871 13872 13671 
4 13671 13872 13873 13672 
4 13672 13873 13874 13673 
4 13673 13874 13875 13674 
4 13674 13875 13876 13675 
4 13675 13876 13877 13676 
4 13676 13877 13878 13677 
4 13677 13878 13879 13678 
4 13678 13879 13880 13679 
4 13679 13880 13881 13680 
4 13680 13881 13882 13681 
4 13681 13882 13883 13682 
4 13682 13883 13884 13683 
4 13683 13884 13885 13684 
4 13684 13885 13886 13685 
4 13685 13886 13887 13686 
4 13686 13887 13888 13687 
4 13687 13888 13889 13688 
4 13688 13889 13890 13689 
4 13689 13890 13891 13690 
4 13690 13891 13892 13691 
4 13691 13892 13893 13692 
4 13692 13893 13894 13693 
4 13693 13894 13895 13694 
4 13694 13895 13896 13695 
4 13695 13896 13897 13696 
4 13696 13897 13898 13697 
4 13697 13898 13899 13698 
4 13698 13899 13900 13699 
4 13699 13900 13901 13700 
4 13700 13901 13902 13701 
4 13701 13902 13903 13702 
4 13702 13903 13904 13703 
4 13703 13904 13905 13704 
4 13704 13905 13906 13705 
4 13705 13906 13907 13706 
4 13706 13907 13908 13707 
4 13707 13908 13909 13708 
4 13708 13909 13910 13709 
4 13709 13910 13911 13710 
4 13710 13911 13912 13711 
4 13711 13912 13913 13712 
4 13712 13913 13914 13713 
4 13713 13914 13915 13714 
4 13714 13915 13916 13715 
4 13715 13916 13917 13716 
4 13716 13917 13918 13717 
4 13717 13918 13919 13718 
4 13718 13919 13920 13719 
4 13719 13920 13921 13720 
4 13720 13921 13922 13721 
4 13721 13922 13923 13722 
4 13722 13923 13924 13723 
4 13723 13924 13925 13724 
4 13724 13925 13926 13725 
4 13725 13926 13927 13726 
4 13726 13927 13928 13727 
4 13727 13928 13929 13728 
4 13728 13929 13930 13729 
4 13729 13930 13931 13730 
4 13730 13931 13932 13731 
4 13731 13932 13933 13732 
4 13732 13933 13934 13733 
4 13733 13934 13935 13734 
4 13734 13935 13936 13735 
4 13735 13936 13937 13736 
4 13736 13937 13938 13737 
4 13737 13938 13939 13738 
4 13738 13939 13940 13739 
4 13739 13940 13941 13740 
4 13740 13941 13942 13741 
4 13741 13942 13943 13742 
4 13742 13943 13944 13743 
4 13743 13944 13945 13744 
4 13744 13945 13946 13745 
4 13745 13946 13947 13746 
4 13746 13947 13948 13747 
4 13747 13948 13949 13748 
4 13748 13949 13950 13749 
4 13749 13950 13951 13750 
4 13750 13951 13952 13751 
4 13751 13952 13953 13752 
4 13752 13953 13954 13753 
4 13753 13954 13955 13754 
4 13754 13955 13956 13755 
4 13755 13956 13957 13756 
4 13756 13957 13958 13757 
4 13757 13958 13959 13758 
4 13758 13959 13960 13759 
4 13759 13960 13961 13760 
4 13760 13961 13962 13761 
4 13761 13962 13963 13762 
4 13762 13963 13964 13763 
4 13763 13964 13965 13764 
4 13764 13965 13966 13765 
4 13765 13966 13967 13766 
4 13766 13967 13968 13767 
4 13767 13968 13969 13768 
4 13768 13969 13970 13769 
4 13769 13970 13971 13770 
4 13770 13971 13972 13771 
4 13771 13972 13973 13772 
4 13772 13973 13974 13773 
4 13773 13974 13975 13774 
4 13774 13975 13976 13775 
4 13775 13976 13977 13776 
4 13776 13977 13978 13777 
4 13777 13978 13979 13778 
4 13778 13979 13980 13779 
4 13779 13980 13981 13780 
4 13780 13981 13982 13781 
4 13781 13982 13983 13782 
4 13782 13983 13984 13783 
4 13783 13984 13985 13784 
4 13784 13985 13986 13785 
4 13785 13986 13987 13786 
4 13786 13987 13988 13787 
4 13787 13988 13989 13788 
4 13788 13989 13990 13789 
4 13789 13990 13991 13790 
4 13790 13991 13992 13791 
4 13791 13992 13993 13792 
4 13792 13993 13994 13793 
4 13793 13994 13995 13794 
4 13794 13995 13996 13795 
4 13795 13996 13997 13796 
4 13796 13997 13998 13797 
4 13797 13998 13999 13798 
4 13798 13999 14000 13799 
4 13799 14000 14001 13800 
4 13800 14001 14002 13801 
4 13801 14002 14003 13802 
4 13802 14003 14004 13803 
4 13803 14004 14005 13804 
4 13804 14005 14006 13805 
4 13805 14006 14007 13806 
4 13806 14007 14008 13807 
4 13807 14008 14009 13808 
4 13808 14009 14010 13809 
4 13809 14010 14011 13810 
4 13810 14011 14012 13811 
4 13811 14012 14013 13812 
4 13812 14013 14014 13813 
4 13813 14014 14015 13814 
4 13814 14015 14016 13815 
4 13815 14016 14017 13816 
4 13816 14017 14018 13817 
4 13817 14018 14019 13818 
4 13818 14019 14020 13819 
4 13819 14020 14021 13820 
4 13820 14021 14022 13821 
4 13821 14022 14023 13822 
4 13822 14023 14024 13823 
4 13823 14024 14025 13824 
4 13824 14025 14026 13825 
4 13825 14026 14027 13826 
4 13826 14027 14028 13827 
4 13827 14028 14029 13828 
4 13828 14029 14030 13829 
4 13829 14030 14031 13830 
4 13830 14031 14032 13831 
4 13831 14032 14033 13832 
4 13832 14033 14034 13833 
4 13833 14034 14035 13834 
4 13834 14035 14036 13835 
4 13835 14036 14037 13836 
4 13836 14037 14038 13837 
4 13837 14038 14039 13838 
4 13838 14039 14040 13839 
4 13839 14040 14041 13840 
4 13840 14041 14042 13841 
4 13841 14042 14043 13842 
4 13842 14043 14044 13843 
4 13843 14044 14045 13844 
4 13844 14045 14046 13845 
4 13845 14046 14047 13846 
4 13846 14047 14048 13847 
4 13847 14048 14049 13848 
4 13848 14049 14050 13849 
4 13849 14050 14051 13850 
4 13850 14051 14052 13851 
4 13851 14052 14053 13852 
4 13852 14053 14054 13853 
4 13853 14054 14055 13854 
4 13854 14055 14056 13855 
4 13855 14056 14057 13856 
4 13856 14057 14058 13857 
4 13857 14058 14059 13858 
4 13858 14059 14060 13859 
4 13859 14060 14061 13860 
4 13860 14061 14062 13861 
4 13861 14062 14063 13862 
4 13862 14063 14064 13863 
4 13863 14064 14065 13864 
4 13864 14065 14066 13865 
4 13865 14066 14067 13866 
4 13866 14067 14068 13867 
4 13867 14068 14069 13868 
4 13869 14070 14071 13870 
4 13870 14071 14072 13871 
4 13871 14072 14073 13872 
4 13872 14073 14074 13873 
4 13873 14074 14075 13874 
4 13874 14075 14076 13875 
4 13875 14076 14077 13876 
4 13876 14077 14078 13877 
4 13877 14078 14079 13878 
4 13878 14079 14080 13879 
4 13879 14080 14081 13880 
4 13880 14081 14082 13881 
4 13881 14082 14083 13882 
4 13882 14083 14084 13883 
4 13883 14084 14085 13884 
4 13884 14085 14086 13885 
4 13885 14086 14087 13886 
4 13886 14087 14088 13887 
4 13887 14088 14089 13888 
4 13888 14089 14090 13889 
4 13889 14090 14091 13890 
4 13890 14091 14092 13891 
4 13891 14092 14093 13892 
4 13892 14093 14094 13893 
4 13893 14094 14095 13894 
4 13894 14095 14096 13895 
4 13895 14096 14097 13896 
4 13896 14097 14098 13897 
4 13897 14098 14099 13898 
4 13898 14099 14100 13899 
4 13899 14100 14101 13900 
4 13900 14101 14102 13901 
4 13901 14102 14103 13902 
4 13902 14103 14104 13903 
4 13903 14104 14105 13904 
4 13904 14105 14106 13905 
4 13905 14106 14107 13906 
4 13906 14107 14108 13907 
4 13907 14108 14109 13908 
4 13908 14109 14110 13909 
4 13909 14110 14111 13910 
4 13910 14111 14112 13911 
4 13911 14112 14113 13912 
4 13912 14113 14114 13913 
4 13913 14114 14115 13914 
4 13914 14115 14116 13915 
4 13915 14116 14117 13916 
4 13916 14117 14118 13917 
4 13917 14118 14119 13918 
4 13918 14119 14120 13919 
4 13919 14120 14121 13920 
4 13920 14121 14122 13921 
4 13921 14122 14123 13922 
4 13922 14123 14124 13923 
4 13923 14124 14125 13924 
4 13924 14125 14126 13925 
4 13925 14126 14127 13926 
4 13926 14127 14128 13927 
4 13927 14128 14129 13928 
4 13928 14129 14130 13929 
4 13929 14130 14131 13930 
4 13930 14131 14132 13931 
4 13931 14132 14133 13932 
4 13932 14133 14134 13933 
4 13933 14134 14135 13934 
4 13934 14135 14136 13935 
4 13935 14136 14137 13936 
4 13936 14137 14138 13937 
4 13937 14138 14139 13938 
4 13938 14139 14140 13939 
4 13939 14140 14141 13940 
4 13940 14141 14142 13941 
4 13941 14142 14143 13942 
4 13942 14143 14144 13943 
4 13943 14144 14145 13944 
4 13944 14145 14146 13945 
4 13945 14146 14147 13946 
4 13946 14147 14148 13947 
4 13947 14148 14149 13948 
4 13948 14149 14150 13949 
4 13949 14150 14151 13950 
4 13950 14151 14152 13951 
4 13951 14152 14153 13952 
4 13952 14153 14154 13953 
4 13953 14154 14155 13954 
4 13954 14155 14156 13955 
4 13955 14156 14157 13956 
4 13956 14157 14158 13957 
4 13957 14158 14159 13958 
4 13958 14159 14160 13959 
4 13959 14160 14161 13960 
4 13960 14161 14162 13961 
4 13961 14162 14163 13962 
4 13962 14163 14164 13963 
4 13963 14164 14165 13964 
4 13964 14165 14166 13965 
4 13965 14166 14167 13966 
4 13966 14167 14168 13967 
4 13967 14168 14169 13968 
4 13968 14169 14170 13969 
4 13969 14170 14171 13970 
4 13970 14171 14172 13971 
4 13971 14172 14173 13972 
4 13972 14173 14174 13973 
4 13973 14174 14175 13974 
4 13974 14175 14176 13975 
4 13975 14176 14177 13976 
4 13976 14177 14178 13977 
4 13977 14178 14179 13978 
4 13978 14179 14180 13979 
4 13979 14180 14181 13980 
4 13980 14181 14182 13981 
4 13981 14182 14183 13982 
4 13982 14183 14184 13983 
4 13983 14184 14185 13984 
4 13984 14185 14186 13985 
4 13985 14186 14187 13986 
4 13986 14187 14188 13987 
4 13987 14188 14189 13988 
4 13988 14189 14190 13989 
4 13989 14190 14191 13990 
4 13990 14191 14192 13991 
4 13991 14192 14193 13992 
4 13992 14193 14194 13993 
4 13993 14194 14195 13994 
4 13994 14195 14196 13995 
4 13995 14196 14197 13996 
4 13996 14197 14198 13997 
4 13997 14198 14199 13998 
4 13998 14199 14200 13999 
4 13999 14200 14201 14000 
4 14000 14201 14202 14001 
4 14001 14202 14203 14002 
4 14002 14203 14204 14003 
4 14003 14204 14205 14004 
4 14004 14205 14206 14005 
4 14005 14206 14207 14006 
4 14006 14207 14208 14007 
4 14007 14208 14209 14008 
4 14008 14209 14210 14009 
4 14009 14210 14211 14010 
4 14010 14211 14212 14011 
4 14011 14212 14213 14012 
4 14012 14213 14214 14013 
4 14013 14214 14215 14014 
4 14014 14215 14216 14015 
4 14015 14216 14217 14016 
4 14016 14217 14218 14017 
4 14017 14218 14219 14018 
4 14018 14219 14220 14019 
4 14019 14220 14221 14020 
4 14020 14221 14222 14021 
4 14021 14222 14223 14022 
4 14022 14223 14224 14023 
4 14023 14224 14225 14024 
4 14024 14225 14226 14025 
4 14025 14226 14227 14026 
4 14026 14227 14228 14027 
4 14027 14228 14229 14028 
4 14028 14229 14230 14029 
4 14029 14230 14231 14030 
4 14030 14231 14232 14031 
4 14031 14232 14233 14032 
4 14032 14233 14234 14033 
4 14033 14234 14235 14034 
4 14034 14235 14236 14035 
4 14035 14236 14237 14036 
4 14036 14237 14238 14037 
4 14037 14238 14239 14038 
4 14038 14239 14240 14039 
4 14039 14240 14241 14040 
4 14040 14241 14242 14041 
4 14041 14242 14243 14042 
4 14042 14243 14244 14043 
4 14043 14244 14245 14044 
4 14044 14245 14246 14045 
4 14045 14246 14247 14046 
4 14046 14247 14248 14047 
4 14047 14248 14249 14048 
4 14048 14249 14250 14049 
4 14049 14250 14251 14050 
4 14050 14251 14252 14051 
4 14051 14252 14253 14052 
4 14052 14253 14254 14053 
4 14053 14254 14255 14054 
4 14054 14255 14256 14055 
4 14055 14256 14257 14056 
4 14056 14257 14258 14057 
4 14057 14258 14259 14058 
4 14058 14259 14260 14059 
4 14059 14260 14261 14060 
4 14060 14261 14262 14061 
4 14061 14262 14263 14062 
4 14062 14263 14264 14063 
4 14063 14264 14265 14064 
4 14064 14265 14266 14065 
4 14065 14266 14267 14066 
4 14066 14267 14268 14067 
4 14067 14268 14269 14068 
4 14068 14269 14270 14069 
4 14070 14271 14272 14071 
4 14071 14272 14273 14072 
4 14072 14273 14274 14073 
4 14073 14274 14275 14074 
4 14074 14275 14276 14075 
4 14075 14276 14277 14076 
4 14076 14277 14278 14077 
4 14077 14278 14279 14078 
4 14078 14279 14280 14079 
4 14079 14280 14281 14080 
4 14080 14281 14282 14081 
4 14081 14282 14283 14082 
4 14082 14283 14284 14083 
4 14083 14284 14285 14084 
4 14084 14285 14286 14085 
4 14085 14286 14287 14086 
4 14086 14287 14288 14087 
4 14087 14288 14289 14088 
4 14088 14289 14290 14089 
4 14089 14290 14291 14090 
4 14090 14291 14292 14091 
4 14091 14292 14293 14092 
4 14092 14293 14294 14093 
4 14093 14294 14295 14094 
4 14094 14295 14296 14095 
4 14095 14296 14297 14096 
4 14096 14297 14298 14097 
4 14097 14298 14299 14098 
4 14098 14299 14300 14099 
4 14099 14300 14301 14100 
4 14100 14301 14302 14101 
4 14101 14302 14303 14102 
4 14102 14303 14304 14103 
4 14103 14304 14305 14104 
4 14104 14305 14306 14105 
4 14105 14306 14307 14106 
4 14106 14307 14308 14107 
4 14107 14308 14309 14108 
4 14108 14309 14310 14109 
4 14109 14310 14311 14110 
4 14110 14311 14312 14111 
4 14111 14312 14313 14112 
4 14112 14313 14314 14113 
4 14113 14314 14315 14114 
4 14114 14315 14316 14115 
4 14115 14316 14317 14116 
4 14116 14317 14318 14117 
4 14117 14318 14319 14118 
4 14118 14319 14320 14119 
4 14119 14320 14321 14120 
4 14120 14321 14322 14121 
4 14121 14322 14323 14122 
4 14122 14323 14324 14123 
4 14123 14324 14325 14124 
4 14124 14325 14326 14125 
4 14125 14326 14327 14126 
4 14126 14327 14328 14127 
4 14127 14328 14329 14128 
4 14128 14329 14330 14129 
4 14129 14330 14331 14130 
4 14130 14331 14332 14131 
4 14131 14332 14333 14132 
4 14132 14333 14334 14133 
4 14133 14334 14335 14134 
4 14134 14335 14336 14135 
4 14135 14336 14337 14136 
4 14136 14337 14338 14137 
4 14137 14338 14339 14138 
4 14138 14339 14340 14139 
4 14139 14340 14341 14140 
4 14140 14341 14342 14141 
4 14141 14342 14343 14142 
4 14142 14343 14344 14143 
4 14143 14344 14345 14144 
4 14144 14345 14346 14145 
4 14145 14346 14347 14146 
4 14146 14347 14348 14147 
4 14147 14348 14349 14148 
4 14148 14349 14350 14149 
4 14149 14350 14351 14150 
4 14150 14351 14352 14151 
4 14151 14352 14353 14152 
4 14152 14353 14354 14153 
4 14153 14354 14355 14154 
4 14154 14355 14356 14155 
4 14155 14356 14357 14156 
4 14156 14357 14358 14157 
4 14157 14358 14359 14158 
4 14158 14359 14360 14159 
4 14159 14360 14361 14160 
4 14160 14361 14362 14161 
4 14161 14362 14363 14162 
4 14162 14363 14364 14163 
4 14163 14364 14365 14164 
4 14164 14365 14366 14165 
4 14165 14366 14367 14166 
4 14166 14367 14368 14167 
4 14167 14368 14369 14168 
4 14168 14369 14370 14169 
4 14169 14370 14371 14170 
4 14170 14371 14372 14171 
4 14171 14372 14373 14172 
4 14172 14373 14374 14173 
4 14173 14374 14375 14174 
4 14174 14375 14376 14175 
4 14175 14376 14377 14176 
4 14176 14377 14378 14177 
4 14177 14378 14379 14178 
4 14178 14379 14380 14179 
4 14179 14380 14381 14180 
4 14180 14381 14382 14181 
4 14181 14382 14383 14182 
4 14182 14383 14384 14183 
4 14183 14384 14385 14184 
4 14184 14385 14386 14185 
4 14185 14386 14387 14186 
4 14186 14387 14388 14187 
4 14187 14388 14389 14188 
4 14188 14389 14390 14189 
4 14189 14390 14391 14190 
4 14190 14391 14392 14191 
4 14191 14392 14393 14192 
4 14192 14393 14394 14193 
4 14193 14394 14395 14194 
4 14194 14395 14396 14195 
4 14195 14396 14397 14196 
4 14196 14397 14398 14197 
4 14197 14398 14399 14198 
4 14198 14399 14400 14199 
4 14199 14400 14401 14200 
4 14200 14401 14402 14201 
4 14201 14402 14403 14202 
4 14202 14403 14404 14203 
4 14203 14404 14405 14204 
4 14204 14405 14406 14205 
4 14205 14406 14407 14206 
4 14206 14407 14408 14207 
4 14207 14408 14409 14208 
4 14208 14409 14410 14209 
4 14209 14410 14411 14210 
4 14210 14411 14412 14211 
4 14211 14412 14413 14212 
4 14212 14413 14414 14213 
4 14213 14414 14415 14214 
4 14214 14415 14416 14215 
4 14215 14416 14417 14216 
4 14216 14417 14418 14217 
4 14217 14418 14419 14218 
4 14218 14419 14420 14219 
4 14219 14420 14421 14220 
4 14220 14421 14422 14221 
4 14221 14422 14423 14222 
4 14222 14423 14424 14223 
4 14223 14424 14425 14224 
4 14224 14425 14426 14225 
4 14225 14426 14427 14226 
4 14226 14427 14428 14227 
4 14227 14428 14429 14228 
4 14228 14429 14430 14229 
4 14229 14430 14431 14230 
4 14230 14431 14432 14231 
4 14231 14432 14433 14232 
4 14232 14433 14434 14233 
4 14233 14434 14435 14234 
4 14234 14435 14436 14235 
4 14235 14436 14437 14236 
4 14236 14437 14438 14237 
4 14237 14438 14439 14238 
4 14238 14439 14440 14239 
4 14239 14440 14441 14240 
4 14240 14441 14442 14241 
4 14241 14442 14443 14242 
4 14242 14443 14444 14243 
4 14243 14444 14445 14244 
4 14244 14445 14446 14245 
4 14245 14446 14447 14246 
4 14246 14447 14448 14247 
4 14247 14448 14449 14248 
4 14248 14449 14450 14249 
4 14249 14450 14451 14250 
4 14250 14451 14452 14251 
4 14251 14452 14453 14252 
4 14252 14453 14454 14253 
4 14253 14454 14455 14254 
4 14254 14455 14456 14255 
4 14255 14456 14457 14256 
4 14256 14457 14458 14257 
4 14257 14458 14459 14258 
4 14258 14459 14460 14259 
4 14259 14460 14461 14260 
4 14260 14461 14462 14261 
4 14261 14462 14463 14262 
4 14262 14463 14464 14263 
4 14263 14464 14465 14264 
4 14264 14465 14466 14265 
4 14265 14466 14467 14266 
4 14266 14467 14468 14267 
4 14267 14468 14469 14268 
4 14268 14469 14470 14269 
4 14269 14470 14471 14270 
4 14271 14472 14473 14272 
4 14272 14473 14474 14273 
4 14273 14474 14475 14274 
4 14274 14475 14476 14275 
4 14275 14476 14477 14276 
4 14276 14477 14478 14277 
4 14277 14478 14479 14278 
4 14278 14479 14480 14279 
4 14279 14480 14481 14280 
4 14280 14481 14482 14281 
4 14281 14482 14483 14282 
4 14282 14483 14484 14283 
4 14283 14484 14485 14284 
4 14284 14485 14486 14285 
4 14285 14486 14487 14286 
4 14286 14487 14488 14287 
4 14287 14488 14489 14288 
4 14288 14489 14490 14289 
4 14289 14490 14491 14290 
4 14290 14491 14492 14291 
4 14291 14492 14493 14292 
4 14292 14493 14494 14293 
4 14293 14494 14495 14294 
4 14294 14495 14496 14295 
4 14295 14496 14497 14296 
4 14296 14497 14498 14297 
4 14297 14498 14499 14298 
4 14298 14499 14500 14299 
4 14299 14500 14501 14300 
4 14300 14501 14502 14301 
4 14301 14502 14503 14302 
4 14302 14503 14504 14303 
4 14303 14504 14505 14304 
4 14304 14505 14506 14305 
4 14305 14506 14507 14306 
4 14306 14507 14508 14307 
4 14307 14508 14509 14308 
4 14308 14509 14510 14309 
4 14309 14510 14511 14310 
4 14310 14511 14512 14311 
4 14311 14512 14513 14312 
4 14312 14513 14514 14313 
4 14313 14514 14515 14314 
4 14314 14515 14516 14315 
4 14315 14516 14517 14316 
4 14316 14517 14518 14317 
4 14317 14518 14519 14318 
4 14318 14519 14520 14319 
4 14319 14520 14521 14320 
4 14320 14521 14522 14321 
4 14321 14522 14523 14322 
4 14322 14523 14524 14323 
4 14323 14524 14525 14324 
4 14324 14525 14526 14325 
4 14325 14526 14527 14326 
4 14326 14527 14528 14327 
4 14327 14528 14529 14328 
4 14328 14529 14530 14329 
4 14329 14530 14531 14330 
4 14330 14531 14532 14331 
4 14331 14532 14533 14332 
4 14332 14533 14534 14333 
4 14333 14534 14535 14334 
4 14334 14535 14536 14335 
4 14335 14536 14537 14336 
4 14336 14537 14538 14337 
4 14337 14538 14539 14338 
4 14338 14539 14540 14339 
4 14339 14540 14541 14340 
4 14340 14541 14542 14341 
4 14341 14542 14543 14342 
4 14342 14543 14544 14343 
4 14343 14544 14545 14344 
4 14344 14545 14546 14345 
4 14345 14546 14547 14346 
4 14346 14547 14548 14347 
4 14347 14548 14549 14348 
4 14348 14549 14550 14349 
4 14349 14550 14551 14350 
4 14350 14551 14552 14351 
4 14351 14552 14553 14352 
4 14352 14553 14554 14353 
4 14353 14554 14555 14354 
4 14354 14555 14556 14355 
4 14355 14556 14557 14356 
4 14356 14557 14558 14357 
4 14357 14558 14559 14358 
4 14358 14559 14560 14359 
4 14359 14560 14561 14360 
4 14360 14561 14562 14361 
4 14361 14562 14563 14362 
4 14362 14563 14564 14363 
4 14363 14564 14565 14364 
4 14364 14565 14566 14365 
4 14365 14566 14567 14366 
4 14366 14567 14568 14367 
4 14367 14568 14569 14368 
4 14368 14569 14570 14369 
4 14369 14570 14571 14370 
4 14370 14571 14572 14371 
4 14371 14572 14573 14372 
4 14372 14573 14574 14373 
4 14373 14574 14575 14374 
4 14374 14575 14576 14375 
4 14375 14576 14577 14376 
4 14376 14577 14578 14377 
4 14377 14578 14579 14378 
4 14378 14579 14580 14379 
4 14379 14580 14581 14380 
4 14380 14581 14582 14381 
4 14381 14582 14583 14382 
4 14382 14583 14584 14383 
4 14383 14584 14585 14384 
4 14384 14585 14586 14385 
4 14385 14586 14587 14386 
4 14386 14587 14588 14387 
4 14387 14588 14589 14388 
4 14388 14589 14590 14389 
4 14389 14590 14591 14390 
4 14390 14591 14592 14391 
4 14391 14592 14593 14392 
4 14392 14593 14594 14393 
4 14393 14594 14595 14394 
4 14394 14595 14596 14395 
4 14395 14596 14597 14396 
4 14396 14597 14598 14397 
4 14397 14598 14599 14398 
4 14398 14599 14600 14399 
4 14399 14600 14601 14400 
4 14400 14601 14602 14401 
4 14401 14602 14603 14402 
4 14402 14603 14604 14403 
4 14403 14604 14605 14404 
4 14404 14605 14606 14405 
4 14405 14606 14607 14406 
4 14406 14607 14608 14407 
4 14407 14608 14609 14408 
4 14408 14609 14610 14409 
4 14409 14610 14611 14410 
4 14410 14611 14612 14411 
4 14411 14612 14613 14412 
4 14412 14613 14614 14413 
4 14413 14614 14615 14414 
4 14414 14615 14616 14415 
4 14415 14616 14617 14416 
4 14416 14617 14618 14417 
4 14417 14618 14619 14418 
4 14418 14619 14620 14419 
4 14419 14620 14621 14420 
4 14420 14621 14622 14421 
4 14421 14622 14623 14422 
4 14422 14623 14624 14423 
4 14423 14624 14625 14424 
4 14424 14625 14626 14425 
4 14425 14626 14627 14426 
4 14426 14627 14628 14427 
4 14427 14628 14629 14428 
4 14428 14629 14630 14429 
4 14429 14630 14631 14430 
4 14430 14631 14632 14431 
4 14431 14632 14633 14432 
4 14432 14633 14634 14433 
4 14433 14634 14635 14434 
4 14434 14635 14636 14435 
4 14435 14636 14637 14436 
4 14436 14637 14638 14437 
4 14437 14638 14639 14438 
4 14438 14639 14640 14439 
4 14439 14640 14641 14440 
4 14440 14641 14642 14441 
4 14441 14642 14643 14442 
4 14442 14643 14644 14443 
4 14443 14644 14645 14444 
4 14444 14645 14646 14445 
4 14445 14646 14647 14446 
4 14446 14647 14648 14447 
4 14447 14648 14649 14448 
4 14448 14649 14650 14449 
4 14449 14650 14651 14450 
4 14450 14651 14652 14451 
4 14451 14652 14653 14452 
4 14452 14653 14654 14453 
4 14453 14654 14655 14454 
4 14454 14655 14656 14455 
4 14455 14656 14657 14456 
4 14456 14657 14658 14457 
4 14457 14658 14659 14458 
4 14458 14659 14660 14459 
4 14459 14660 14661 14460 
4 14460 14661 14662 14461 
4 14461 14662 14663 14462 
4 14462 14663 14664 14463 
4 14463 14664 14665 14464 
4 14464 14665 14666 14465 
4 14465 14666 14667 14466 
4 14466 14667 14668 14467 
4 14467 14668 14669 14468 
4 14468 14669 14670 14469 
4 14469 14670 14671 14470 
4 14470 14671 14672 14471 
4 14472 14673 14674 14473 
4 14473 14674 14675 14474 
4 14474 14675 14676 14475 
4 14475 14676 14677 14476 
4 14476 14677 14678 14477 
4 14477 14678 14679 14478 
4 14478 14679 14680 14479 
4 14479 14680 14681 14480 
4 14480 14681 14682 14481 
4 14481 14682 14683 14482 
4 14482 14683 14684 14483 
4 14483 14684 14685 14484 
4 14484 14685 14686 14485 
4 14485 14686 14687 14486 
4 14486 14687 14688 14487 
4 14487 14688 14689 14488 
4 14488 14689 14690 14489 
4 14489 14690 14691 14490 
4 14490 14691 14692 14491 
4 14491 14692 14693 14492 
4 14492 14693 14694 14493 
4 14493 14694 14695 14494 
4 14494 14695 14696 14495 
4 14495 14696 14697 14496 
4 14496 14697 14698 14497 
4 14497 14698 14699 14498 
4 14498 14699 14700 14499 
4 14499 14700 14701 14500 
4 14500 14701 14702 14501 
4 14501 14702 14703 14502 
4 14502 14703 14704 14503 
4 14503 14704 14705 14504 
4 14504 14705 14706 14505 
4 14505 14706 14707 14506 
4 14506 14707 14708 14507 
4 14507 14708 14709 14508 
4 14508 14709 14710 14509 
4 14509 14710 14711 14510 
4 14510 14711 14712 14511 
4 14511 14712 14713 14512 
4 14512 14713 14714 14513 
4 14513 14714 14715 14514 
4 14514 14715 14716 14515 
4 14515 14716 14717 14516 
4 14516 14717 14718 14517 
4 14517 14718 14719 14518 
4 14518 14719 14720 14519 
4 14519 14720 14721 14520 
4 14520 14721 14722 14521 
4 14521 14722 14723 14522 
4 14522 14723 14724 14523 
4 14523 14724 14725 14524 
4 14524 14725 14726 14525 
4 14525 14726 14727 14526 
4 14526 14727 14728 14527 
4 14527 14728 14729 14528 
4 14528 14729 14730 14529 
4 14529 14730 14731 14530 
4 14530 14731 14732 14531 
4 14531 14732 14733 14532 
4 14532 14733 14734 14533 
4 14533 14734 14735 14534 
4 14534 14735 14736 14535 
4 14535 14736 14737 14536 
4 14536 14737 14738 14537 
4 14537 14738 14739 14538 
4 14538 14739 14740 14539 
4 14539 14740 14741 14540 
4 14540 14741 14742 14541 
4 14541 14742 14743 14542 
4 14542 14743 14744 14543 
4 14543 14744 14745 14544 
4 14544 14745 14746 14545 
4 14545 14746 14747 14546 
4 14546 14747 14748 14547 
4 14547 14748 14749 14548 
4 14548 14749 14750 14549 
4 14549 14750 14751 14550 
4 14550 14751 14752 14551 
4 14551 14752 14753 14552 
4 14552 14753 14754 14553 
4 14553 14754 14755 14554 
4 14554 14755 14756 14555 
4 14555 14756 14757 14556 
4 14556 14757 14758 14557 
4 14557 14758 14759 14558 
4 14558 14759 14760 14559 
4 14559 14760 14761 14560 
4 14560 14761 14762 14561 
4 14561 14762 14763 14562 
4 14562 14763 14764 14563 
4 14563 14764 14765 14564 
4 14564 14765 14766 14565 
4 14565 14766 14767 14566 
4 14566 14767 14768 14567 
4 14567 14768 14769 14568 
4 14568 14769 14770 14569 
4 14569 14770 14771 14570 
4 14570 14771 14772 14571 
4 14571 14772 14773 14572 
4 14572 14773 14774 14573 
4 14573 14774 14775 14574 
4 14574 14775 14776 14575 
4 14575 14776 14777 14576 
4 14576 14777 14778 14577 
4 14577 14778 14779 14578 
4 14578 14779 14780 14579 
4 14579 14780 14781 14580 
4 14580 14781 14782 14581 
4 14581 14782 14783 14582 
4 14582 14783 14784 14583 
4 14583 14784 14785 14584 
4 14584 14785 14786 14585 
4 14585 14786 14787 14586 
4 14586 14787 14788 14587 
4 14587 14788 14789 14588 
4 14588 14789 14790 14589 
4 14589 14790 14791 14590 
4 14590 14791 14792 14591 
4 14591 14792 14793 14592 
4 14592 14793 14794 14593 
4 14593 14794 14795 14594 
4 14594 14795 14796 14595 
4 14595 14796 14797 14596 
4 14596 14797 14798 14597 
4 14597 14798 14799 14598 
4 14598 14799 14800 14599 
4 14599 14800 14801 14600 
4 14600 14801 14802 14601 
4 14601 14802 14803 14602 
4 14602 14803 14804 14603 
4 14603 14804 14805 14604 
4 14604 14805 14806 14605 
4 14605 14806 14807 14606 
4 14606 14807 14808 14607 
4 14607 14808 14809 14608 
4 14608 14809 14810 14609 
4 14609 14810 14811 14610 
4 14610 14811 14812 14611 
4 14611 14812 14813 14612 
4 14612 14813 14814 14613 
4 14613 14814 14815 14614 
4 14614 14815 14816 14615 
4 14615 14816 14817 14616 
4 14616 14817 14818 14617 
4 14617 14818 14819 14618 
4 14618 14819 14820 14619 
4 14619 14820 14821 14620 
4 14620 14821 14822 14621 
4 14621 14822 14823 14622 
4 14622 14823 14824 14623 
4 14623 14824 14825 14624 
4 14624 14825 14826 14625 
4 14625 14826 14827 14626 
4 14626 14827 14828 14627 
4 14627 14828 14829 14628 
4 14628 14829 14830 14629 
4 14629 14830 14831 14630 
4 14630 14831 14832 14631 
4 14631 14832 14833 14632 
4 14632 14833 14834 14633 
4 14633 14834 14835 14634 
4 14634 14835 14836 14635 
4 14635 14836 14837 14636 
4 14636 14837 14838 14637 
4 14637 14838 14839 14638 
4 14638 14839 14840 14639 
4 14639 14840 14841 14640 
4 14640 14841 14842 14641 
4 14641 14842 14843 14642 
4 14642 14843 14844 14643 
4 14643 14844 14845 14644 
4 14644 14845 14846 14645 
4 14645 14846 14847 14646 
4 14646 14847 14848 14647 
4 14647 14848 14849 14648 
4 14648 14849 14850 14649 
4 14649 14850 14851 14650 
4 14650 14851 14852 14651 
4 14651 14852 14853 14652 
4 14652 14853 14854 14653 
4 14653 14854 14855 14654 
4 14654 14855 14856 14655 
4 14655 14856 14857 14656 
4 14656 14857 14858 14657 
4 14657 14858 14859 14658 
4 14658 14859 14860 14659 
4 14659 14860 14861 14660 
4 14660 14861 14862 14661 
4 14661 14862 14863 14662 
4 14662 14863 14864 14663 
4 14663 14864 14865 14664 
4 14664 14865 14866 14665 
4 14665 14866 14867 14666 
4 14666 14867 14868 14667 
4 14667 14868 14869 14668 
4 14668 14869 14870 14669 
4 14669 14870 14871 14670 
4 14670 14871 14872 14671 
4 14671 14872 14873 14672 
4 14673 14874 14875 14674 
4 14674 14875 14876 14675 
4 14675 14876 14877 14676 
4 14676 14877 14878 14677 
4 14677 14878 14879 14678 
4 14678 14879 14880 14679 
4 14679 14880 14881 14680 
4 14680 14881 14882 14681 
4 14681 14882 14883 14682 
4 14682 14883 14884 14683 
4 14683 14884 14885 14684 
4 14684 14885 14886 14685 
4 14685 14886 14887 14686 
4 14686 14887 14888 14687 
4 14687 14888 14889 14688 
4 14688 14889 14890 14689 
4 14689 14890 14891 14690 
4 14690 14891 14892 14691 
4 14691 14892 14893 14692 
4 14692 14893 14894 14693 
4 14693 14894 14895 14694 
4 14694 14895 14896 14695 
4 14695 14896 14897 14696 
4 14696 14897 14898 14697 
4 14697 14898 14899 14698 
4 14698 14899 14900 14699 
4 14699 14900 14901 14700 
4 14700 14901 14902 14701 
4 14701 14902 14903 14702 
4 14702 14903 14904 14703 
4 14703 14904 14905 14704 
4 14704 14905 14906 14705 
4 14705 14906 14907 14706 
4 14706 14907 14908 14707 
4 14707 14908 14909 14708 
4 14708 14909 14910 14709 
4 14709 14910 14911 14710 
4 14710 14911 14912 14711 
4 14711 14912 14913 14712 
4 14712 14913 14914 14713 
4 14713 14914 14915 14714 
4 14714 14915 14916 14715 
4 14715 14916 14917 14716 
4 14716 14917 14918 14717 
4 14717 14918 14919 14718 
4 14718 14919 14920 14719 
4 14719 14920 14921 14720 
4 14720 14921 14922 14721 
4 14721 14922 14923 14722 
4 14722 14923 14924 14723 
4 14723 14924 14925 14724 
4 14724 14925 14926 14725 
4 14725 14926 14927 14726 
4 14726 14927 14928 14727 
4 14727 14928 14929 14728 
4 14728 14929 14930 14729 
4 14729 14930 14931 14730 
4 14730 14931 14932 14731 
4 14731 14932 14933 14732 
4 14732 14933 14934 14733 
4 14733 14934 14935 14734 
4 14734 14935 14936 14735 
4 14735 14936 14937 14736 
4 14736 14937 14938 14737 
4 14737 14938 14939 14738 
4 14738 14939 14940 14739 
4 14739 14940 14941 14740 
4 14740 14941 14942 14741 
4 14741 14942 14943 14742 
4 14742 14943 14944 14743 
4 14743 14944 14945 14744 
4 14744 14945 14946 14745 
4 14745 14946 14947 14746 
4 14746 14947 14948 14747 
4 14747 14948 14949 14748 
4 14748 14949 14950 14749 
4 14749 14950 14951 14750 
4 14750 14951 14952 14751 
4 14751 14952 14953 14752 
4 14752 14953 14954 14753 
4 14753 14954 14955 14754 
4 14754 14955 14956 14755 
4 14755 14956 14957 14756 
4 14756 14957 14958 14757 
4 14757 14958 14959 14758 
4 14758 14959 14960 14759 
4 14759 14960 14961 14760 
4 14760 14961 14962 14761 
4 14761 14962 14963 14762 
4 14762 14963 14964 14763 
4 14763 14964 14965 14764 
4 14764 14965 14966 14765 
4 14765 14966 14967 14766 
4 14766 14967 14968 14767 
4 14767 14968 14969 14768 
4 14768 14969 14970 14769 
4 14769 14970 14971 14770 
4 14770 14971 14972 14771 
4 14771 14972 14973 14772 
4 14772 14973 14974 14773 
4 14773 14974 14975 14774 
4 14774 14975 14976 14775 
4 14775 14976 14977 14776 
4 14776 14977 14978 14777 
4 14777 14978 14979 14778 
4 14778 14979 14980 14779 
4 14779 14980 14981 14780 
4 14780 14981 14982 14781 
4 14781 14982 14983 14782 
4 14782 14983 14984 14783 
4 14783 14984 14985 14784 
4 14784 14985 14986 14785 
4 14785 14986 14987 14786 
4 14786 14987 14988 14787 
4 14787 14988 14989 14788 
4 14788 14989 14990 14789 
4 14789 14990 14991 14790 
4 14790 14991 14992 14791 
4 14791 14992 14993 14792 
4 14792 14993 14994 14793 
4 14793 14994 14995 14794 
4 14794 14995 14996 14795 
4 14795 14996 14997 14796 
4 14796 14997 14998 14797 
4 14797 14998 14999 14798 
4 14798 14999 15000 14799 
4 14799 15000 15001 14800 
4 14800 15001 15002 14801 
4 14801 15002 15003 14802 
4 14802 15003 15004 14803 
4 14803 15004 15005 14804 
4 14804 15005 15006 14805 
4 14805 15006 15007 14806 
4 14806 15007 15008 14807 
4 14807 15008 15009 14808 
4 14808 15009 15010 14809 
4 14809 15010 15011 14810 
4 14810 15011 15012 14811 
4 14811 15012 15013 14812 
4 14812 15013 15014 14813 
4 14813 15014 15015 14814 
4 14814 15015 15016 14815 
4 14815 15016 15017 14816 
4 14816 15017 15018 14817 
4 14817 15018 15019 14818 
4 14818 15019 15020 14819 
4 14819 15020 15021 14820 
4 14820 15021 15022 14821 
4 14821 15022 15023 14822 
4 14822 15023 15024 14823 
4 14823 15024 15025 14824 
4 14824 15025 15026 14825 
4 14825 15026 15027 14826 
4 14826 15027 15028 14827 
4 14827 15028 15029 14828 
4 14828 15029 15030 14829 
4 14829 15030 15031 14830 
4 14830 15031 15032 14831 
4 14831 15032 15033 14832 
4 14832 15033 15034 14833 
4 14833 15034 15035 14834 
4 14834 15035 15036 14835 
4 14835 15036 15037 14836 
4 14836 15037 15038 14837 
4 14837 15038 15039 14838 
4 14838 15039 15040 14839 
4 14839 15040 15041 14840 
4 14840 15041 15042 14841 
4 14841 15042 15043 14842 
4 14842 15043 15044 14843 
4 14843 15044 15045 14844 
4 14844 15045 15046 14845 
4 14845 15046 15047 14846 
4 14846 15047 15048 14847 
4 14847 15048 15049 14848 
4 14848 15049 15050 14849 
4 14849 15050 15051 14850 
4 14850 15051 15052 14851 
4 14851 15052 15053 14852 
4 14852 15053 15054 14853 
4 14853 15054 15055 14854 
4 14854 15055 15056 14855 
4 14855 15056 15057 14856 
4 14856 15057 15058 14857 
4 14857 15058 15059 14858 
4 14858 15059 15060 14859 
4 14859 15060 15061 14860 
4 14860 15061 15062 14861 
4 14861 15062 15063 14862 
4 14862 15063 15064 14863 
4 14863 15064 15065 14864 
4 14864 15065 15066 14865 
4 14865 15066 15067 14866 
4 14866 15067 15068 14867 
4 14867 15068 15069 14868 
4 14868 15069 15070 14869 
4 14869 15070 15071 14870 
4 14870 15071 15072 14871 
4 14871 15072 15073 14872 
4 14872 15073 15074 14873 
4 14874 15075 15076 14875 
4 14875 15076 15077 14876 
4 14876 15077 15078 14877 
4 14877 15078 15079 14878 
4 14878 15079 15080 14879 
4 14879 15080 15081 14880 
4 14880 15081 15082 14881 
4 14881 15082 15083 14882 
4 14882 15083 15084 14883 
4 14883 15084 15085 14884 
4 14884 15085 15086 14885 
4 14885 15086 15087 14886 
4 14886 15087 15088 14887 
4 14887 15088 15089 14888 
4 14888 15089 15090 14889 
4 14889 15090 15091 14890 
4 14890 15091 15092 14891 
4 14891 15092 15093 14892 
4 14892 15093 15094 14893 
4 14893 15094 15095 14894 
4 14894 15095 15096 14895 
4 14895 15096 15097 14896 
4 14896 15097 15098 14897 
4 14897 15098 15099 14898 
4 14898 15099 15100 14899 
4 14899 15100 15101 14900 
4 14900 15101 15102 14901 
4 14901 15102 15103 14902 
4 14902 15103 15104 14903 
4 14903 15104 15105 14904 
4 14904 15105 15106 14905 
4 14905 15106 15107 14906 
4 14906 15107 15108 14907 
4 14907 15108 15109 14908 
4 14908 15109 15110 14909 
4 14909 15110 15111 14910 
4 14910 15111 15112 14911 
4 14911 15112 15113 14912 
4 14912 15113 15114 14913 
4 14913 15114 15115 14914 
4 14914 15115 15116 14915 
4 14915 15116 15117 14916 
4 14916 15117 15118 14917 
4 14917 15118 15119 14918 
4 14918 15119 15120 14919 
4 14919 15120 15121 14920 
4 14920 15121 15122 14921 
4 14921 15122 15123 14922 
4 14922 15123 15124 14923 
4 14923 15124 15125 14924 
4 14924 15125 15126 14925 
4 14925 15126 15127 14926 
4 14926 15127 15128 14927 
4 14927 15128 15129 14928 
4 14928 15129 15130 14929 
4 14929 15130 15131 14930 
4 14930 15131 15132 14931 
4 14931 15132 15133 14932 
4 14932 15133 15134 14933 
4 14933 15134 15135 14934 
4 14934 15135 15136 14935 
4 14935 15136 15137 14936 
4 14936 15137 15138 14937 
4 14937 15138 15139 14938 
4 14938 15139 15140 14939 
4 14939 15140 15141 14940 
4 14940 15141 15142 14941 
4 14941 15142 15143 14942 
4 14942 15143 15144 14943 
4 14943 15144 15145 14944 
4 14944 15145 15146 14945 
4 14945 15146 15147 14946 
4 14946 15147 15148 14947 
4 14947 15148 15149 14948 
4 14948 15149 15150 14949 
4 14949 15150 15151 14950 
4 14950 15151 15152 14951 
4 14951 15152 15153 14952 
4 14952 15153 15154 14953 
4 14953 15154 15155 14954 
4 14954 15155 15156 14955 
4 14955 15156 15157 14956 
4 14956 15157 15158 14957 
4 14957 15158 15159 14958 
4 14958 15159 15160 14959 
4 14959 15160 15161 14960 
4 14960 15161 15162 14961 
4 14961 15162 15163 14962 
4 14962 15163 15164 14963 
4 14963 15164 15165 14964 
4 14964 15165 15166 14965 
4 14965 15166 15167 14966 
4 14966 15167 15168 14967 
4 14967 15168 15169 14968 
4 14968 15169 15170 14969 
4 14969 15170 15171 14970 
4 14970 15171 15172 14971 
4 14971 15172 15173 14972 
4 14972 15173 15174 14973 
4 14973 15174 15175 14974 
4 14974 15175 15176 14975 
4 14975 15176 15177 14976 
4 14976 15177 15178 14977 
4 14977 15178 15179 14978 
4 14978 15179 15180 14979 
4 14979 15180 15181 14980 
4 14980 15181 15182 14981 
4 14981 15182 15183 14982 
4 14982 15183 15184 14983 
4 14983 15184 15185 14984 
4 14984 15185 15186 14985 
4 14985 15186 15187 14986 
4 14986 15187 15188 14987 
4 14987 15188 15189 14988 
4 14988 15189 15190 14989 
4 14989 15190 15191 14990 
4 14990 15191 15192 14991 
4 14991 15192 15193 14992 
4 14992 15193 15194 14993 
4 14993 15194 15195 14994 
4 14994 15195 15196 14995 
4 14995 15196 15197 14996 
4 14996 15197 15198 14997 
4 14997 15198 15199 14998 
4 14998 15199 15200 14999 
4 14999 15200 15201 15000 
4 15000 15201 15202 15001 
4 15001 15202 15203 15002 
4 15002 15203 15204 15003 
4 15003 15204 15205 15004 
4 15004 15205 15206 15005 
4 15005 15206 15207 15006 
4 15006 15207 15208 15007 
4 15007 15208 15209 15008 
4 15008 15209 15210 15009 
4 15009 15210 15211 15010 
4 15010 15211 15212 15011 
4 15011 15212 15213 15012 
4 15012 15213 15214 15013 
4 15013 15214 15215 15014 
4 15014 15215 15216 15015 
4 15015 15216 15217 15016 
4 15016 15217 15218 15017 
4 15017 15218 15219 15018 
4 15018 15219 15220 15019 
4 15019 15220 15221 15020 
4 15020 15221 15222 15021 
4 15021 15222 15223 15022 
4 15022 15223 15224 15023 
4 15023 15224 15225 15024 
4 15024 15225 15226 15025 
4 15025 15226 15227 15026 
4 15026 15227 15228 15027 
4 15027 15228 15229 15028 
4 15028 15229 15230 15029 
4 15029 15230 15231 15030 
4 15030 15231 15232 15031 
4 15031 15232 15233 15032 
4 15032 15233 15234 15033 
4 15033 15234 15235 15034 
4 15034 15235 15236 15035 
4 15035 15236 15237 15036 
4 15036 15237 15238 15037 
4 15037 15238 15239 15038 
4 15038 15239 15240 15039 
4 15039 15240 15241 15040 
4 15040 15241 15242 15041 
4 15041 15242 15243 15042 
4 15042 15243 15244 15043 
4 15043 15244 15245 15044 
4 15044 15245 15246 15045 
4 15045 15246 15247 15046 
4 15046 15247 15248 15047 
4 15047 15248 15249 15048 
4 15048 15249 15250 15049 
4 15049 15250 15251 15050 
4 15050 15251 15252 15051 
4 15051 15252 15253 15052 
4 15052 15253 15254 15053 
4 15053 15254 15255 15054 
4 15054 15255 15256 15055 
4 15055 15256 15257 15056 
4 15056 15257 15258 15057 
4 15057 15258 15259 15058 
4 15058 15259 15260 15059 
4 15059 15260 15261 15060 
4 15060 15261 15262 15061 
4 15061 15262 15263 15062 
4 15062 15263 15264 15063 
4 15063 15264 15265 15064 
4 15064 15265 15266 15065 
4 15065 15266 15267 15066 
4 15066 15267 15268 15067 
4 15067 15268 15269 15068 
4 15068 15269 15270 15069 
4 15069 15270 15271 15070 
4 15070 15271 15272 15071 
4 15071 15272 15273 15072 
4 15072 15273 15274 15073 
4 15073 15274 15275 15074 
4 15075 15276 15277 15076 
4 15076 15277 15278 15077 
4 15077 15278 15279 15078 
4 15078 15279 15280 15079 
4 15079 15280 15281 15080 
4 15080 15281 15282 15081 
4 15081 15282 15283 15082 
4 15082 15283 15284 15083 
4 15083 15284 15285 15084 
4 15084 15285 15286 15085 
4 15085 15286 15287 15086 
4 15086 15287 15288 15087 
4 15087 15288 15289 15088 
4 15088 15289 15290 15089 
4 15089 15290 15291 15090 
4 15090 15291 15292 15091 
4 15091 15292 15293 15092 
4 15092 15293 15294 15093 
4 15093 15294 15295 15094 
4 15094 15295 15296 15095 
4 15095 15296 15297 15096 
4 15096 15297 15298 15097 
4 15097 15298 15299 15098 
4 15098 15299 15300 15099 
4 15099 15300 15301 15100 
4 15100 15301 15302 15101 
4 15101 15302 15303 15102 
4 15102 15303 15304 15103 
4 15103 15304 15305 15104 
4 15104 15305 15306 15105 
4 15105 15306 15307 15106 
4 15106 15307 15308 15107 
4 15107 15308 15309 15108 
4 15108 15309 15310 15109 
4 15109 15310 15311 15110 
4 15110 15311 15312 15111 
4 15111 15312 15313 15112 
4 15112 15313 15314 15113 
4 15113 15314 15315 15114 
4 15114 15315 15316 15115 
4 15115 15316 15317 15116 
4 15116 15317 15318 15117 
4 15117 15318 15319 15118 
4 15118 15319 15320 15119 
4 15119 15320 15321 15120 
4 15120 15321 15322 15121 
4 15121 15322 15323 15122 
4 15122 15323 15324 15123 
4 15123 15324 15325 15124 
4 15124 15325 15326 15125 
4 15125 15326 15327 15126 
4 15126 15327 15328 15127 
4 15127 15328 15329 15128 
4 15128 15329 15330 15129 
4 15129 15330 15331 15130 
4 15130 15331 15332 15131 
4 15131 15332 15333 15132 
4 15132 15333 15334 15133 
4 15133 15334 15335 15134 
4 15134 15335 15336 15135 
4 15135 15336 15337 15136 
4 15136 15337 15338 15137 
4 15137 15338 15339 15138 
4 15138 15339 15340 15139 
4 15139 15340 15341 15140 
4 15140 15341 15342 15141 
4 15141 15342 15343 15142 
4 15142 15343 15344 15143 
4 15143 15344 15345 15144 
4 15144 15345 15346 15145 
4 15145 15346 15347 15146 
4 15146 15347 15348 15147 
4 15147 15348 15349 15148 
4 15148 15349 15350 15149 
4 15149 15350 15351 15150 
4 15150 15351 15352 15151 
4 15151 15352 15353 15152 
4 15152 15353 15354 15153 
4 15153 15354 15355 15154 
4 15154 15355 15356 15155 
4 15155 15356 15357 15156 
4 15156 15357 15358 15157 
4 15157 15358 15359 15158 
4 15158 15359 15360 15159 
4 15159 15360 15361 15160 
4 15160 15361 15362 15161 
4 15161 15362 15363 15162 
4 15162 15363 15364 15163 
4 15163 15364 15365 15164 
4 15164 15365 15366 15165 
4 15165 15366 15367 15166 
4 15166 15367 15368 15167 
4 15167 15368 15369 15168 
4 15168 15369 15370 15169 
4 15169 15370 15371 15170 
4 15170 15371 15372 15171 
4 15171 15372 15373 15172 
4 15172 15373 15374 15173 
4 15173 15374 15375 15174 
4 15174 15375 15376 15175 
4 15175 15376 15377 15176 
4 15176 15377 15378 15177 
4 15177 15378 15379 15178 
4 15178 15379 15380 15179 
4 15179 15380 15381 15180 
4 15180 15381 15382 15181 
4 15181 15382 15383 15182 
4 15182 15383 15384 15183 
4 15183 15384 15385 15184 
4 15184 15385 15386 15185 
4 15185 15386 15387 15186 
4 15186 15387 15388 15187 
4 15187 15388 15389 15188 
4 15188 15389 15390 15189 
4 15189 15390 15391 15190 
4 15190 15391 15392 15191 
4 15191 15392 15393 15192 
4 15192 15393 15394 15193 
4 15193 15394 15395 15194 
4 15194 15395 15396 15195 
4 15195 15396 15397 15196 
4 15196 15397 15398 15197 
4 15197 15398 15399 15198 
4 15198 15399 15400 15199 
4 15199 15400 15401 15200 
4 15200 15401 15402 15201 
4 15201 15402 15403 15202 
4 15202 15403 15404 15203 
4 15203 15404 15405 15204 
4 15204 15405 15406 15205 
4 15205 15406 15407 15206 
4 15206 15407 15408 15207 
4 15207 15408 15409 15208 
4 15208 15409 15410 15209 
4 15209 15410 15411 15210 
4 15210 15411 15412 15211 
4 15211 15412 15413 15212 
4 15212 15413 15414 15213 
4 15213 15414 15415 15214 
4 15214 15415 15416 15215 
4 15215 15416 15417 15216 
4 15216 15417 15418 15217 
4 15217 15418 15419 15218 
4 15218 15419 15420 15219 
4 15219 15420 15421 15220 
4 15220 15421 15422 15221 
4 15221 15422 15423 15222 
4 15222 15423 15424 15223 
4 15223 15424 15425 15224 
4 15224 15425 15426 15225 
4 15225 15426 15427 15226 
4 15226 15427 15428 15227 
4 15227 15428 15429 15228 
4 15228 15429 15430 15229 
4 15229 15430 15431 15230 
4 15230 15431 15432 15231 
4 15231 15432 15433 15232 
4 15232 15433 15434 15233 
4 15233 15434 15435 15234 
4 15234 15435 15436 15235 
4 15235 15436 15437 15236 
4 15236 15437 15438 15237 
4 15237 15438 15439 15238 
4 15238 15439 15440 15239 
4 15239 15440 15441 15240 
4 15240 15441 15442 15241 
4 15241 15442 15443 15242 
4 15242 15443 15444 15243 
4 15243 15444 15445 15244 
4 15244 15445 15446 15245 
4 15245 15446 15447 15246 
4 15246 15447 15448 15247 
4 15247 15448 15449 15248 
4 15248 15449 15450 15249 
4 15249 15450 15451 15250 
4 15250 15451 15452 15251 
4 15251 15452 15453 15252 
4 15252 15453 15454 15253 
4 15253 15454 15455 15254 
4 15254 15455 15456 15255 
4 15255 15456 15457 15256 
4 15256 15457 15458 15257 
4 15257 15458 15459 15258 
4 15258 15459 15460 15259 
4 15259 15460 15461 15260 
4 15260 15461 15462 15261 
4 15261 15462 15463 15262 
4 15262 15463 15464 15263 
4 15263 15464 15465 15264 
4 15264 15465 15466 15265 
4 15265 15466 15467 15266 
4 15266 15467 15468 15267 
4 15267 15468 15469 15268 
4 15268 15469 15470 15269 
4 15269 15470 15471 15270 
4 15270 15471 15472 15271 
4 15271 15472 15473 15272 
4 15272 15473 15474 15273 
4 15273 15474 15475 15274 
4 15274 15475 15476 15275 
4 15276 15477 15478 15277 
4 15277 15478 15479 15278 
4 15278 15479 15480 15279 
4 15279 15480 15481 15280 
4 15280 15481 15482 15281 
4 15281 15482 15483 15282 
4 15282 15483 15484 15283 
4 15283 15484 15485 15284 
4 15284 15485 15486 15285 
4 15285 15486 15487 15286 
4 15286 15487 15488 15287 
4 15287 15488 15489 15288 
4 15288 15489 15490 15289 
4 15289 15490 15491 15290 
4 15290 15491 15492 15291 
4 15291 15492 15493 15292 
4 15292 15493 15494 15293 
4 15293 15494 15495 15294 
4 15294 15495 15496 15295 
4 15295 15496 15497 15296 
4 15296 15497 15498 15297 
4 15297 15498 15499 15298 
4 15298 15499 15500 15299 
4 15299 15500 15501 15300 
4 15300 15501 15502 15301 
4 15301 15502 15503 15302 
4 15302 15503 15504 15303 
4 15303 15504 15505 15304 
4 15304 15505 15506 15305 
4 15305 15506 15507 15306 
4 15306 15507 15508 15307 
4 15307 15508 15509 15308 
4 15308 15509 15510 15309 
4 15309 15510 15511 15310 
4 15310 15511 15512 15311 
4 15311 15512 15513 15312 
4 15312 15513 15514 15313 
4 15313 15514 15515 15314 
4 15314 15515 15516 15315 
4 15315 15516 15517 15316 
4 15316 15517 15518 15317 
4 15317 15518 15519 15318 
4 15318 15519 15520 15319 
4 15319 15520 15521 15320 
4 15320 15521 15522 15321 
4 15321 15522 15523 15322 
4 15322 15523 15524 15323 
4 15323 15524 15525 15324 
4 15324 15525 15526 15325 
4 15325 15526 15527 15326 
4 15326 15527 15528 15327 
4 15327 15528 15529 15328 
4 15328 15529 15530 15329 
4 15329 15530 15531 15330 
4 15330 15531 15532 15331 
4 15331 15532 15533 15332 
4 15332 15533 15534 15333 
4 15333 15534 15535 15334 
4 15334 15535 15536 15335 
4 15335 15536 15537 15336 
4 15336 15537 15538 15337 
4 15337 15538 15539 15338 
4 15338 15539 15540 15339 
4 15339 15540 15541 15340 
4 15340 15541 15542 15341 
4 15341 15542 15543 15342 
4 15342 15543 15544 15343 
4 15343 15544 15545 15344 
4 15344 15545 15546 15345 
4 15345 15546 15547 15346 
4 15346 15547 15548 15347 
4 15347 15548 15549 15348 
4 15348 15549 15550 15349 
4 15349 15550 15551 15350 
4 15350 15551 15552 15351 
4 15351 15552 15553 15352 
4 15352 15553 15554 15353 
4 15353 15554 15555 15354 
4 15354 15555 15556 15355 
4 15355 15556 15557 15356 
4 15356 15557 15558 15357 
4 15357 15558 15559 15358 
4 15358 15559 15560 15359 
4 15359 15560 15561 15360 
4 15360 15561 15562 15361 
4 15361 15562 15563 15362 
4 15362 15563 15564 15363 
4 15363 15564 15565 15364 
4 15364 15565 15566 15365 
4 15365 15566 15567 15366 
4 15366 15567 15568 15367 
4 15367 15568 15569 15368 
4 15368 15569 15570 15369 
4 15369 15570 15571 15370 
4 15370 15571 15572 15371 
4 15371 15572 15573 15372 
4 15372 15573 15574 15373 
4 15373 15574 15575 15374 
4 15374 15575 15576 15375 
4 15375 15576 15577 15376 
4 15376 15577 15578 15377 
4 15377 15578 15579 15378 
4 15378 15579 15580 15379 
4 15379 15580 15581 15380 
4 15380 15581 15582 15381 
4 15381 15582 15583 15382 
4 15382 15583 15584 15383 
4 15383 15584 15585 15384 
4 15384 15585 15586 15385 
4 15385 15586 15587 15386 
4 15386 15587 15588 15387 
4 15387 15588 15589 15388 
4 15388 15589 15590 15389 
4 15389 15590 15591 15390 
4 15390 15591 15592 15391 
4 15391 15592 15593 15392 
4 15392 15593 15594 15393 
4 15393 15594 15595 15394 
4 15394 15595 15596 15395 
4 15395 15596 15597 15396 
4 15396 15597 15598 15397 
4 15397 15598 15599 15398 
4 15398 15599 15600 15399 
4 15399 15600 15601 15400 
4 15400 15601 15602 15401 
4 15401 15602 15603 15402 
4 15402 15603 15604 15403 
4 15403 15604 15605 15404 
4 15404 15605 15606 15405 
4 15405 15606 15607 15406 
4 15406 15607 15608 15407 
4 15407 15608 15609 15408 
4 15408 15609 15610 15409 
4 15409 15610 15611 15410 
4 15410 15611 15612 15411 
4 15411 15612 15613 15412 
4 15412 15613 15614 15413 
4 15413 15614 15615 15414 
4 15414 15615 15616 15415 
4 15415 15616 15617 15416 
4 15416 15617 15618 15417 
4 15417 15618 15619 15418 
4 15418 15619 15620 15419 
4 15419 15620 15621 15420 
4 15420 15621 15622 15421 
4 15421 15622 15623 15422 
4 15422 15623 15624 15423 
4 15423 15624 15625 15424 
4 15424 15625 15626 15425 
4 15425 15626 15627 15426 
4 15426 15627 15628 15427 
4 15427 15628 15629 15428 
4 15428 15629 15630 15429 
4 15429 15630 15631 15430 
4 15430 15631 15632 15431 
4 15431 15632 15633 15432 
4 15432 15633 15634 15433 
4 15433 15634 15635 15434 
4 15434 15635 15636 15435 
4 15435 15636 15637 15436 
4 15436 15637 15638 15437 
4 15437 15638 15639 15438 
4 15438 15639 15640 15439 
4 15439 15640 15641 15440 
4 15440 15641 15642 15441 
4 15441 15642 15643 15442 
4 15442 15643 15644 15443 
4 15443 15644 15645 15444 
4 15444 15645 15646 15445 
4 15445 15646 15647 15446 
4 15446 15647 15648 15447 
4 15447 15648 15649 15448 
4 15448 15649 15650 15449 
4 15449 15650 15651 15450 
4 15450 15651 15652 15451 
4 15451 15652 15653 15452 
4 15452 15653 15654 15453 
4 15453 15654 15655 15454 
4 15454 15655 15656 15455 
4 15455 15656 15657 15456 
4 15456 15657 15658 15457 
4 15457 15658 15659 15458 
4 15458 15659 15660 15459 
4 15459 15660 15661 15460 
4 15460 15661 15662 15461 
4 15461 15662 15663 15462 
4 15462 15663 15664 15463 
4 15463 15664 15665 15464 
4 15464 15665 15666 15465 
4 15465 15666 15667 15466 
4 15466 15667 15668 15467 
4 15467 15668 15669 15468 
4 15468 15669 15670 15469 
4 15469 15670 15671 15470 
4 15470 15671 15672 15471 
4 15471 15672 15673 15472 
4 15472 15673 15674 15473 
4 15473 15674 15675 15474 
4 15474 15675 15676 15475 
4 15475 15676 15677 15476 
4 15477 15678 15679 15478 
4 15478 15679 15680 15479 
4 15479 15680 15681 15480 
4 15480 15681 15682 15481 
4 15481 15682 15683 15482 
4 15482 15683 15684 15483 
4 15483 15684 15685 15484 
4 15484 15685 15686 15485 
4 15485 15686 15687 15486 
4 15486 15687 15688 15487 
4 15487 15688 15689 15488 
4 15488 15689 15690 15489 
4 15489 15690 15691 15490 
4 15490 15691 15692 15491 
4 15491 15692 15693 15492 
4 15492 15693 15694 15493 
4 15493 15694 15695 15494 
4 15494 15695 15696 15495 
4 15495 15696 15697 15496 
4 15496 15697 15698 15497 
4 15497 15698 15699 15498 
4 15498 15699 15700 15499 
4 15499 15700 15701 15500 
4 15500 15701 15702 15501 
4 15501 15702 15703 15502 
4 15502 15703 15704 15503 
4 15503 15704 15705 15504 
4 15504 15705 15706 15505 
4 15505 15706 15707 15506 
4 15506 15707 15708 15507 
4 15507 15708 15709 15508 
4 15508 15709 15710 15509 
4 15509 15710 15711 15510 
4 15510 15711 15712 15511 
4 15511 15712 15713 15512 
4 15512 15713 15714 15513 
4 15513 15714 15715 15514 
4 15514 15715 15716 15515 
4 15515 15716 15717 15516 
4 15516 15717 15718 15517 
4 15517 15718 15719 15518 
4 15518 15719 15720 15519 
4 15519 15720 15721 15520 
4 15520 15721 15722 15521 
4 15521 15722 15723 15522 
4 15522 15723 15724 15523 
4 15523 15724 15725 15524 
4 15524 15725 15726 15525 
4 15525 15726 15727 15526 
4 15526 15727 15728 15527 
4 15527 15728 15729 15528 
4 15528 15729 15730 15529 
4 15529 15730 15731 15530 
4 15530 15731 15732 15531 
4 15531 15732 15733 15532 
4 15532 15733 15734 15533 
4 15533 15734 15735 15534 
4 15534 15735 15736 15535 
4 15535 15736 15737 15536 
4 15536 15737 15738 15537 
4 15537 15738 15739 15538 
4 15538 15739 15740 15539 
4 15539 15740 15741 15540 
4 15540 15741 15742 15541 
4 15541 15742 15743 15542 
4 15542 15743 15744 15543 
4 15543 15744 15745 15544 
4 15544 15745 15746 15545 
4 15545 15746 15747 15546 
4 15546 15747 15748 15547 
4 15547 15748 15749 15548 
4 15548 15749 15750 15549 
4 15549 15750 15751 15550 
4 15550 15751 15752 15551 
4 15551 15752 15753 15552 
4 15552 15753 15754 15553 
4 15553 15754 15755 15554 
4 15554 15755 15756 15555 
4 15555 15756 15757 15556 
4 15556 15757 15758 15557 
4 15557 15758 15759 15558 
4 15558 15759 15760 15559 
4 15559 15760 15761 15560 
4 15560 15761 15762 15561 
4 15561 15762 15763 15562 
4 15562 15763 15764 15563 
4 15563 15764 15765 15564 
4 15564 15765 15766 15565 
4 15565 15766 15767 15566 
4 15566 15767 15768 15567 
4 15567 15768 15769 15568 
4 15568 15769 15770 15569 
4 15569 15770 15771 15570 
4 15570 15771 15772 15571 
4 15571 15772 15773 15572 
4 15572 15773 15774 15573 
4 15573 15774 15775 15574 
4 15574 15775 15776 15575 
4 15575 15776 15777 15576 
4 15576 15777 15778 15577 
4 15577 15778 15779 15578 
4 15578 15779 15780 15579 
4 15579 15780 15781 15580 
4 15580 15781 15782 15581 
4 15581 15782 15783 15582 
4 15582 15783 15784 15583 
4 15583 15784 15785 15584 
4 15584 15785 15786 15585 
4 15585 15786 15787 15586 
4 15586 15787 15788 15587 
4 15587 15788 15789 15588 
4 15588 15789 15790 15589 
4 15589 15790 15791 15590 
4 15590 15791 15792 15591 
4 15591 15792 15793 15592 
4 15592 15793 15794 15593 
4 15593 15794 15795 15594 
4 15594 15795 15796 15595 
4 15595 15796 15797 15596 
4 15596 15797 15798 15597 
4 15597 15798 15799 15598 
4 15598 15799 15800 15599 
4 15599 15800 15801 15600 
4 15600 15801 15802 15601 
4 15601 15802 15803 15602 
4 15602 15803 15804 15603 
4 15603 15804 15805 15604 
4 15604 15805 15806 15605 
4 15605 15806 15807 15606 
4 15606 15807 15808 15607 
4 15607 15808 15809 15608 
4 15608 15809 15810 15609 
4 15609 15810 15811 15610 
4 15610 15811 15812 15611 
4 15611 15812 15813 15612 
4 15612 15813 15814 15613 
4 15613 15814 15815 15614 
4 15614 15815 15816 15615 
4 15615 15816 15817 15616 
4 15616 15817 15818 15617 
4 15617 15818 15819 15618 
4 15618 15819 15820 15619 
4 15619 15820 15821 15620 
4 15620 15821 15822 15621 
4 15621 15822 15823 15622 
4 15622 15823 15824 15623 
4 15623 15824 15825 15624 
4 15624 15825 15826 15625 
4 15625 15826 15827 15626 
4 15626 15827 15828 15627 
4 15627 15828 15829 15628 
4 15628 15829 15830 15629 
4 15629 15830 15831 15630 
4 15630 15831 15832 15631 
4 15631 15832 15833 15632 
4 15632 15833 15834 15633 
4 15633 15834 15835 15634 
4 15634 15835 15836 15635 
4 15635 15836 15837 15636 
4 15636 15837 15838 15637 
4 15637 15838 15839 15638 
4 15638 15839 15840 15639 
4 15639 15840 15841 15640 
4 15640 15841 15842 15641 
4 15641 15842 15843 15642 
4 15642 15843 15844 15643 
4 15643 15844 15845 15644 
4 15644 15845 15846 15645 
4 15645 15846 15847 15646 
4 15646 15847 15848 15647 
4 15647 15848 15849 15648 
4 15648 15849 15850 15649 
4 15649 15850 15851 15650 
4 15650 15851 15852 15651 
4 15651 15852 15853 15652 
4 15652 15853 15854 15653 
4 15653 15854 15855 15654 
4 15654 15855 15856 15655 
4 15655 15856 15857 15656 
4 15656 15857 15858 15657 
4 15657 15858 15859 15658 
4 15658 15859 15860 15659 
4 15659 15860 15861 15660 
4 15660 15861 15862 15661 
4 15661 15862 15863 15662 
4 15662 15863 15864 15663 
4 15663 15864 15865 15664 
4 15664 15865 15866 15665 
4 15665 15866 15867 15666 
4 15666 15867 15868 15667 
4 15667 15868 15869 15668 
4 15668 15869 15870 15669 
4 15669 15870 15871 15670 
4 15670 15871 15872 15671 
4 15671 15872 15873 15672 
4 15672 15873 15874 15673 
4 15673 15874 15875 15674 
4 15674 15875 15876 15675 
4 15675 15876 15877 15676 
4 15676 15877 15878 15677 
4 15678 15879 15880 15679 
4 15679 15880 15881 15680 
4 15680 15881 15882 15681 
4 15681 15882 15883 15682 
4 15682 15883 15884 15683 
4 15683 15884 15885 15684 
4 15684 15885 15886 15685 
4 15685 15886 15887 15686 
4 15686 15887 15888 15687 
4 15687 15888 15889 15688 
4 15688 15889 15890 15689 
4 15689 15890 15891 15690 
4 15690 15891 15892 15691 
4 15691 15892 15893 15692 
4 15692 15893 15894 15693 
4 15693 15894 15895 15694 
4 15694 15895 15896 15695 
4 15695 15896 15897 15696 
4 15696 15897 15898 15697 
4 15697 15898 15899 15698 
4 15698 15899 15900 15699 
4 15699 15900 15901 15700 
4 15700 15901 15902 15701 
4 15701 15902 15903 15702 
4 15702 15903 15904 15703 
4 15703 15904 15905 15704 
4 15704 15905 15906 15705 
4 15705 15906 15907 15706 
4 15706 15907 15908 15707 
4 15707 15908 15909 15708 
4 15708 15909 15910 15709 
4 15709 15910 15911 15710 
4 15710 15911 15912 15711 
4 15711 15912 15913 15712 
4 15712 15913 15914 15713 
4 15713 15914 15915 15714 
4 15714 15915 15916 15715 
4 15715 15916 15917 15716 
4 15716 15917 15918 15717 
4 15717 15918 15919 15718 
4 15718 15919 15920 15719 
4 15719 15920 15921 15720 
4 15720 15921 15922 15721 
4 15721 15922 15923 15722 
4 15722 15923 15924 15723 
4 15723 15924 15925 15724 
4 15724 15925 15926 15725 
4 15725 15926 15927 15726 
4 15726 15927 15928 15727 
4 15727 15928 15929 15728 
4 15728 15929 15930 15729 
4 15729 15930 15931 15730 
4 15730 15931 15932 15731 
4 15731 15932 15933 15732 
4 15732 15933 15934 15733 
4 15733 15934 15935 15734 
4 15734 15935 15936 15735 
4 15735 15936 15937 15736 
4 15736 15937 15938 15737 
4 15737 15938 15939 15738 
4 15738 15939 15940 15739 
4 15739 15940 15941 15740 
4 15740 15941 15942 15741 
4 15741 15942 15943 15742 
4 15742 15943 15944 15743 
4 15743 15944 15945 15744 
4 15744 15945 15946 15745 
4 15745 15946 15947 15746 
4 15746 15947 15948 15747 
4 15747 15948 15949 15748 
4 15748 15949 15950 15749 
4 15749 15950 15951 15750 
4 15750 15951 15952 15751 
4 15751 15952 15953 15752 
4 15752 15953 15954 15753 
4 15753 15954 15955 15754 
4 15754 15955 15956 15755 
4 15755 15956 15957 15756 
4 15756 15957 15958 15757 
4 15757 15958 15959 15758 
4 15758 15959 15960 15759 
4 15759 15960 15961 15760 
4 15760 15961 15962 15761 
4 15761 15962 15963 15762 
4 15762 15963 15964 15763 
4 15763 15964 15965 15764 
4 15764 15965 15966 15765 
4 15765 15966 15967 15766 
4 15766 15967 15968 15767 
4 15767 15968 15969 15768 
4 15768 15969 15970 15769 
4 15769 15970 15971 15770 
4 15770 15971 15972 15771 
4 15771 15972 15973 15772 
4 15772 15973 15974 15773 
4 15773 15974 15975 15774 
4 15774 15975 15976 15775 
4 15775 15976 15977 15776 
4 15776 15977 15978 15777 
4 15777 15978 15979 15778 
4 15778 15979 15980 15779 
4 15779 15980 15981 15780 
4 15780 15981 15982 15781 
4 15781 15982 15983 15782 
4 15782 15983 15984 15783 
4 15783 15984 15985 15784 
4 15784 15985 15986 15785 
4 15785 15986 15987 15786 
4 15786 15987 15988 15787 
4 15787 15988 15989 15788 
4 15788 15989 15990 15789 
4 15789 15990 15991 15790 
4 15790 15991 15992 15791 
4 15791 15992 15993 15792 
4 15792 15993 15994 15793 
4 15793 15994 15995 15794 
4 15794 15995 15996 15795 
4 15795 15996 15997 15796 
4 15796 15997 15998 15797 
4 15797 15998 15999 15798 
4 15798 15999 16000 15799 
4 15799 16000 16001 15800 
4 15800 16001 16002 15801 
4 15801 16002 16003 15802 
4 15802 16003 16004 15803 
4 15803 16004 16005 15804 
4 15804 16005 16006 15805 
4 15805 16006 16007 15806 
4 15806 16007 16008 15807 
4 15807 16008 16009 15808 
4 15808 16009 16010 15809 
4 15809 16010 16011 15810 
4 15810 16011 16012 15811 
4 15811 16012 16013 15812 
4 15812 16013 16014 15813 
4 15813 16014 16015 15814 
4 15814 16015 16016 15815 
4 15815 16016 16017 15816 
4 15816 16017 16018 15817 
4 15817 16018 16019 15818 
4 15818 16019 16020 15819 
4 15819 16020 16021 15820 
4 15820 16021 16022 15821 
4 15821 16022 16023 15822 
4 15822 16023 16024 15823 
4 15823 16024 16025 15824 
4 15824 16025 16026 15825 
4 15825 16026 16027 15826 
4 15826 16027 16028 15827 
4 15827 16028 16029 15828 
4 15828 16029 16030 15829 
4 15829 16030 16031 15830 
4 15830 16031 16032 15831 
4 15831 16032 16033 15832 
4 15832 16033 16034 15833 
4 15833 16034 16035 15834 
4 15834 16035 16036 15835 
4 15835 16036 16037 15836 
4 15836 16037 16038 15837 
4 15837 16038 16039 15838 
4 15838 16039 16040 15839 
4 15839 16040 16041 15840 
4 15840 16041 16042 15841 
4 15841 16042 16043 15842 
4 15842 16043 16044 15843 
4 15843 16044 16045 15844 
4 15844 16045 16046 15845 
4 15845 16046 16047 15846 
4 15846 16047 16048 15847 
4 15847 16048 16049 15848 
4 15848 16049 16050 15849 
4 15849 16050 16051 15850 
4 15850 16051 16052 15851 
4 15851 16052 16053 15852 
4 15852 16053 16054 15853 
4 15853 16054 16055 15854 
4 15854 16055 16056 15855 
4 15855 16056 16057 15856 
4 15856 16057 16058 15857 
4 15857 16058 16059 15858 
4 15858 16059 16060 15859 
4 15859 16060 16061 15860 
4 15860 16061 16062 15861 
4 15861 16062 16063 15862 
4 15862 16063 16064 15863 
4 15863 16064 16065 15864 
4 15864 16065 16066 15865 
4 15865 16066 16067 15866 
4 15866 16067 16068 15867 
4 15867 16068 16069 15868 
4 15868 16069 16070 15869 
4 15869 16070 16071 15870 
4 15870 16071 16072 15871 
4 15871 16072 16073 15872 
4 15872 16073 16074 15873 
4 15873 16074 16075 15874 
4 15874 16075 16076 15875 
4 15875 16076 16077 15876 
4 15876 16077 16078 15877 
4 15877 16078 16079 15878 
4 15879 16080 16081 15880 
4 15880 16081 16082 15881 
4 15881 16082 16083 15882 
4 15882 16083 16084 15883 
4 15883 16084 16085 15884 
4 15884 16085 16086 15885 
4 15885 16086 16087 15886 
4 15886 16087 16088 15887 
4 15887 16088 16089 15888 
4 15888 16089 16090 15889 
4 15889 16090 16091 15890 
4 15890 16091 16092 15891 
4 15891 16092 16093 15892 
4 15892 16093 16094 15893 
4 15893 16094 16095 15894 
4 15894 16095 16096 15895 
4 15895 16096 16097 15896 
4 15896 16097 16098 15897 
4 15897 16098 16099 15898 
4 15898 16099 16100 15899 
4 15899 16100 16101 15900 
4 15900 16101 16102 15901 
4 15901 16102 16103 15902 
4 15902 16103 16104 15903 
4 15903 16104 16105 15904 
4 15904 16105 16106 15905 
4 15905 16106 16107 15906 
4 15906 16107 16108 15907 
4 15907 16108 16109 15908 
4 15908 16109 16110 15909 
4 15909 16110 16111 15910 
4 15910 16111 16112 15911 
4 15911 16112 16113 15912 
4 15912 16113 16114 15913 
4 15913 16114 16115 15914 
4 15914 16115 16116 15915 
4 15915 16116 16117 15916 
4 15916 16117 16118 15917 
4 15917 16118 16119 15918 
4 15918 16119 16120 15919 
4 15919 16120 16121 15920 
4 15920 16121 16122 15921 
4 15921 16122 16123 15922 
4 15922 16123 16124 15923 
4 15923 16124 16125 15924 
4 15924 16125 16126 15925 
4 15925 16126 16127 15926 
4 15926 16127 16128 15927 
4 15927 16128 16129 15928 
4 15928 16129 16130 15929 
4 15929 16130 16131 15930 
4 15930 16131 16132 15931 
4 15931 16132 16133 15932 
4 15932 16133 16134 15933 
4 15933 16134 16135 15934 
4 15934 16135 16136 15935 
4 15935 16136 16137 15936 
4 15936 16137 16138 15937 
4 15937 16138 16139 15938 
4 15938 16139 16140 15939 
4 15939 16140 16141 15940 
4 15940 16141 16142 15941 
4 15941 16142 16143 15942 
4 15942 16143 16144 15943 
4 15943 16144 16145 15944 
4 15944 16145 16146 15945 
4 15945 16146 16147 15946 
4 15946 16147 16148 15947 
4 15947 16148 16149 15948 
4 15948 16149 16150 15949 
4 15949 16150 16151 15950 
4 15950 16151 16152 15951 
4 15951 16152 16153 15952 
4 15952 16153 16154 15953 
4 15953 16154 16155 15954 
4 15954 16155 16156 15955 
4 15955 16156 16157 15956 
4 15956 16157 16158 15957 
4 15957 16158 16159 15958 
4 15958 16159 16160 15959 
4 15959 16160 16161 15960 
4 15960 16161 16162 15961 
4 15961 16162 16163 15962 
4 15962 16163 16164 15963 
4 15963 16164 16165 15964 
4 15964 16165 16166 15965 
4 15965 16166 16167 15966 
4 15966 16167 16168 15967 
4 15967 16168 16169 15968 
4 15968 16169 16170 15969 
4 15969 16170 16171 15970 
4 15970 16171 16172 15971 
4 15971 16172 16173 15972 
4 15972 16173 16174 15973 
4 15973 16174 16175 15974 
4 15974 16175 16176 15975 
4 15975 16176 16177 15976 
4 15976 16177 16178 15977 
4 15977 16178 16179 15978 
4 15978 16179 16180 15979 
4 15979 16180 16181 15980 
4 15980 16181 16182 15981 
4 15981 16182 16183 15982 
4 15982 16183 16184 15983 
4 15983 16184 16185 15984 
4 15984 16185 16186 15985 
4 15985 16186 16187 15986 
4 15986 16187 16188 15987 
4 15987 16188 16189 15988 
4 15988 16189 16190 15989 
4 15989 16190 16191 15990 
4 15990 16191 16192 15991 
4 15991 16192 16193 15992 
4 15992 16193 16194 15993 
4 15993 16194 16195 15994 
4 15994 16195 16196 15995 
4 15995 16196 16197 15996 
4 15996 16197 16198 15997 
4 15997 16198 16199 15998 
4 15998 16199 16200 15999 
4 15999 16200 16201 16000 
4 16000 16201 16202 16001 
4 16001 16202 16203 16002 
4 16002 16203 16204 16003 
4 16003 16204 16205 16004 
4 16004 16205 16206 16005 
4 16005 16206 16207 16006 
4 16006 16207 16208 16007 
4 16007 16208 16209 16008 
4 16008 16209 16210 16009 
4 16009 16210 16211 16010 
4 16010 16211 16212 16011 
4 16011 16212 16213 16012 
4 16012 16213 16214 16013 
4 16013 16214 16215 16014 
4 16014 16215 16216 16015 
4 16015 16216 16217 16016 
4 16016 16217 16218 16017 
4 16017 16218 16219 16018 
4 16018 16219 16220 16019 
4 16019 16220 16221 16020 
4 16020 16221 16222 16021 
4 16021 16222 16223 16022 
4 16022 16223 16224 16023 
4 16023 16224 16225 16024 
4 16024 16225 16226 16025 
4 16025 16226 16227 16026 
4 16026 16227 16228 16027 
4 16027 16228 16229 16028 
4 16028 16229 16230 16029 
4 16029 16230 16231 16030 
4 16030 16231 16232 16031 
4 16031 16232 16233 16032 
4 16032 16233 16234 16033 
4 16033 16234 16235 16034 
4 16034 16235 16236 16035 
4 16035 16236 16237 16036 
4 16036 16237 16238 16037 
4 16037 16238 16239 16038 
4 16038 16239 16240 16039 
4 16039 16240 16241 16040 
4 16040 16241 16242 16041 
4 16041 16242 16243 16042 
4 16042 16243 16244 16043 
4 16043 16244 16245 16044 
4 16044 16245 16246 16045 
4 16045 16246 16247 16046 
4 16046 16247 16248 16047 
4 16047 16248 16249 16048 
4 16048 16249 16250 16049 
4 16049 16250 16251 16050 
4 16050 16251 16252 16051 
4 16051 16252 16253 16052 
4 16052 16253 16254 16053 
4 16053 16254 16255 16054 
4 16054 16255 16256 16055 
4 16055 16256 16257 16056 
4 16056 16257 16258 16057 
4 16057 16258 16259 16058 
4 16058 16259 16260 16059 
4 16059 16260 16261 16060 
4 16060 16261 16262 16061 
4 16061 16262 16263 16062 
4 16062 16263 16264 16063 
4 16063 16264 16265 16064 
4 16064 16265 16266 16065 
4 16065 16266 16267 16066 
4 16066 16267 16268 16067 
4 16067 16268 16269 16068 
4 16068 16269 16270 16069 
4 16069 16270 16271 16070 
4 16070 16271 16272 16071 
4 16071 16272 16273 16072 
4 16072 16273 16274 16073 
4 16073 16274 16275 16074 
4 16074 16275 16276 16075 
4 16075 16276 16277 16076 
4 16076 16277 16278 16077 
4 16077 16278 16279 16078 
4 16078 16279 16280 16079 
4 16080 16281 16282 16081 
4 16081 16282 16283 16082 
4 16082 16283 16284 16083 
4 16083 16284 16285 16084 
4 16084 16285 16286 16085 
4 16085 16286 16287 16086 
4 16086 16287 16288 16087 
4 16087 16288 16289 16088 
4 16088 16289 16290 16089 
4 16089 16290 16291 16090 
4 16090 16291 16292 16091 
4 16091 16292 16293 16092 
4 16092 16293 16294 16093 
4 16093 16294 16295 16094 
4 16094 16295 16296 16095 
4 16095 16296 16297 16096 
4 16096 16297 16298 16097 
4 16097 16298 16299 16098 
4 16098 16299 16300 16099 
4 16099 16300 16301 16100 
4 16100 16301 16302 16101 
4 16101 16302 16303 16102 
4 16102 16303 16304 16103 
4 16103 16304 16305 16104 
4 16104 16305 16306 16105 
4 16105 16306 16307 16106 
4 16106 16307 16308 16107 
4 16107 16308 16309 16108 
4 16108 16309 16310 16109 
4 16109 16310 16311 16110 
4 16110 16311 16312 16111 
4 16111 16312 16313 16112 
4 16112 16313 16314 16113 
4 16113 16314 16315 16114 
4 16114 16315 16316 16115 
4 16115 16316 16317 16116 
4 16116 16317 16318 16117 
4 16117 16318 16319 16118 
4 16118 16319 16320 16119 
4 16119 16320 16321 16120 
4 16120 16321 16322 16121 
4 16121 16322 16323 16122 
4 16122 16323 16324 16123 
4 16123 16324 16325 16124 
4 16124 16325 16326 16125 
4 16125 16326 16327 16126 
4 16126 16327 16328 16127 
4 16127 16328 16329 16128 
4 16128 16329 16330 16129 
4 16129 16330 16331 16130 
4 16130 16331 16332 16131 
4 16131 16332 16333 16132 
4 16132 16333 16334 16133 
4 16133 16334 16335 16134 
4 16134 16335 16336 16135 
4 16135 16336 16337 16136 
4 16136 16337 16338 16137 
4 16137 16338 16339 16138 
4 16138 16339 16340 16139 
4 16139 16340 16341 16140 
4 16140 16341 16342 16141 
4 16141 16342 16343 16142 
4 16142 16343 16344 16143 
4 16143 16344 16345 16144 
4 16144 16345 16346 16145 
4 16145 16346 16347 16146 
4 16146 16347 16348 16147 
4 16147 16348 16349 16148 
4 16148 16349 16350 16149 
4 16149 16350 16351 16150 
4 16150 16351 16352 16151 
4 16151 16352 16353 16152 
4 16152 16353 16354 16153 
4 16153 16354 16355 16154 
4 16154 16355 16356 16155 
4 16155 16356 16357 16156 
4 16156 16357 16358 16157 
4 16157 16358 16359 16158 
4 16158 16359 16360 16159 
4 16159 16360 16361 16160 
4 16160 16361 16362 16161 
4 16161 16362 16363 16162 
4 16162 16363 16364 16163 
4 16163 16364 16365 16164 
4 16164 16365 16366 16165 
4 16165 16366 16367 16166 
4 16166 16367 16368 16167 
4 16167 16368 16369 16168 
4 16168 16369 16370 16169 
4 16169 16370 16371 16170 
4 16170 16371 16372 16171 
4 16171 16372 16373 16172 
4 16172 16373 16374 16173 
4 16173 16374 16375 16174 
4 16174 16375 16376 16175 
4 16175 16376 16377 16176 
4 16176 16377 16378 16177 
4 16177 16378 16379 16178 
4 16178 16379 16380 16179 
4 16179 16380 16381 16180 
4 16180 16381 16382 16181 
4 16181 16382 16383 16182 
4 16182 16383 16384 16183 
4 16183 16384 16385 16184 
4 16184 16385 16386 16185 
4 16185 16386 16387 16186 
4 16186 16387 16388 16187 
4 16187 16388 16389 16188 
4 16188 16389 16390 16189 
4 16189 16390 16391 16190 
4 16190 16391 16392 16191 
4 16191 16392 16393 16192 
4 16192 16393 16394 16193 
4 16193 16394 16395 16194 
4 16194 16395 16396 16195 
4 16195 16396 16397 16196 
4 16196 16397 16398 16197 
4 16197 16398 16399 16198 
4 16198 16399 16400 16199 
4 16199 16400 16401 16200 
4 16200 16401 16402 16201 
4 16201 16402 16403 16202 
4 16202 16403 16404 16203 
4 16203 16404 16405 16204 
4 16204 16405 16406 16205 
4 16205 16406 16407 16206 
4 16206 16407 16408 16207 
4 16207 16408 16409 16208 
4 16208 16409 16410 16209 
4 16209 16410 16411 16210 
4 16210 16411 16412 16211 
4 16211 16412 16413 16212 
4 16212 16413 16414 16213 
4 16213 16414 16415 16214 
4 16214 16415 16416 16215 
4 16215 16416 16417 16216 
4 16216 16417 16418 16217 
4 16217 16418 16419 16218 
4 16218 16419 16420 16219 
4 16219 16420 16421 16220 
4 16220 16421 16422 16221 
4 16221 16422 16423 16222 
4 16222 16423 16424 16223 
4 16223 16424 16425 16224 
4 16224 16425 16426 16225 
4 16225 16426 16427 16226 
4 16226 16427 16428 16227 
4 16227 16428 16429 16228 
4 16228 16429 16430 16229 
4 16229 16430 16431 16230 
4 16230 16431 16432 16231 
4 16231 16432 16433 16232 
4 16232 16433 16434 16233 
4 16233 16434 16435 16234 
4 16234 16435 16436 16235 
4 16235 16436 16437 16236 
4 16236 16437 16438 16237 
4 16237 16438 16439 16238 
4 16238 16439 16440 16239 
4 16239 16440 16441 16240 
4 16240 16441 16442 16241 
4 16241 16442 16443 16242 
4 16242 16443 16444 16243 
4 16243 16444 16445 16244 
4 16244 16445 16446 16245 
4 16245 16446 16447 16246 
4 16246 16447 16448 16247 
4 16247 16448 16449 16248 
4 16248 16449 16450 16249 
4 16249 16450 16451 16250 
4 16250 16451 16452 16251 
4 16251 16452 16453 16252 
4 16252 16453 16454 16253 
4 16253 16454 16455 16254 
4 16254 16455 16456 16255 
4 16255 16456 16457 16256 
4 16256 16457 16458 16257 
4 16257 16458 16459 16258 
4 16258 16459 16460 16259 
4 16259 16460 16461 16260 
4 16260 16461 16462 16261 
4 16261 16462 16463 16262 
4 16262 16463 16464 16263 
4 16263 16464 16465 16264 
4 16264 16465 16466 16265 
4 16265 16466 16467 16266 
4 16266 16467 16468 16267 
4 16267 16468 16469 16268 
4 16268 16469 16470 16269 
4 16269 16470 16471 16270 
4 16270 16471 16472 16271 
4 16271 16472 16473 16272 
4 16272 16473 16474 16273 
4 16273 16474 16475 16274 
4 16274 16475 16476 16275 
4 16275 16476 16477 16276 
4 16276 16477 16478 16277 
4 16277 16478 16479 16278 
4 16278 16479 16480 16279 
4 16279 16480 16481 16280 
4 16281 16482 16483 16282 
4 16282 16483 16484 16283 
4 16283 16484 16485 16284 
4 16284 16485 16486 16285 
4 16285 16486 16487 16286 
4 16286 16487 16488 16287 
4 16287 16488 16489 16288 
4 16288 16489 16490 16289 
4 16289 16490 16491 16290 
4 16290 16491 16492 16291 
4 16291 16492 16493 16292 
4 16292 16493 16494 16293 
4 16293 16494 16495 16294 
4 16294 16495 16496 16295 
4 16295 16496 16497 16296 
4 16296 16497 16498 16297 
4 16297 16498 16499 16298 
4 16298 16499 16500 16299 
4 16299 16500 16501 16300 
4 16300 16501 16502 16301 
4 16301 16502 16503 16302 
4 16302 16503 16504 16303 
4 16303 16504 16505 16304 
4 16304 16505 16506 16305 
4 16305 16506 16507 16306 
4 16306 16507 16508 16307 
4 16307 16508 16509 16308 
4 16308 16509 16510 16309 
4 16309 16510 16511 16310 
4 16310 16511 16512 16311 
4 16311 16512 16513 16312 
4 16312 16513 16514 16313 
4 16313 16514 16515 16314 
4 16314 16515 16516 16315 
4 16315 16516 16517 16316 
4 16316 16517 16518 16317 
4 16317 16518 16519 16318 
4 16318 16519 16520 16319 
4 16319 16520 16521 16320 
4 16320 16521 16522 16321 
4 16321 16522 16523 16322 
4 16322 16523 16524 16323 
4 16323 16524 16525 16324 
4 16324 16525 16526 16325 
4 16325 16526 16527 16326 
4 16326 16527 16528 16327 
4 16327 16528 16529 16328 
4 16328 16529 16530 16329 
4 16329 16530 16531 16330 
4 16330 16531 16532 16331 
4 16331 16532 16533 16332 
4 16332 16533 16534 16333 
4 16333 16534 16535 16334 
4 16334 16535 16536 16335 
4 16335 16536 16537 16336 
4 16336 16537 16538 16337 
4 16337 16538 16539 16338 
4 16338 16539 16540 16339 
4 16339 16540 16541 16340 
4 16340 16541 16542 16341 
4 16341 16542 16543 16342 
4 16342 16543 16544 16343 
4 16343 16544 16545 16344 
4 16344 16545 16546 16345 
4 16345 16546 16547 16346 
4 16346 16547 16548 16347 
4 16347 16548 16549 16348 
4 16348 16549 16550 16349 
4 16349 16550 16551 16350 
4 16350 16551 16552 16351 
4 16351 16552 16553 16352 
4 16352 16553 16554 16353 
4 16353 16554 16555 16354 
4 16354 16555 16556 16355 
4 16355 16556 16557 16356 
4 16356 16557 16558 16357 
4 16357 16558 16559 16358 
4 16358 16559 16560 16359 
4 16359 16560 16561 16360 
4 16360 16561 16562 16361 
4 16361 16562 16563 16362 
4 16362 16563 16564 16363 
4 16363 16564 16565 16364 
4 16364 16565 16566 16365 
4 16365 16566 16567 16366 
4 16366 16567 16568 16367 
4 16367 16568 16569 16368 
4 16368 16569 16570 16369 
4 16369 16570 16571 16370 
4 16370 16571 16572 16371 
4 16371 16572 16573 16372 
4 16372 16573 16574 16373 
4 16373 16574 16575 16374 
4 16374 16575 16576 16375 
4 16375 16576 16577 16376 
4 16376 16577 16578 16377 
4 16377 16578 16579 16378 
4 16378 16579 16580 16379 
4 16379 16580 16581 16380 
4 16380 16581 16582 16381 
4 16381 16582 16583 16382 
4 16382 16583 16584 16383 
4 16383 16584 16585 16384 
4 16384 16585 16586 16385 
4 16385 16586 16587 16386 
4 16386 16587 16588 16387 
4 16387 16588 16589 16388 
4 16388 16589 16590 16389 
4 16389 16590 16591 16390 
4 16390 16591 16592 16391 
4 16391 16592 16593 16392 
4 16392 16593 16594 16393 
4 16393 16594 16595 16394 
4 16394 16595 16596 16395 
4 16395 16596 16597 16396 
4 16396 16597 16598 16397 
4 16397 16598 16599 16398 
4 16398 16599 16600 16399 
4 16399 16600 16601 16400 
4 16400 16601 16602 16401 
4 16401 16602 16603 16402 
4 16402 16603 16604 16403 
4 16403 16604 16605 16404 
4 16404 16605 16606 16405 
4 16405 16606 16607 16406 
4 16406 16607 16608 16407 
4 16407 16608 16609 16408 
4 16408 16609 16610 16409 
4 16409 16610 16611 16410 
4 16410 16611 16612 16411 
4 16411 16612 16613 16412 
4 16412 16613 16614 16413 
4 16413 16614 16615 16414 
4 16414 16615 16616 16415 
4 16415 16616 16617 16416 
4 16416 16617 16618 16417 
4 16417 16618 16619 16418 
4 16418 16619 16620 16419 
4 16419 16620 16621 16420 
4 16420 16621 16622 16421 
4 16421 16622 16623 16422 
4 16422 16623 16624 16423 
4 16423 16624 16625 16424 
4 16424 16625 16626 16425 
4 16425 16626 16627 16426 
4 16426 16627 16628 16427 
4 16427 16628 16629 16428 
4 16428 16629 16630 16429 
4 16429 16630 16631 16430 
4 16430 16631 16632 16431 
4 16431 16632 16633 16432 
4 16432 16633 16634 16433 
4 16433 16634 16635 16434 
4 16434 16635 16636 16435 
4 16435 16636 16637 16436 
4 16436 16637 16638 16437 
4 16437 16638 16639 16438 
4 16438 16639 16640 16439 
4 16439 16640 16641 16440 
4 16440 16641 16642 16441 
4 16441 16642 16643 16442 
4 16442 16643 16644 16443 
4 16443 16644 16645 16444 
4 16444 16645 16646 16445 
4 16445 16646 16647 16446 
4 16446 16647 16648 16447 
4 16447 16648 16649 16448 
4 16448 16649 16650 16449 
4 16449 16650 16651 16450 
4 16450 16651 16652 16451 
4 16451 16652 16653 16452 
4 16452 16653 16654 16453 
4 16453 16654 16655 16454 
4 16454 16655 16656 16455 
4 16455 16656 16657 16456 
4 16456 16657 16658 16457 
4 16457 16658 16659 16458 
4 16458 16659 16660 16459 
4 16459 16660 16661 16460 
4 16460 16661 16662 16461 
4 16461 16662 16663 16462 
4 16462 16663 16664 16463 
4 16463 16664 16665 16464 
4 16464 16665 16666 16465 
4 16465 16666 16667 16466 
4 16466 16667 16668 16467 
4 16467 16668 16669 16468 
4 16468 16669 16670 16469 
4 16469 16670 16671 16470 
4 16470 16671 16672 16471 
4 16471 16672 16673 16472 
4 16472 16673 16674 16473 
4 16473 16674 16675 16474 
4 16474 16675 16676 16475 
4 16475 16676 16677 16476 
4 16476 16677 16678 16477 
4 16477 16678 16679 16478 
4 16478 16679 16680 16479 
4 16479 16680 16681 16480 
4 16480 16681 16682 16481 
4 16482 16683 16684 16483 
4 16483 16684 16685 16484 
4 16484 16685 16686 16485 
4 16485 16686 16687 16486 
4 16486 16687 16688 16487 
4 16487 16688 16689 16488 
4 16488 16689 16690 16489 
4 16489 16690 16691 16490 
4 16490 16691 16692 16491 
4 16491 16692 16693 16492 
4 16492 16693 16694 16493 
4 16493 16694 16695 16494 
4 16494 16695 16696 16495 
4 16495 16696 16697 16496 
4 16496 16697 16698 16497 
4 16497 16698 16699 16498 
4 16498 16699 16700 16499 
4 16499 16700 16701 16500 
4 16500 16701 16702 16501 
4 16501 16702 16703 16502 
4 16502 16703 16704 16503 
4 16503 16704 16705 16504 
4 16504 16705 16706 16505 
4 16505 16706 16707 16506 
4 16506 16707 16708 16507 
4 16507 16708 16709 16508 
4 16508 16709 16710 16509 
4 16509 16710 16711 16510 
4 16510 16711 16712 16511 
4 16511 16712 16713 16512 
4 16512 16713 16714 16513 
4 16513 16714 16715 16514 
4 16514 16715 16716 16515 
4 16515 16716 16717 16516 
4 16516 16717 16718 16517 
4 16517 16718 16719 16518 
4 16518 16719 16720 16519 
4 16519 16720 16721 16520 
4 16520 16721 16722 16521 
4 16521 16722 16723 16522 
4 16522 16723 16724 16523 
4 16523 16724 16725 16524 
4 16524 16725 16726 16525 
4 16525 16726 16727 16526 
4 16526 16727 16728 16527 
4 16527 16728 16729 16528 
4 16528 16729 16730 16529 
4 16529 16730 16731 16530 
4 16530 16731 16732 16531 
4 16531 16732 16733 16532 
4 16532 16733 16734 16533 
4 16533 16734 16735 16534 
4 16534 16735 16736 16535 
4 16535 16736 16737 16536 
4 16536 16737 16738 16537 
4 16537 16738 16739 16538 
4 16538 16739 16740 16539 
4 16539 16740 16741 16540 
4 16540 16741 16742 16541 
4 16541 16742 16743 16542 
4 16542 16743 16744 16543 
4 16543 16744 16745 16544 
4 16544 16745 16746 16545 
4 16545 16746 16747 16546 
4 16546 16747 16748 16547 
4 16547 16748 16749 16548 
4 16548 16749 16750 16549 
4 16549 16750 16751 16550 
4 16550 16751 16752 16551 
4 16551 16752 16753 16552 
4 16552 16753 16754 16553 
4 16553 16754 16755 16554 
4 16554 16755 16756 16555 
4 16555 16756 16757 16556 
4 16556 16757 16758 16557 
4 16557 16758 16759 16558 
4 16558 16759 16760 16559 
4 16559 16760 16761 16560 
4 16560 16761 16762 16561 
4 16561 16762 16763 16562 
4 16562 16763 16764 16563 
4 16563 16764 16765 16564 
4 16564 16765 16766 16565 
4 16565 16766 16767 16566 
4 16566 16767 16768 16567 
4 16567 16768 16769 16568 
4 16568 16769 16770 16569 
4 16569 16770 16771 16570 
4 16570 16771 16772 16571 
4 16571 16772 16773 16572 
4 16572 16773 16774 16573 
4 16573 16774 16775 16574 
4 16574 16775 16776 16575 
4 16575 16776 16777 16576 
4 16576 16777 16778 16577 
4 16577 16778 16779 16578 
4 16578 16779 16780 16579 
4 16579 16780 16781 16580 
4 16580 16781 16782 16581 
4 16581 16782 16783 16582 
4 16582 16783 16784 16583 
4 16583 16784 16785 16584 
4 16584 16785 16786 16585 
4 16585 16786 16787 16586 
4 16586 16787 16788 16587 
4 16587 16788 16789 16588 
4 16588 16789 16790 16589 
4 16589 16790 16791 16590 
4 16590 16791 16792 16591 
4 16591 16792 16793 16592 
4 16592 16793 16794 16593 
4 16593 16794 16795 16594 
4 16594 16795 16796 16595 
4 16595 16796 16797 16596 
4 16596 16797 16798 16597 
4 16597 16798 16799 16598 
4 16598 16799 16800 16599 
4 16599 16800 16801 16600 
4 16600 16801 16802 16601 
4 16601 16802 16803 16602 
4 16602 16803 16804 16603 
4 16603 16804 16805 16604 
4 16604 16805 16806 16605 
4 16605 16806 16807 16606 
4 16606 16807 16808 16607 
4 16607 16808 16809 16608 
4 16608 16809 16810 16609 
4 16609 16810 16811 16610 
4 16610 16811 16812 16611 
4 16611 16812 16813 16612 
4 16612 16813 16814 16613 
4 16613 16814 16815 16614 
4 16614 16815 16816 16615 
4 16615 16816 16817 16616 
4 16616 16817 16818 16617 
4 16617 16818 16819 16618 
4 16618 16819 16820 16619 
4 16619 16820 16821 16620 
4 16620 16821 16822 16621 
4 16621 16822 16823 16622 
4 16622 16823 16824 16623 
4 16623 16824 16825 16624 
4 16624 16825 16826 16625 
4 16625 16826 16827 16626 
4 16626 16827 16828 16627 
4 16627 16828 16829 16628 
4 16628 16829 16830 16629 
4 16629 16830 16831 16630 
4 16630 16831 16832 16631 
4 16631 16832 16833 16632 
4 16632 16833 16834 16633 
4 16633 16834 16835 16634 
4 16634 16835 16836 16635 
4 16635 16836 16837 16636 
4 16636 16837 16838 16637 
4 16637 16838 16839 16638 
4 16638 16839 16840 16639 
4 16639 16840 16841 16640 
4 16640 16841 16842 16641 
4 16641 16842 16843 16642 
4 16642 16843 16844 16643 
4 16643 16844 16845 16644 
4 16644 16845 16846 16645 
4 16645 16846 16847 16646 
4 16646 16847 16848 16647 
4 16647 16848 16849 16648 
4 16648 16849 16850 16649 
4 16649 16850 16851 16650 
4 16650 16851 16852 16651 
4 16651 16852 16853 16652 
4 16652 16853 16854 16653 
4 16653 16854 16855 16654 
4 16654 16855 16856 16655 
4 16655 16856 16857 16656 
4 16656 16857 16858 16657 
4 16657 16858 16859 16658 
4 16658 16859 16860 16659 
4 16659 16860 16861 16660 
4 16660 16861 16862 16661 
4 16661 16862 16863 16662 
4 16662 16863 16864 16663 
4 16663 16864 16865 16664 
4 16664 16865 16866 16665 
4 16665 16866 16867 16666 
4 16666 16867 16868 16667 
4 16667 16868 16869 16668 
4 16668 16869 16870 16669 
4 16669 16870 16871 16670 
4 16670 16871 16872 16671 
4 16671 16872 16873 16672 
4 16672 16873 16874 16673 
4 16673 16874 16875 16674 
4 16674 16875 16876 16675 
4 16675 16876 16877 16676 
4 16676 16877 16878 16677 
4 16677 16878 16879 16678 
4 16678 16879 16880 16679 
4 16679 16880 16881 16680 
4 16680 16881 16882 16681 
4 16681 16882 16883 16682 
4 16683 16884 16885 16684 
4 16684 16885 16886 16685 
4 16685 16886 16887 16686 
4 16686 16887 16888 16687 
4 16687 16888 16889 16688 
4 16688 16889 16890 16689 
4 16689 16890 16891 16690 
4 16690 16891 16892 16691 
4 16691 16892 16893 16692 
4 16692 16893 16894 16693 
4 16693 16894 16895 16694 
4 16694 16895 16896 16695 
4 16695 16896 16897 16696 
4 16696 16897 16898 16697 
4 16697 16898 16899 16698 
4 16698 16899 16900 16699 
4 16699 16900 16901 16700 
4 16700 16901 16902 16701 
4 16701 16902 16903 16702 
4 16702 16903 16904 16703 
4 16703 16904 16905 16704 
4 16704 16905 16906 16705 
4 16705 16906 16907 16706 
4 16706 16907 16908 16707 
4 16707 16908 16909 16708 
4 16708 16909 16910 16709 
4 16709 16910 16911 16710 
4 16710 16911 16912 16711 
4 16711 16912 16913 16712 
4 16712 16913 16914 16713 
4 16713 16914 16915 16714 
4 16714 16915 16916 16715 
4 16715 16916 16917 16716 
4 16716 16917 16918 16717 
4 16717 16918 16919 16718 
4 16718 16919 16920 16719 
4 16719 16920 16921 16720 
4 16720 16921 16922 16721 
4 16721 16922 16923 16722 
4 16722 16923 16924 16723 
4 16723 16924 16925 16724 
4 16724 16925 16926 16725 
4 16725 16926 16927 16726 
4 16726 16927 16928 16727 
4 16727 16928 16929 16728 
4 16728 16929 16930 16729 
4 16729 16930 16931 16730 
4 16730 16931 16932 16731 
4 16731 16932 16933 16732 
4 16732 16933 16934 16733 
4 16733 16934 16935 16734 
4 16734 16935 16936 16735 
4 16735 16936 16937 16736 
4 16736 16937 16938 16737 
4 16737 16938 16939 16738 
4 16738 16939 16940 16739 
4 16739 16940 16941 16740 
4 16740 16941 16942 16741 
4 16741 16942 16943 16742 
4 16742 16943 16944 16743 
4 16743 16944 16945 16744 
4 16744 16945 16946 16745 
4 16745 16946 16947 16746 
4 16746 16947 16948 16747 
4 16747 16948 16949 16748 
4 16748 16949 16950 16749 
4 16749 16950 16951 16750 
4 16750 16951 16952 16751 
4 16751 16952 16953 16752 
4 16752 16953 16954 16753 
4 16753 16954 16955 16754 
4 16754 16955 16956 16755 
4 16755 16956 16957 16756 
4 16756 16957 16958 16757 
4 16757 16958 16959 16758 
4 16758 16959 16960 16759 
4 16759 16960 16961 16760 
4 16760 16961 16962 16761 
4 16761 16962 16963 16762 
4 16762 16963 16964 16763 
4 16763 16964 16965 16764 
4 16764 16965 16966 16765 
4 16765 16966 16967 16766 
4 16766 16967 16968 16767 
4 16767 16968 16969 16768 
4 16768 16969 16970 16769 
4 16769 16970 16971 16770 
4 16770 16971 16972 16771 
4 16771 16972 16973 16772 
4 16772 16973 16974 16773 
4 16773 16974 16975 16774 
4 16774 16975 16976 16775 
4 16775 16976 16977 16776 
4 16776 16977 16978 16777 
4 16777 16978 16979 16778 
4 16778 16979 16980 16779 
4 16779 16980 16981 16780 
4 16780 16981 16982 16781 
4 16781 16982 16983 16782 
4 16782 16983 16984 16783 
4 16783 16984 16985 16784 
4 16784 16985 16986 16785 
4 16785 16986 16987 16786 
4 16786 16987 16988 16787 
4 16787 16988 16989 16788 
4 16788 16989 16990 16789 
4 16789 16990 16991 16790 
4 16790 16991 16992 16791 
4 16791 16992 16993 16792 
4 16792 16993 16994 16793 
4 16793 16994 16995 16794 
4 16794 16995 16996 16795 
4 16795 16996 16997 16796 
4 16796 16997 16998 16797 
4 16797 16998 16999 16798 
4 16798 16999 17000 16799 
4 16799 17000 17001 16800 
4 16800 17001 17002 16801 
4 16801 17002 17003 16802 
4 16802 17003 17004 16803 
4 16803 17004 17005 16804 
4 16804 17005 17006 16805 
4 16805 17006 17007 16806 
4 16806 17007 17008 16807 
4 16807 17008 17009 16808 
4 16808 17009 17010 16809 
4 16809 17010 17011 16810 
4 16810 17011 17012 16811 
4 16811 17012 17013 16812 
4 16812 17013 17014 16813 
4 16813 17014 17015 16814 
4 16814 17015 17016 16815 
4 16815 17016 17017 16816 
4 16816 17017 17018 16817 
4 16817 17018 17019 16818 
4 16818 17019 17020 16819 
4 16819 17020 17021 16820 
4 16820 17021 17022 16821 
4 16821 17022 17023 16822 
4 16822 17023 17024 16823 
4 16823 17024 17025 16824 
4 16824 17025 17026 16825 
4 16825 17026 17027 16826 
4 16826 17027 17028 16827 
4 16827 17028 17029 16828 
4 16828 17029 17030 16829 
4 16829 17030 17031 16830 
4 16830 17031 17032 16831 
4 16831 17032 17033 16832 
4 16832 17033 17034 16833 
4 16833 17034 17035 16834 
4 16834 17035 17036 16835 
4 16835 17036 17037 16836 
4 16836 17037 17038 16837 
4 16837 17038 17039 16838 
4 16838 17039 17040 16839 
4 16839 17040 17041 16840 
4 16840 17041 17042 16841 
4 16841 17042 17043 16842 
4 16842 17043 17044 16843 
4 16843 17044 17045 16844 
4 16844 17045 17046 16845 
4 16845 17046 17047 16846 
4 16846 17047 17048 16847 
4 16847 17048 17049 16848 
4 16848 17049 17050 16849 
4 16849 17050 17051 16850 
4 16850 17051 17052 16851 
4 16851 17052 17053 16852 
4 16852 17053 17054 16853 
4 16853 17054 17055 16854 
4 16854 17055 17056 16855 
4 16855 17056 17057 16856 
4 16856 17057 17058 16857 
4 16857 17058 17059 16858 
4 16858 17059 17060 16859 
4 16859 17060 17061 16860 
4 16860 17061 17062 16861 
4 16861 17062 17063 16862 
4 16862 17063 17064 16863 
4 16863 17064 17065 16864 
4 16864 17065 17066 16865 
4 16865 17066 17067 16866 
4 16866 17067 17068 16867 
4 16867 17068 17069 16868 
4 16868 17069 17070 16869 
4 16869 17070 17071 16870 
4 16870 17071 17072 16871 
4 16871 17072 17073 16872 
4 16872 17073 17074 16873 
4 16873 17074 17075 16874 
4 16874 17075 17076 16875 
4 16875 17076 17077 16876 
4 16876 17077 17078 16877 
4 16877 17078 17079 16878 
4 16878 17079 17080 16879 
4 16879 17080 17081 16880 
4 16880 17081 17082 16881 
4 16881 17082 17083 16882 
4 16882 17083 17084 16883 
4 16884 17085 17086 16885 
4 16885 17086 17087 16886 
4 16886 17087 17088 16887 
4 16887 17088 17089 16888 
4 16888 17089 17090 16889 
4 16889 17090 17091 16890 
4 16890 17091 17092 16891 
4 16891 17092 17093 16892 
4 16892 17093 17094 16893 
4 16893 17094 17095 16894 
4 16894 17095 17096 16895 
4 16895 17096 17097 16896 
4 16896 17097 17098 16897 
4 16897 17098 17099 16898 
4 16898 17099 17100 16899 
4 16899 17100 17101 16900 
4 16900 17101 17102 16901 
4 16901 17102 17103 16902 
4 16902 17103 17104 16903 
4 16903 17104 17105 16904 
4 16904 17105 17106 16905 
4 16905 17106 17107 16906 
4 16906 17107 17108 16907 
4 16907 17108 17109 16908 
4 16908 17109 17110 16909 
4 16909 17110 17111 16910 
4 16910 17111 17112 16911 
4 16911 17112 17113 16912 
4 16912 17113 17114 16913 
4 16913 17114 17115 16914 
4 16914 17115 17116 16915 
4 16915 17116 17117 16916 
4 16916 17117 17118 16917 
4 16917 17118 17119 16918 
4 16918 17119 17120 16919 
4 16919 17120 17121 16920 
4 16920 17121 17122 16921 
4 16921 17122 17123 16922 
4 16922 17123 17124 16923 
4 16923 17124 17125 16924 
4 16924 17125 17126 16925 
4 16925 17126 17127 16926 
4 16926 17127 17128 16927 
4 16927 17128 17129 16928 
4 16928 17129 17130 16929 
4 16929 17130 17131 16930 
4 16930 17131 17132 16931 
4 16931 17132 17133 16932 
4 16932 17133 17134 16933 
4 16933 17134 17135 16934 
4 16934 17135 17136 16935 
4 16935 17136 17137 16936 
4 16936 17137 17138 16937 
4 16937 17138 17139 16938 
4 16938 17139 17140 16939 
4 16939 17140 17141 16940 
4 16940 17141 17142 16941 
4 16941 17142 17143 16942 
4 16942 17143 17144 16943 
4 16943 17144 17145 16944 
4 16944 17145 17146 16945 
4 16945 17146 17147 16946 
4 16946 17147 17148 16947 
4 16947 17148 17149 16948 
4 16948 17149 17150 16949 
4 16949 17150 17151 16950 
4 16950 17151 17152 16951 
4 16951 17152 17153 16952 
4 16952 17153 17154 16953 
4 16953 17154 17155 16954 
4 16954 17155 17156 16955 
4 16955 17156 17157 16956 
4 16956 17157 17158 16957 
4 16957 17158 17159 16958 
4 16958 17159 17160 16959 
4 16959 17160 17161 16960 
4 16960 17161 17162 16961 
4 16961 17162 17163 16962 
4 16962 17163 17164 16963 
4 16963 17164 17165 16964 
4 16964 17165 17166 16965 
4 16965 17166 17167 16966 
4 16966 17167 17168 16967 
4 16967 17168 17169 16968 
4 16968 17169 17170 16969 
4 16969 17170 17171 16970 
4 16970 17171 17172 16971 
4 16971 17172 17173 16972 
4 16972 17173 17174 16973 
4 16973 17174 17175 16974 
4 16974 17175 17176 16975 
4 16975 17176 17177 16976 
4 16976 17177 17178 16977 
4 16977 17178 17179 16978 
4 16978 17179 17180 16979 
4 16979 17180 17181 16980 
4 16980 17181 17182 16981 
4 16981 17182 17183 16982 
4 16982 17183 17184 16983 
4 16983 17184 17185 16984 
4 16984 17185 17186 16985 
4 16985 17186 17187 16986 
4 16986 17187 17188 16987 
4 16987 17188 17189 16988 
4 16988 17189 17190 16989 
4 16989 17190 17191 16990 
4 16990 17191 17192 16991 
4 16991 17192 17193 16992 
4 16992 17193 17194 16993 
4 16993 17194 17195 16994 
4 16994 17195 17196 16995 
4 16995 17196 17197 16996 
4 16996 17197 17198 16997 
4 16997 17198 17199 16998 
4 16998 17199 17200 16999 
4 16999 17200 17201 17000 
4 17000 17201 17202 17001 
4 17001 17202 17203 17002 
4 17002 17203 17204 17003 
4 17003 17204 17205 17004 
4 17004 17205 17206 17005 
4 17005 17206 17207 17006 
4 17006 17207 17208 17007 
4 17007 17208 17209 17008 
4 17008 17209 17210 17009 
4 17009 17210 17211 17010 
4 17010 17211 17212 17011 
4 17011 17212 17213 17012 
4 17012 17213 17214 17013 
4 17013 17214 17215 17014 
4 17014 17215 17216 17015 
4 17015 17216 17217 17016 
4 17016 17217 17218 17017 
4 17017 17218 17219 17018 
4 17018 17219 17220 17019 
4 17019 17220 17221 17020 
4 17020 17221 17222 17021 
4 17021 17222 17223 17022 
4 17022 17223 17224 17023 
4 17023 17224 17225 17024 
4 17024 17225 17226 17025 
4 17025 17226 17227 17026 
4 17026 17227 17228 17027 
4 17027 17228 17229 17028 
4 17028 17229 17230 17029 
4 17029 17230 17231 17030 
4 17030 17231 17232 17031 
4 17031 17232 17233 17032 
4 17032 17233 17234 17033 
4 17033 17234 17235 17034 
4 17034 17235 17236 17035 
4 17035 17236 17237 17036 
4 17036 17237 17238 17037 
4 17037 17238 17239 17038 
4 17038 17239 17240 17039 
4 17039 17240 17241 17040 
4 17040 17241 17242 17041 
4 17041 17242 17243 17042 
4 17042 17243 17244 17043 
4 17043 17244 17245 17044 
4 17044 17245 17246 17045 
4 17045 17246 17247 17046 
4 17046 17247 17248 17047 
4 17047 17248 17249 17048 
4 17048 17249 17250 17049 
4 17049 17250 17251 17050 
4 17050 17251 17252 17051 
4 17051 17252 17253 17052 
4 17052 17253 17254 17053 
4 17053 17254 17255 17054 
4 17054 17255 17256 17055 
4 17055 17256 17257 17056 
4 17056 17257 17258 17057 
4 17057 17258 17259 17058 
4 17058 17259 17260 17059 
4 17059 17260 17261 17060 
4 17060 17261 17262 17061 
4 17061 17262 17263 17062 
4 17062 17263 17264 17063 
4 17063 17264 17265 17064 
4 17064 17265 17266 17065 
4 17065 17266 17267 17066 
4 17066 17267 17268 17067 
4 17067 17268 17269 17068 
4 17068 17269 17270 17069 
4 17069 17270 17271 17070 
4 17070 17271 17272 17071 
4 17071 17272 17273 17072 
4 17072 17273 17274 17073 
4 17073 17274 17275 17074 
4 17074 17275 17276 17075 
4 17075 17276 17277 17076 
4 17076 17277 17278 17077 
4 17077 17278 17279 17078 
4 17078 17279 17280 17079 
4 17079 17280 17281 17080 
4 17080 17281 17282 17081 
4 17081 17282 17283 17082 
4 17082 17283 17284 17083 
4 17083 17284 17285 17084 
4 17085 17286 17287 17086 
4 17086 17287 17288 17087 
4 17087 17288 17289 17088 
4 17088 17289 17290 17089 
4 17089 17290 17291 17090 
4 17090 17291 17292 17091 
4 17091 17292 17293 17092 
4 17092 17293 17294 17093 
4 17093 17294 17295 17094 
4 17094 17295 17296 17095 
4 17095 17296 17297 17096 
4 17096 17297 17298 17097 
4 17097 17298 17299 17098 
4 17098 17299 17300 17099 
4 17099 17300 17301 17100 
4 17100 17301 17302 17101 
4 17101 17302 17303 17102 
4 17102 17303 17304 17103 
4 17103 17304 17305 17104 
4 17104 17305 17306 17105 
4 17105 17306 17307 17106 
4 17106 17307 17308 17107 
4 17107 17308 17309 17108 
4 17108 17309 17310 17109 
4 17109 17310 17311 17110 
4 17110 17311 17312 17111 
4 17111 17312 17313 17112 
4 17112 17313 17314 17113 
4 17113 17314 17315 17114 
4 17114 17315 17316 17115 
4 17115 17316 17317 17116 
4 17116 17317 17318 17117 
4 17117 17318 17319 17118 
4 17118 17319 17320 17119 
4 17119 17320 17321 17120 
4 17120 17321 17322 17121 
4 17121 17322 17323 17122 
4 17122 17323 17324 17123 
4 17123 17324 17325 17124 
4 17124 17325 17326 17125 
4 17125 17326 17327 17126 
4 17126 17327 17328 17127 
4 17127 17328 17329 17128 
4 17128 17329 17330 17129 
4 17129 17330 17331 17130 
4 17130 17331 17332 17131 
4 17131 17332 17333 17132 
4 17132 17333 17334 17133 
4 17133 17334 17335 17134 
4 17134 17335 17336 17135 
4 17135 17336 17337 17136 
4 17136 17337 17338 17137 
4 17137 17338 17339 17138 
4 17138 17339 17340 17139 
4 17139 17340 17341 17140 
4 17140 17341 17342 17141 
4 17141 17342 17343 17142 
4 17142 17343 17344 17143 
4 17143 17344 17345 17144 
4 17144 17345 17346 17145 
4 17145 17346 17347 17146 
4 17146 17347 17348 17147 
4 17147 17348 17349 17148 
4 17148 17349 17350 17149 
4 17149 17350 17351 17150 
4 17150 17351 17352 17151 
4 17151 17352 17353 17152 
4 17152 17353 17354 17153 
4 17153 17354 17355 17154 
4 17154 17355 17356 17155 
4 17155 17356 17357 17156 
4 17156 17357 17358 17157 
4 17157 17358 17359 17158 
4 17158 17359 17360 17159 
4 17159 17360 17361 17160 
4 17160 17361 17362 17161 
4 17161 17362 17363 17162 
4 17162 17363 17364 17163 
4 17163 17364 17365 17164 
4 17164 17365 17366 17165 
4 17165 17366 17367 17166 
4 17166 17367 17368 17167 
4 17167 17368 17369 17168 
4 17168 17369 17370 17169 
4 17169 17370 17371 17170 
4 17170 17371 17372 17171 
4 17171 17372 17373 17172 
4 17172 17373 17374 17173 
4 17173 17374 17375 17174 
4 17174 17375 17376 17175 
4 17175 17376 17377 17176 
4 17176 17377 17378 17177 
4 17177 17378 17379 17178 
4 17178 17379 17380 17179 
4 17179 17380 17381 17180 
4 17180 17381 17382 17181 
4 17181 17382 17383 17182 
4 17182 17383 17384 17183 
4 17183 17384 17385 17184 
4 17184 17385 17386 17185 
4 17185 17386 17387 17186 
4 17186 17387 17388 17187 
4 17187 17388 17389 17188 
4 17188 17389 17390 17189 
4 17189 17390 17391 17190 
4 17190 17391 17392 17191 
4 17191 17392 17393 17192 
4 17192 17393 17394 17193 
4 17193 17394 17395 17194 
4 17194 17395 17396 17195 
4 17195 17396 17397 17196 
4 17196 17397 17398 17197 
4 17197 17398 17399 17198 
4 17198 17399 17400 17199 
4 17199 17400 17401 17200 
4 17200 17401 17402 17201 
4 17201 17402 17403 17202 
4 17202 17403 17404 17203 
4 17203 17404 17405 17204 
4 17204 17405 17406 17205 
4 17205 17406 17407 17206 
4 17206 17407 17408 17207 
4 17207 17408 17409 17208 
4 17208 17409 17410 17209 
4 17209 17410 17411 17210 
4 17210 17411 17412 17211 
4 17211 17412 17413 17212 
4 17212 17413 17414 17213 
4 17213 17414 17415 17214 
4 17214 17415 17416 17215 
4 17215 17416 17417 17216 
4 17216 17417 17418 17217 
4 17217 17418 17419 17218 
4 17218 17419 17420 17219 
4 17219 17420 17421 17220 
4 17220 17421 17422 17221 
4 17221 17422 17423 17222 
4 17222 17423 17424 17223 
4 17223 17424 17425 17224 
4 17224 17425 17426 17225 
4 17225 17426 17427 17226 
4 17226 17427 17428 17227 
4 17227 17428 17429 17228 
4 17228 17429 17430 17229 
4 17229 17430 17431 17230 
4 17230 17431 17432 17231 
4 17231 17432 17433 17232 
4 17232 17433 17434 17233 
4 17233 17434 17435 17234 
4 17234 17435 17436 17235 
4 17235 17436 17437 17236 
4 17236 17437 17438 17237 
4 17237 17438 17439 17238 
4 17238 17439 17440 17239 
4 17239 17440 17441 17240 
4 17240 17441 17442 17241 
4 17241 17442 17443 17242 
4 17242 17443 17444 17243 
4 17243 17444 17445 17244 
4 17244 17445 17446 17245 
4 17245 17446 17447 17246 
4 17246 17447 17448 17247 
4 17247 17448 17449 17248 
4 17248 17449 17450 17249 
4 17249 17450 17451 17250 
4 17250 17451 17452 17251 
4 17251 17452 17453 17252 
4 17252 17453 17454 17253 
4 17253 17454 17455 17254 
4 17254 17455 17456 17255 
4 17255 17456 17457 17256 
4 17256 17457 17458 17257 
4 17257 17458 17459 17258 
4 17258 17459 17460 17259 
4 17259 17460 17461 17260 
4 17260 17461 17462 17261 
4 17261 17462 17463 17262 
4 17262 17463 17464 17263 
4 17263 17464 17465 17264 
4 17264 17465 17466 17265 
4 17265 17466 17467 17266 
4 17266 17467 17468 17267 
4 17267 17468 17469 17268 
4 17268 17469 17470 17269 
4 17269 17470 17471 17270 
4 17270 17471 17472 17271 
4 17271 17472 17473 17272 
4 17272 17473 17474 17273 
4 17273 17474 17475 17274 
4 17274 17475 17476 17275 
4 17275 17476 17477 17276 
4 17276 17477 17478 17277 
4 17277 17478 17479 17278 
4 17278 17479 17480 17279 
4 17279 17480 17481 17280 
4 17280 17481 17482 17281 
4 17281 17482 17483 17282 
4 17282 17483 17484 17283 
4 17283 17484 17485 17284 
4 17284 17485 17486 17285 
4 17286 17487 17488 17287 
4 17287 17488 17489 17288 
4 17288 17489 17490 17289 
4 17289 17490 17491 17290 
4 17290 17491 17492 17291 
4 17291 17492 17493 17292 
4 17292 17493 17494 17293 
4 17293 17494 17495 17294 
4 17294 17495 17496 17295 
4 17295 17496 17497 17296 
4 17296 17497 17498 17297 
4 17297 17498 17499 17298 
4 17298 17499 17500 17299 
4 17299 17500 17501 17300 
4 17300 17501 17502 17301 
4 17301 17502 17503 17302 
4 17302 17503 17504 17303 
4 17303 17504 17505 17304 
4 17304 17505 17506 17305 
4 17305 17506 17507 17306 
4 17306 17507 17508 17307 
4 17307 17508 17509 17308 
4 17308 17509 17510 17309 
4 17309 17510 17511 17310 
4 17310 17511 17512 17311 
4 17311 17512 17513 17312 
4 17312 17513 17514 17313 
4 17313 17514 17515 17314 
4 17314 17515 17516 17315 
4 17315 17516 17517 17316 
4 17316 17517 17518 17317 
4 17317 17518 17519 17318 
4 17318 17519 17520 17319 
4 17319 17520 17521 17320 
4 17320 17521 17522 17321 
4 17321 17522 17523 17322 
4 17322 17523 17524 17323 
4 17323 17524 17525 17324 
4 17324 17525 17526 17325 
4 17325 17526 17527 17326 
4 17326 17527 17528 17327 
4 17327 17528 17529 17328 
4 17328 17529 17530 17329 
4 17329 17530 17531 17330 
4 17330 17531 17532 17331 
4 17331 17532 17533 17332 
4 17332 17533 17534 17333 
4 17333 17534 17535 17334 
4 17334 17535 17536 17335 
4 17335 17536 17537 17336 
4 17336 17537 17538 17337 
4 17337 17538 17539 17338 
4 17338 17539 17540 17339 
4 17339 17540 17541 17340 
4 17340 17541 17542 17341 
4 17341 17542 17543 17342 
4 17342 17543 17544 17343 
4 17343 17544 17545 17344 
4 17344 17545 17546 17345 
4 17345 17546 17547 17346 
4 17346 17547 17548 17347 
4 17347 17548 17549 17348 
4 17348 17549 17550 17349 
4 17349 17550 17551 17350 
4 17350 17551 17552 17351 
4 17351 17552 17553 17352 
4 17352 17553 17554 17353 
4 17353 17554 17555 17354 
4 17354 17555 17556 17355 
4 17355 17556 17557 17356 
4 17356 17557 17558 17357 
4 17357 17558 17559 17358 
4 17358 17559 17560 17359 
4 17359 17560 17561 17360 
4 17360 17561 17562 17361 
4 17361 17562 17563 17362 
4 17362 17563 17564 17363 
4 17363 17564 17565 17364 
4 17364 17565 17566 17365 
4 17365 17566 17567 17366 
4 17366 17567 17568 17367 
4 17367 17568 17569 17368 
4 17368 17569 17570 17369 
4 17369 17570 17571 17370 
4 17370 17571 17572 17371 
4 17371 17572 17573 17372 
4 17372 17573 17574 17373 
4 17373 17574 17575 17374 
4 17374 17575 17576 17375 
4 17375 17576 17577 17376 
4 17376 17577 17578 17377 
4 17377 17578 17579 17378 
4 17378 17579 17580 17379 
4 17379 17580 17581 17380 
4 17380 17581 17582 17381 
4 17381 17582 17583 17382 
4 17382 17583 17584 17383 
4 17383 17584 17585 17384 
4 17384 17585 17586 17385 
4 17385 17586 17587 17386 
4 17386 17587 17588 17387 
4 17387 17588 17589 17388 
4 17388 17589 17590 17389 
4 17389 17590 17591 17390 
4 17390 17591 17592 17391 
4 17391 17592 17593 17392 
4 17392 17593 17594 17393 
4 17393 17594 17595 17394 
4 17394 17595 17596 17395 
4 17395 17596 17597 17396 
4 17396 17597 17598 17397 
4 17397 17598 17599 17398 
4 17398 17599 17600 17399 
4 17399 17600 17601 17400 
4 17400 17601 17602 17401 
4 17401 17602 17603 17402 
4 17402 17603 17604 17403 
4 17403 17604 17605 17404 
4 17404 17605 17606 17405 
4 17405 17606 17607 17406 
4 17406 17607 17608 17407 
4 17407 17608 17609 17408 
4 17408 17609 17610 17409 
4 17409 17610 17611 17410 
4 17410 17611 17612 17411 
4 17411 17612 17613 17412 
4 17412 17613 17614 17413 
4 17413 17614 17615 17414 
4 17414 17615 17616 17415 
4 17415 17616 17617 17416 
4 17416 17617 17618 17417 
4 17417 17618 17619 17418 
4 17418 17619 17620 17419 
4 17419 17620 17621 17420 
4 17420 17621 17622 17421 
4 17421 17622 17623 17422 
4 17422 17623 17624 17423 
4 17423 17624 17625 17424 
4 17424 17625 17626 17425 
4 17425 17626 17627 17426 
4 17426 17627 17628 17427 
4 17427 17628 17629 17428 
4 17428 17629 17630 17429 
4 17429 17630 17631 17430 
4 17430 17631 17632 17431 
4 17431 17632 17633 17432 
4 17432 17633 17634 17433 
4 17433 17634 17635 17434 
4 17434 17635 17636 17435 
4 17435 17636 17637 17436 
4 17436 17637 17638 17437 
4 17437 17638 17639 17438 
4 17438 17639 17640 17439 
4 17439 17640 17641 17440 
4 17440 17641 17642 17441 
4 17441 17642 17643 17442 
4 17442 17643 17644 17443 
4 17443 17644 17645 17444 
4 17444 17645 17646 17445 
4 17445 17646 17647 17446 
4 17446 17647 17648 17447 
4 17447 17648 17649 17448 
4 17448 17649 17650 17449 
4 17449 17650 17651 17450 
4 17450 17651 17652 17451 
4 17451 17652 17653 17452 
4 17452 17653 17654 17453 
4 17453 17654 17655 17454 
4 17454 17655 17656 17455 
4 17455 17656 17657 17456 
4 17456 17657 17658 17457 
4 17457 17658 17659 17458 
4 17458 17659 17660 17459 
4 17459 17660 17661 17460 
4 17460 17661 17662 17461 
4 17461 17662 17663 17462 
4 17462 17663 17664 17463 
4 17463 17664 17665 17464 
4 17464 17665 17666 17465 
4 17465 17666 17667 17466 
4 17466 17667 17668 17467 
4 17467 17668 17669 17468 
4 17468 17669 17670 17469 
4 17469 17670 17671 17470 
4 17470 17671 17672 17471 
4 17471 17672 17673 17472 
4 17472 17673 17674 17473 
4 17473 17674 17675 17474 
4 17474 17675 17676 17475 
4 17475 17676 17677 17476 
4 17476 17677 17678 17477 
4 17477 17678 17679 17478 
4 17478 17679 17680 17479 
4 17479 17680 17681 17480 
4 17480 17681 17682 17481 
4 17481 17682 17683 17482 
4 17482 17683 17684 17483 
4 17483 17684 17685 17484 
4 17484 17685 17686 17485 
4 17485 17686 17687 17486 
4 17487 17688 17689 17488 
4 17488 17689 17690 17489 
4 17489 17690 17691 17490 
4 17490 17691 17692 17491 
4 17491 17692 17693 17492 
4 17492 17693 17694 17493 
4 17493 17694 17695 17494 
4 17494 17695 17696 17495 
4 17495 17696 17697 17496 
4 17496 17697 17698 17497 
4 17497 17698 17699 17498 
4 17498 17699 17700 17499 
4 17499 17700 17701 17500 
4 17500 17701 17702 17501 
4 17501 17702 17703 17502 
4 17502 17703 17704 17503 
4 17503 17704 17705 17504 
4 17504 17705 17706 17505 
4 17505 17706 17707 17506 
4 17506 17707 17708 17507 
4 17507 17708 17709 17508 
4 17508 17709 17710 17509 
4 17509 17710 17711 17510 
4 17510 17711 17712 17511 
4 17511 17712 17713 17512 
4 17512 17713 17714 17513 
4 17513 17714 17715 17514 
4 17514 17715 17716 17515 
4 17515 17716 17717 17516 
4 17516 17717 17718 17517 
4 17517 17718 17719 17518 
4 17518 17719 17720 17519 
4 17519 17720 17721 17520 
4 17520 17721 17722 17521 
4 17521 17722 17723 17522 
4 17522 17723 17724 17523 
4 17523 17724 17725 17524 
4 17524 17725 17726 17525 
4 17525 17726 17727 17526 
4 17526 17727 17728 17527 
4 17527 17728 17729 17528 
4 17528 17729 17730 17529 
4 17529 17730 17731 17530 
4 17530 17731 17732 17531 
4 17531 17732 17733 17532 
4 17532 17733 17734 17533 
4 17533 17734 17735 17534 
4 17534 17735 17736 17535 
4 17535 17736 17737 17536 
4 17536 17737 17738 17537 
4 17537 17738 17739 17538 
4 17538 17739 17740 17539 
4 17539 17740 17741 17540 
4 17540 17741 17742 17541 
4 17541 17742 17743 17542 
4 17542 17743 17744 17543 
4 17543 17744 17745 17544 
4 17544 17745 17746 17545 
4 17545 17746 17747 17546 
4 17546 17747 17748 17547 
4 17547 17748 17749 17548 
4 17548 17749 17750 17549 
4 17549 17750 17751 17550 
4 17550 17751 17752 17551 
4 17551 17752 17753 17552 
4 17552 17753 17754 17553 
4 17553 17754 17755 17554 
4 17554 17755 17756 17555 
4 17555 17756 17757 17556 
4 17556 17757 17758 17557 
4 17557 17758 17759 17558 
4 17558 17759 17760 17559 
4 17559 17760 17761 17560 
4 17560 17761 17762 17561 
4 17561 17762 17763 17562 
4 17562 17763 17764 17563 
4 17563 17764 17765 17564 
4 17564 17765 17766 17565 
4 17565 17766 17767 17566 
4 17566 17767 17768 17567 
4 17567 17768 17769 17568 
4 17568 17769 17770 17569 
4 17569 17770 17771 17570 
4 17570 17771 17772 17571 
4 17571 17772 17773 17572 
4 17572 17773 17774 17573 
4 17573 17774 17775 17574 
4 17574 17775 17776 17575 
4 17575 17776 17777 17576 
4 17576 17777 17778 17577 
4 17577 17778 17779 17578 
4 17578 17779 17780 17579 
4 17579 17780 17781 17580 
4 17580 17781 17782 17581 
4 17581 17782 17783 17582 
4 17582 17783 17784 17583 
4 17583 17784 17785 17584 
4 17584 17785 17786 17585 
4 17585 17786 17787 17586 
4 17586 17787 17788 17587 
4 17587 17788 17789 17588 
4 17588 17789 17790 17589 
4 17589 17790 17791 17590 
4 17590 17791 17792 17591 
4 17591 17792 17793 17592 
4 17592 17793 17794 17593 
4 17593 17794 17795 17594 
4 17594 17795 17796 17595 
4 17595 17796 17797 17596 
4 17596 17797 17798 17597 
4 17597 17798 17799 17598 
4 17598 17799 17800 17599 
4 17599 17800 17801 17600 
4 17600 17801 17802 17601 
4 17601 17802 17803 17602 
4 17602 17803 17804 17603 
4 17603 17804 17805 17604 
4 17604 17805 17806 17605 
4 17605 17806 17807 17606 
4 17606 17807 17808 17607 
4 17607 17808 17809 17608 
4 17608 17809 17810 17609 
4 17609 17810 17811 17610 
4 17610 17811 17812 17611 
4 17611 17812 17813 17612 
4 17612 17813 17814 17613 
4 17613 17814 17815 17614 
4 17614 17815 17816 17615 
4 17615 17816 17817 17616 
4 17616 17817 17818 17617 
4 17617 17818 17819 17618 
4 17618 17819 17820 17619 
4 17619 17820 17821 17620 
4 17620 17821 17822 17621 
4 17621 17822 17823 17622 
4 17622 17823 17824 17623 
4 17623 17824 17825 17624 
4 17624 17825 17826 17625 
4 17625 17826 17827 17626 
4 17626 17827 17828 17627 
4 17627 17828 17829 17628 
4 17628 17829 17830 17629 
4 17629 17830 17831 17630 
4 17630 17831 17832 17631 
4 17631 17832 17833 17632 
4 17632 17833 17834 17633 
4 17633 17834 17835 17634 
4 17634 17835 17836 17635 
4 17635 17836 17837 17636 
4 17636 17837 17838 17637 
4 17637 17838 17839 17638 
4 17638 17839 17840 17639 
4 17639 17840 17841 17640 
4 17640 17841 17842 17641 
4 17641 17842 17843 17642 
4 17642 17843 17844 17643 
4 17643 17844 17845 17644 
4 17644 17845 17846 17645 
4 17645 17846 17847 17646 
4 17646 17847 17848 17647 
4 17647 17848 17849 17648 
4 17648 17849 17850 17649 
4 17649 17850 17851 17650 
4 17650 17851 17852 17651 
4 17651 17852 17853 17652 
4 17652 17853 17854 17653 
4 17653 17854 17855 17654 
4 17654 17855 17856 17655 
4 17655 17856 17857 17656 
4 17656 17857 17858 17657 
4 17657 17858 17859 17658 
4 17658 17859 17860 17659 
4 17659 17860 17861 17660 
4 17660 17861 17862 17661 
4 17661 17862 17863 17662 
4 17662 17863 17864 17663 
4 17663 17864 17865 17664 
4 17664 17865 17866 17665 
4 17665 17866 17867 17666 
4 17666 17867 17868 17667 
4 17667 17868 17869 17668 
4 17668 17869 17870 17669 
4 17669 17870 17871 17670 
4 17670 17871 17872 17671 
4 17671 17872 17873 17672 
4 17672 17873 17874 17673 
4 17673 17874 17875 17674 
4 17674 17875 17876 17675 
4 17675 17876 17877 17676 
4 17676 17877 17878 17677 
4 17677 17878 17879 17678 
4 17678 17879 17880 17679 
4 17679 17880 17881 17680 
4 17680 17881 17882 17681 
4 17681 17882 17883 17682 
4 17682 17883 17884 17683 
4 17683 17884 17885 17684 
4 17684 17885 17886 17685 
4 17685 17886 17887 17686 
4 17686 17887 17888 17687 
4 17688 17889 17890 17689 
4 17689 17890 17891 17690 
4 17690 17891 17892 17691 
4 17691 17892 17893 17692 
4 17692 17893 17894 17693 
4 17693 17894 17895 17694 
4 17694 17895 17896 17695 
4 17695 17896 17897 17696 
4 17696 17897 17898 17697 
4 17697 17898 17899 17698 
4 17698 17899 17900 17699 
4 17699 17900 17901 17700 
4 17700 17901 17902 17701 
4 17701 17902 17903 17702 
4 17702 17903 17904 17703 
4 17703 17904 17905 17704 
4 17704 17905 17906 17705 
4 17705 17906 17907 17706 
4 17706 17907 17908 17707 
4 17707 17908 17909 17708 
4 17708 17909 17910 17709 
4 17709 17910 17911 17710 
4 17710 17911 17912 17711 
4 17711 17912 17913 17712 
4 17712 17913 17914 17713 
4 17713 17914 17915 17714 
4 17714 17915 17916 17715 
4 17715 17916 17917 17716 
4 17716 17917 17918 17717 
4 17717 17918 17919 17718 
4 17718 17919 17920 17719 
4 17719 17920 17921 17720 
4 17720 17921 17922 17721 
4 17721 17922 17923 17722 
4 17722 17923 17924 17723 
4 17723 17924 17925 17724 
4 17724 17925 17926 17725 
4 17725 17926 17927 17726 
4 17726 17927 17928 17727 
4 17727 17928 17929 17728 
4 17728 17929 17930 17729 
4 17729 17930 17931 17730 
4 17730 17931 17932 17731 
4 17731 17932 17933 17732 
4 17732 17933 17934 17733 
4 17733 17934 17935 17734 
4 17734 17935 17936 17735 
4 17735 17936 17937 17736 
4 17736 17937 17938 17737 
4 17737 17938 17939 17738 
4 17738 17939 17940 17739 
4 17739 17940 17941 17740 
4 17740 17941 17942 17741 
4 17741 17942 17943 17742 
4 17742 17943 17944 17743 
4 17743 17944 17945 17744 
4 17744 17945 17946 17745 
4 17745 17946 17947 17746 
4 17746 17947 17948 17747 
4 17747 17948 17949 17748 
4 17748 17949 17950 17749 
4 17749 17950 17951 17750 
4 17750 17951 17952 17751 
4 17751 17952 17953 17752 
4 17752 17953 17954 17753 
4 17753 17954 17955 17754 
4 17754 17955 17956 17755 
4 17755 17956 17957 17756 
4 17756 17957 17958 17757 
4 17757 17958 17959 17758 
4 17758 17959 17960 17759 
4 17759 17960 17961 17760 
4 17760 17961 17962 17761 
4 17761 17962 17963 17762 
4 17762 17963 17964 17763 
4 17763 17964 17965 17764 
4 17764 17965 17966 17765 
4 17765 17966 17967 17766 
4 17766 17967 17968 17767 
4 17767 17968 17969 17768 
4 17768 17969 17970 17769 
4 17769 17970 17971 17770 
4 17770 17971 17972 17771 
4 17771 17972 17973 17772 
4 17772 17973 17974 17773 
4 17773 17974 17975 17774 
4 17774 17975 17976 17775 
4 17775 17976 17977 17776 
4 17776 17977 17978 17777 
4 17777 17978 17979 17778 
4 17778 17979 17980 17779 
4 17779 17980 17981 17780 
4 17780 17981 17982 17781 
4 17781 17982 17983 17782 
4 17782 17983 17984 17783 
4 17783 17984 17985 17784 
4 17784 17985 17986 17785 
4 17785 17986 17987 17786 
4 17786 17987 17988 17787 
4 17787 17988 17989 17788 
4 17788 17989 17990 17789 
4 17789 17990 17991 17790 
4 17790 17991 17992 17791 
4 17791 17992 17993 17792 
4 17792 17993 17994 17793 
4 17793 17994 17995 17794 
4 17794 17995 17996 17795 
4 17795 17996 17997 17796 
4 17796 17997 17998 17797 
4 17797 17998 17999 17798 
4 17798 17999 18000 17799 
4 17799 18000 18001 17800 
4 17800 18001 18002 17801 
4 17801 18002 18003 17802 
4 17802 18003 18004 17803 
4 17803 18004 18005 17804 
4 17804 18005 18006 17805 
4 17805 18006 18007 17806 
4 17806 18007 18008 17807 
4 17807 18008 18009 17808 
4 17808 18009 18010 17809 
4 17809 18010 18011 17810 
4 17810 18011 18012 17811 
4 17811 18012 18013 17812 
4 17812 18013 18014 17813 
4 17813 18014 18015 17814 
4 17814 18015 18016 17815 
4 17815 18016 18017 17816 
4 17816 18017 18018 17817 
4 17817 18018 18019 17818 
4 17818 18019 18020 17819 
4 17819 18020 18021 17820 
4 17820 18021 18022 17821 
4 17821 18022 18023 17822 
4 17822 18023 18024 17823 
4 17823 18024 18025 17824 
4 17824 18025 18026 17825 
4 17825 18026 18027 17826 
4 17826 18027 18028 17827 
4 17827 18028 18029 17828 
4 17828 18029 18030 17829 
4 17829 18030 18031 17830 
4 17830 18031 18032 17831 
4 17831 18032 18033 17832 
4 17832 18033 18034 17833 
4 17833 18034 18035 17834 
4 17834 18035 18036 17835 
4 17835 18036 18037 17836 
4 17836 18037 18038 17837 
4 17837 18038 18039 17838 
4 17838 18039 18040 17839 
4 17839 18040 18041 17840 
4 17840 18041 18042 17841 
4 17841 18042 18043 17842 
4 17842 18043 18044 17843 
4 17843 18044 18045 17844 
4 17844 18045 18046 17845 
4 17845 18046 18047 17846 
4 17846 18047 18048 17847 
4 17847 18048 18049 17848 
4 17848 18049 18050 17849 
4 17849 18050 18051 17850 
4 17850 18051 18052 17851 
4 17851 18052 18053 17852 
4 17852 18053 18054 17853 
4 17853 18054 18055 17854 
4 17854 18055 18056 17855 
4 17855 18056 18057 17856 
4 17856 18057 18058 17857 
4 17857 18058 18059 17858 
4 17858 18059 18060 17859 
4 17859 18060 18061 17860 
4 17860 18061 18062 17861 
4 17861 18062 18063 17862 
4 17862 18063 18064 17863 
4 17863 18064 18065 17864 
4 17864 18065 18066 17865 
4 17865 18066 18067 17866 
4 17866 18067 18068 17867 
4 17867 18068 18069 17868 
4 17868 18069 18070 17869 
4 17869 18070 18071 17870 
4 17870 18071 18072 17871 
4 17871 18072 18073 17872 
4 17872 18073 18074 17873 
4 17873 18074 18075 17874 
4 17874 18075 18076 17875 
4 17875 18076 18077 17876 
4 17876 18077 18078 17877 
4 17877 18078 18079 17878 
4 17878 18079 18080 17879 
4 17879 18080 18081 17880 
4 17880 18081 18082 17881 
4 17881 18082 18083 17882 
4 17882 18083 18084 17883 
4 17883 18084 18085 17884 
4 17884 18085 18086 17885 
4 17885 18086 18087 17886 
4 17886 18087 18088 17887 
4 17887 18088 18089 17888 
4 17889 18090 18091 17890 
4 17890 18091 18092 17891 
4 17891 18092 18093 17892 
4 17892 18093 18094 17893 
4 17893 18094 18095 17894 
4 17894 18095 18096 17895 
4 17895 18096 18097 17896 
4 17896 18097 18098 17897 
4 17897 18098 18099 17898 
4 17898 18099 18100 17899 
4 17899 18100 18101 17900 
4 17900 18101 18102 17901 
4 17901 18102 18103 17902 
4 17902 18103 18104 17903 
4 17903 18104 18105 17904 
4 17904 18105 18106 17905 
4 17905 18106 18107 17906 
4 17906 18107 18108 17907 
4 17907 18108 18109 17908 
4 17908 18109 18110 17909 
4 17909 18110 18111 17910 
4 17910 18111 18112 17911 
4 17911 18112 18113 17912 
4 17912 18113 18114 17913 
4 17913 18114 18115 17914 
4 17914 18115 18116 17915 
4 17915 18116 18117 17916 
4 17916 18117 18118 17917 
4 17917 18118 18119 17918 
4 17918 18119 18120 17919 
4 17919 18120 18121 17920 
4 17920 18121 18122 17921 
4 17921 18122 18123 17922 
4 17922 18123 18124 17923 
4 17923 18124 18125 17924 
4 17924 18125 18126 17925 
4 17925 18126 18127 17926 
4 17926 18127 18128 17927 
4 17927 18128 18129 17928 
4 17928 18129 18130 17929 
4 17929 18130 18131 17930 
4 17930 18131 18132 17931 
4 17931 18132 18133 17932 
4 17932 18133 18134 17933 
4 17933 18134 18135 17934 
4 17934 18135 18136 17935 
4 17935 18136 18137 17936 
4 17936 18137 18138 17937 
4 17937 18138 18139 17938 
4 17938 18139 18140 17939 
4 17939 18140 18141 17940 
4 17940 18141 18142 17941 
4 17941 18142 18143 17942 
4 17942 18143 18144 17943 
4 17943 18144 18145 17944 
4 17944 18145 18146 17945 
4 17945 18146 18147 17946 
4 17946 18147 18148 17947 
4 17947 18148 18149 17948 
4 17948 18149 18150 17949 
4 17949 18150 18151 17950 
4 17950 18151 18152 17951 
4 17951 18152 18153 17952 
4 17952 18153 18154 17953 
4 17953 18154 18155 17954 
4 17954 18155 18156 17955 
4 17955 18156 18157 17956 
4 17956 18157 18158 17957 
4 17957 18158 18159 17958 
4 17958 18159 18160 17959 
4 17959 18160 18161 17960 
4 17960 18161 18162 17961 
4 17961 18162 18163 17962 
4 17962 18163 18164 17963 
4 17963 18164 18165 17964 
4 17964 18165 18166 17965 
4 17965 18166 18167 17966 
4 17966 18167 18168 17967 
4 17967 18168 18169 17968 
4 17968 18169 18170 17969 
4 17969 18170 18171 17970 
4 17970 18171 18172 17971 
4 17971 18172 18173 17972 
4 17972 18173 18174 17973 
4 17973 18174 18175 17974 
4 17974 18175 18176 17975 
4 17975 18176 18177 17976 
4 17976 18177 18178 17977 
4 17977 18178 18179 17978 
4 17978 18179 18180 17979 
4 17979 18180 18181 17980 
4 17980 18181 18182 17981 
4 17981 18182 18183 17982 
4 17982 18183 18184 17983 
4 17983 18184 18185 17984 
4 17984 18185 18186 17985 
4 17985 18186 18187 17986 
4 17986 18187 18188 17987 
4 17987 18188 18189 17988 
4 17988 18189 18190 17989 
4 17989 18190 18191 17990 
4 17990 18191 18192 17991 
4 17991 18192 18193 17992 
4 17992 18193 18194 17993 
4 17993 18194 18195 17994 
4 17994 18195 18196 17995 
4 17995 18196 18197 17996 
4 17996 18197 18198 17997 
4 17997 18198 18199 17998 
4 17998 18199 18200 17999 
4 17999 18200 18201 18000 
4 18000 18201 18202 18001 
4 18001 18202 18203 18002 
4 18002 18203 18204 18003 
4 18003 18204 18205 18004 
4 18004 18205 18206 18005 
4 18005 18206 18207 18006 
4 18006 18207 18208 18007 
4 18007 18208 18209 18008 
4 18008 18209 18210 18009 
4 18009 18210 18211 18010 
4 18010 18211 18212 18011 
4 18011 18212 18213 18012 
4 18012 18213 18214 18013 
4 18013 18214 18215 18014 
4 18014 18215 18216 18015 
4 18015 18216 18217 18016 
4 18016 18217 18218 18017 
4 18017 18218 18219 18018 
4 18018 18219 18220 18019 
4 18019 18220 18221 18020 
4 18020 18221 18222 18021 
4 18021 18222 18223 18022 
4 18022 18223 18224 18023 
4 18023 18224 18225 18024 
4 18024 18225 18226 18025 
4 18025 18226 18227 18026 
4 18026 18227 18228 18027 
4 18027 18228 18229 18028 
4 18028 18229 18230 18029 
4 18029 18230 18231 18030 
4 18030 18231 18232 18031 
4 18031 18232 18233 18032 
4 18032 18233 18234 18033 
4 18033 18234 18235 18034 
4 18034 18235 18236 18035 
4 18035 18236 18237 18036 
4 18036 18237 18238 18037 
4 18037 18238 18239 18038 
4 18038 18239 18240 18039 
4 18039 18240 18241 18040 
4 18040 18241 18242 18041 
4 18041 18242 18243 18042 
4 18042 18243 18244 18043 
4 18043 18244 18245 18044 
4 18044 18245 18246 18045 
4 18045 18246 18247 18046 
4 18046 18247 18248 18047 
4 18047 18248 18249 18048 
4 18048 18249 18250 18049 
4 18049 18250 18251 18050 
4 18050 18251 18252 18051 
4 18051 18252 18253 18052 
4 18052 18253 18254 18053 
4 18053 18254 18255 18054 
4 18054 18255 18256 18055 
4 18055 18256 18257 18056 
4 18056 18257 18258 18057 
4 18057 18258 18259 18058 
4 18058 18259 18260 18059 
4 18059 18260 18261 18060 
4 18060 18261 18262 18061 
4 18061 18262 18263 18062 
4 18062 18263 18264 18063 
4 18063 18264 18265 18064 
4 18064 18265 18266 18065 
4 18065 18266 18267 18066 
4 18066 18267 18268 18067 
4 18067 18268 18269 18068 
4 18068 18269 18270 18069 
4 18069 18270 18271 18070 
4 18070 18271 18272 18071 
4 18071 18272 18273 18072 
4 18072 18273 18274 18073 
4 18073 18274 18275 18074 
4 18074 18275 18276 18075 
4 18075 18276 18277 18076 
4 18076 18277 18278 18077 
4 18077 18278 18279 18078 
4 18078 18279 18280 18079 
4 18079 18280 18281 18080 
4 18080 18281 18282 18081 
4 18081 18282 18283 18082 
4 18082 18283 18284 18083 
4 18083 18284 18285 18084 
4 18084 18285 18286 18085 
4 18085 18286 18287 18086 
4 18086 18287 18288 18087 
4 18087 18288 18289 18088 
4 18088 18289 18290 18089 
4 18090 18291 18292 18091 
4 18091 18292 18293 18092 
4 18092 18293 18294 18093 
4 18093 18294 18295 18094 
4 18094 18295 18296 18095 
4 18095 18296 18297 18096 
4 18096 18297 18298 18097 
4 18097 18298 18299 18098 
4 18098 18299 18300 18099 
4 18099 18300 18301 18100 
4 18100 18301 18302 18101 
4 18101 18302 18303 18102 
4 18102 18303 18304 18103 
4 18103 18304 18305 18104 
4 18104 18305 18306 18105 
4 18105 18306 18307 18106 
4 18106 18307 18308 18107 
4 18107 18308 18309 18108 
4 18108 18309 18310 18109 
4 18109 18310 18311 18110 
4 18110 18311 18312 18111 
4 18111 18312 18313 18112 
4 18112 18313 18314 18113 
4 18113 18314 18315 18114 
4 18114 18315 18316 18115 
4 18115 18316 18317 18116 
4 18116 18317 18318 18117 
4 18117 18318 18319 18118 
4 18118 18319 18320 18119 
4 18119 18320 18321 18120 
4 18120 18321 18322 18121 
4 18121 18322 18323 18122 
4 18122 18323 18324 18123 
4 18123 18324 18325 18124 
4 18124 18325 18326 18125 
4 18125 18326 18327 18126 
4 18126 18327 18328 18127 
4 18127 18328 18329 18128 
4 18128 18329 18330 18129 
4 18129 18330 18331 18130 
4 18130 18331 18332 18131 
4 18131 18332 18333 18132 
4 18132 18333 18334 18133 
4 18133 18334 18335 18134 
4 18134 18335 18336 18135 
4 18135 18336 18337 18136 
4 18136 18337 18338 18137 
4 18137 18338 18339 18138 
4 18138 18339 18340 18139 
4 18139 18340 18341 18140 
4 18140 18341 18342 18141 
4 18141 18342 18343 18142 
4 18142 18343 18344 18143 
4 18143 18344 18345 18144 
4 18144 18345 18346 18145 
4 18145 18346 18347 18146 
4 18146 18347 18348 18147 
4 18147 18348 18349 18148 
4 18148 18349 18350 18149 
4 18149 18350 18351 18150 
4 18150 18351 18352 18151 
4 18151 18352 18353 18152 
4 18152 18353 18354 18153 
4 18153 18354 18355 18154 
4 18154 18355 18356 18155 
4 18155 18356 18357 18156 
4 18156 18357 18358 18157 
4 18157 18358 18359 18158 
4 18158 18359 18360 18159 
4 18159 18360 18361 18160 
4 18160 18361 18362 18161 
4 18161 18362 18363 18162 
4 18162 18363 18364 18163 
4 18163 18364 18365 18164 
4 18164 18365 18366 18165 
4 18165 18366 18367 18166 
4 18166 18367 18368 18167 
4 18167 18368 18369 18168 
4 18168 18369 18370 18169 
4 18169 18370 18371 18170 
4 18170 18371 18372 18171 
4 18171 18372 18373 18172 
4 18172 18373 18374 18173 
4 18173 18374 18375 18174 
4 18174 18375 18376 18175 
4 18175 18376 18377 18176 
4 18176 18377 18378 18177 
4 18177 18378 18379 18178 
4 18178 18379 18380 18179 
4 18179 18380 18381 18180 
4 18180 18381 18382 18181 
4 18181 18382 18383 18182 
4 18182 18383 18384 18183 
4 18183 18384 18385 18184 
4 18184 18385 18386 18185 
4 18185 18386 18387 18186 
4 18186 18387 18388 18187 
4 18187 18388 18389 18188 
4 18188 18389 18390 18189 
4 18189 18390 18391 18190 
4 18190 18391 18392 18191 
4 18191 18392 18393 18192 
4 18192 18393 18394 18193 
4 18193 18394 18395 18194 
4 18194 18395 18396 18195 
4 18195 18396 18397 18196 
4 18196 18397 18398 18197 
4 18197 18398 18399 18198 
4 18198 18399 18400 18199 
4 18199 18400 18401 18200 
4 18200 18401 18402 18201 
4 18201 18402 18403 18202 
4 18202 18403 18404 18203 
4 18203 18404 18405 18204 
4 18204 18405 18406 18205 
4 18205 18406 18407 18206 
4 18206 18407 18408 18207 
4 18207 18408 18409 18208 
4 18208 18409 18410 18209 
4 18209 18410 18411 18210 
4 18210 18411 18412 18211 
4 18211 18412 18413 18212 
4 18212 18413 18414 18213 
4 18213 18414 18415 18214 
4 18214 18415 18416 18215 
4 18215 18416 18417 18216 
4 18216 18417 18418 18217 
4 18217 18418 18419 18218 
4 18218 18419 18420 18219 
4 18219 18420 18421 18220 
4 18220 18421 18422 18221 
4 18221 18422 18423 18222 
4 18222 18423 18424 18223 
4 18223 18424 18425 18224 
4 18224 18425 18426 18225 
4 18225 18426 18427 18226 
4 18226 18427 18428 18227 
4 18227 18428 18429 18228 
4 18228 18429 18430 18229 
4 18229 18430 18431 18230 
4 18230 18431 18432 18231 
4 18231 18432 18433 18232 
4 18232 18433 18434 18233 
4 18233 18434 18435 18234 
4 18234 18435 18436 18235 
4 18235 18436 18437 18236 
4 18236 18437 18438 18237 
4 18237 18438 18439 18238 
4 18238 18439 18440 18239 
4 18239 18440 18441 18240 
4 18240 18441 18442 18241 
4 18241 18442 18443 18242 
4 18242 18443 18444 18243 
4 18243 18444 18445 18244 
4 18244 18445 18446 18245 
4 18245 18446 18447 18246 
4 18246 18447 18448 18247 
4 18247 18448 18449 18248 
4 18248 18449 18450 18249 
4 18249 18450 18451 18250 
4 18250 18451 18452 18251 
4 18251 18452 18453 18252 
4 18252 18453 18454 18253 
4 18253 18454 18455 18254 
4 18254 18455 18456 18255 
4 18255 18456 18457 18256 
4 18256 18457 18458 18257 
4 18257 18458 18459 18258 
4 18258 18459 18460 18259 
4 18259 18460 18461 18260 
4 18260 18461 18462 18261 
4 18261 18462 18463 18262 
4 18262 18463 18464 18263 
4 18263 18464 18465 18264 
4 18264 18465 18466 18265 
4 18265 18466 18467 18266 
4 18266 18467 18468 18267 
4 18267 18468 18469 18268 
4 18268 18469 18470 18269 
4 18269 18470 18471 18270 
4 18270 18471 18472 18271 
4 18271 18472 18473 18272 
4 18272 18473 18474 18273 
4 18273 18474 18475 18274 
4 18274 18475 18476 18275 
4 18275 18476 18477 18276 
4 18276 18477 18478 18277 
4 18277 18478 18479 18278 
4 18278 18479 18480 18279 
4 18279 18480 18481 18280 
4 18280 18481 18482 18281 
4 18281 18482 18483 18282 
4 18282 18483 18484 18283 
4 18283 18484 18485 18284 
4 18284 18485 18486 18285 
4 18285 18486 18487 18286 
4 18286 18487 18488 18287 
4 18287 18488 18489 18288 
4 18288 18489 18490 18289 
4 18289 18490 18491 18290 
4 18291 18492 18493 18292 
4 18292 18493 18494 18293 
4 18293 18494 18495 18294 
4 18294 18495 18496 18295 
4 18295 18496 18497 18296 
4 18296 18497 18498 18297 
4 18297 18498 18499 18298 
4 18298 18499 18500 18299 
4 18299 18500 18501 18300 
4 18300 18501 18502 18301 
4 18301 18502 18503 18302 
4 18302 18503 18504 18303 
4 18303 18504 18505 18304 
4 18304 18505 18506 18305 
4 18305 18506 18507 18306 
4 18306 18507 18508 18307 
4 18307 18508 18509 18308 
4 18308 18509 18510 18309 
4 18309 18510 18511 18310 
4 18310 18511 18512 18311 
4 18311 18512 18513 18312 
4 18312 18513 18514 18313 
4 18313 18514 18515 18314 
4 18314 18515 18516 18315 
4 18315 18516 18517 18316 
4 18316 18517 18518 18317 
4 18317 18518 18519 18318 
4 18318 18519 18520 18319 
4 18319 18520 18521 18320 
4 18320 18521 18522 18321 
4 18321 18522 18523 18322 
4 18322 18523 18524 18323 
4 18323 18524 18525 18324 
4 18324 18525 18526 18325 
4 18325 18526 18527 18326 
4 18326 18527 18528 18327 
4 18327 18528 18529 18328 
4 18328 18529 18530 18329 
4 18329 18530 18531 18330 
4 18330 18531 18532 18331 
4 18331 18532 18533 18332 
4 18332 18533 18534 18333 
4 18333 18534 18535 18334 
4 18334 18535 18536 18335 
4 18335 18536 18537 18336 
4 18336 18537 18538 18337 
4 18337 18538 18539 18338 
4 18338 18539 18540 18339 
4 18339 18540 18541 18340 
4 18340 18541 18542 18341 
4 18341 18542 18543 18342 
4 18342 18543 18544 18343 
4 18343 18544 18545 18344 
4 18344 18545 18546 18345 
4 18345 18546 18547 18346 
4 18346 18547 18548 18347 
4 18347 18548 18549 18348 
4 18348 18549 18550 18349 
4 18349 18550 18551 18350 
4 18350 18551 18552 18351 
4 18351 18552 18553 18352 
4 18352 18553 18554 18353 
4 18353 18554 18555 18354 
4 18354 18555 18556 18355 
4 18355 18556 18557 18356 
4 18356 18557 18558 18357 
4 18357 18558 18559 18358 
4 18358 18559 18560 18359 
4 18359 18560 18561 18360 
4 18360 18561 18562 18361 
4 18361 18562 18563 18362 
4 18362 18563 18564 18363 
4 18363 18564 18565 18364 
4 18364 18565 18566 18365 
4 18365 18566 18567 18366 
4 18366 18567 18568 18367 
4 18367 18568 18569 18368 
4 18368 18569 18570 18369 
4 18369 18570 18571 18370 
4 18370 18571 18572 18371 
4 18371 18572 18573 18372 
4 18372 18573 18574 18373 
4 18373 18574 18575 18374 
4 18374 18575 18576 18375 
4 18375 18576 18577 18376 
4 18376 18577 18578 18377 
4 18377 18578 18579 18378 
4 18378 18579 18580 18379 
4 18379 18580 18581 18380 
4 18380 18581 18582 18381 
4 18381 18582 18583 18382 
4 18382 18583 18584 18383 
4 18383 18584 18585 18384 
4 18384 18585 18586 18385 
4 18385 18586 18587 18386 
4 18386 18587 18588 18387 
4 18387 18588 18589 18388 
4 18388 18589 18590 18389 
4 18389 18590 18591 18390 
4 18390 18591 18592 18391 
4 18391 18592 18593 18392 
4 18392 18593 18594 18393 
4 18393 18594 18595 18394 
4 18394 18595 18596 18395 
4 18395 18596 18597 18396 
4 18396 18597 18598 18397 
4 18397 18598 18599 18398 
4 18398 18599 18600 18399 
4 18399 18600 18601 18400 
4 18400 18601 18602 18401 
4 18401 18602 18603 18402 
4 18402 18603 18604 18403 
4 18403 18604 18605 18404 
4 18404 18605 18606 18405 
4 18405 18606 18607 18406 
4 18406 18607 18608 18407 
4 18407 18608 18609 18408 
4 18408 18609 18610 18409 
4 18409 18610 18611 18410 
4 18410 18611 18612 18411 
4 18411 18612 18613 18412 
4 18412 18613 18614 18413 
4 18413 18614 18615 18414 
4 18414 18615 18616 18415 
4 18415 18616 18617 18416 
4 18416 18617 18618 18417 
4 18417 18618 18619 18418 
4 18418 18619 18620 18419 
4 18419 18620 18621 18420 
4 18420 18621 18622 18421 
4 18421 18622 18623 18422 
4 18422 18623 18624 18423 
4 18423 18624 18625 18424 
4 18424 18625 18626 18425 
4 18425 18626 18627 18426 
4 18426 18627 18628 18427 
4 18427 18628 18629 18428 
4 18428 18629 18630 18429 
4 18429 18630 18631 18430 
4 18430 18631 18632 18431 
4 18431 18632 18633 18432 
4 18432 18633 18634 18433 
4 18433 18634 18635 18434 
4 18434 18635 18636 18435 
4 18435 18636 18637 18436 
4 18436 18637 18638 18437 
4 18437 18638 18639 18438 
4 18438 18639 18640 18439 
4 18439 18640 18641 18440 
4 18440 18641 18642 18441 
4 18441 18642 18643 18442 
4 18442 18643 18644 18443 
4 18443 18644 18645 18444 
4 18444 18645 18646 18445 
4 18445 18646 18647 18446 
4 18446 18647 18648 18447 
4 18447 18648 18649 18448 
4 18448 18649 18650 18449 
4 18449 18650 18651 18450 
4 18450 18651 18652 18451 
4 18451 18652 18653 18452 
4 18452 18653 18654 18453 
4 18453 18654 18655 18454 
4 18454 18655 18656 18455 
4 18455 18656 18657 18456 
4 18456 18657 18658 18457 
4 18457 18658 18659 18458 
4 18458 18659 18660 18459 
4 18459 18660 18661 18460 
4 18460 18661 18662 18461 
4 18461 18662 18663 18462 
4 18462 18663 18664 18463 
4 18463 18664 18665 18464 
4 18464 18665 18666 18465 
4 18465 18666 18667 18466 
4 18466 18667 18668 18467 
4 18467 18668 18669 18468 
4 18468 18669 18670 18469 
4 18469 18670 18671 18470 
4 18470 18671 18672 18471 
4 18471 18672 18673 18472 
4 18472 18673 18674 18473 
4 18473 18674 18675 18474 
4 18474 18675 18676 18475 
4 18475 18676 18677 18476 
4 18476 18677 18678 18477 
4 18477 18678 18679 18478 
4 18478 18679 18680 18479 
4 18479 18680 18681 18480 
4 18480 18681 18682 18481 
4 18481 18682 18683 18482 
4 18482 18683 18684 18483 
4 18483 18684 18685 18484 
4 18484 18685 18686 18485 
4 18485 18686 18687 18486 
4 18486 18687 18688 18487 
4 18487 18688 18689 18488 
4 18488 18689 18690 18489 
4 18489 18690 18691 18490 
4 18490 18691 18692 18491 
4 18492 18693 18694 18493 
4 18493 18694 18695 18494 
4 18494 18695 18696 18495 
4 18495 18696 18697 18496 
4 18496 18697 18698 18497 
4 18497 18698 18699 18498 
4 18498 18699 18700 18499 
4 18499 18700 18701 18500 
4 18500 18701 18702 18501 
4 18501 18702 18703 18502 
4 18502 18703 18704 18503 
4 18503 18704 18705 18504 
4 18504 18705 18706 18505 
4 18505 18706 18707 18506 
4 18506 18707 18708 18507 
4 18507 18708 18709 18508 
4 18508 18709 18710 18509 
4 18509 18710 18711 18510 
4 18510 18711 18712 18511 
4 18511 18712 18713 18512 
4 18512 18713 18714 18513 
4 18513 18714 18715 18514 
4 18514 18715 18716 18515 
4 18515 18716 18717 18516 
4 18516 18717 18718 18517 
4 18517 18718 18719 18518 
4 18518 18719 18720 18519 
4 18519 18720 18721 18520 
4 18520 18721 18722 18521 
4 18521 18722 18723 18522 
4 18522 18723 18724 18523 
4 18523 18724 18725 18524 
4 18524 18725 18726 18525 
4 18525 18726 18727 18526 
4 18526 18727 18728 18527 
4 18527 18728 18729 18528 
4 18528 18729 18730 18529 
4 18529 18730 18731 18530 
4 18530 18731 18732 18531 
4 18531 18732 18733 18532 
4 18532 18733 18734 18533 
4 18533 18734 18735 18534 
4 18534 18735 18736 18535 
4 18535 18736 18737 18536 
4 18536 18737 18738 18537 
4 18537 18738 18739 18538 
4 18538 18739 18740 18539 
4 18539 18740 18741 18540 
4 18540 18741 18742 18541 
4 18541 18742 18743 18542 
4 18542 18743 18744 18543 
4 18543 18744 18745 18544 
4 18544 18745 18746 18545 
4 18545 18746 18747 18546 
4 18546 18747 18748 18547 
4 18547 18748 18749 18548 
4 18548 18749 18750 18549 
4 18549 18750 18751 18550 
4 18550 18751 18752 18551 
4 18551 18752 18753 18552 
4 18552 18753 18754 18553 
4 18553 18754 18755 18554 
4 18554 18755 18756 18555 
4 18555 18756 18757 18556 
4 18556 18757 18758 18557 
4 18557 18758 18759 18558 
4 18558 18759 18760 18559 
4 18559 18760 18761 18560 
4 18560 18761 18762 18561 
4 18561 18762 18763 18562 
4 18562 18763 18764 18563 
4 18563 18764 18765 18564 
4 18564 18765 18766 18565 
4 18565 18766 18767 18566 
4 18566 18767 18768 18567 
4 18567 18768 18769 18568 
4 18568 18769 18770 18569 
4 18569 18770 18771 18570 
4 18570 18771 18772 18571 
4 18571 18772 18773 18572 
4 18572 18773 18774 18573 
4 18573 18774 18775 18574 
4 18574 18775 18776 18575 
4 18575 18776 18777 18576 
4 18576 18777 18778 18577 
4 18577 18778 18779 18578 
4 18578 18779 18780 18579 
4 18579 18780 18781 18580 
4 18580 18781 18782 18581 
4 18581 18782 18783 18582 
4 18582 18783 18784 18583 
4 18583 18784 18785 18584 
4 18584 18785 18786 18585 
4 18585 18786 18787 18586 
4 18586 18787 18788 18587 
4 18587 18788 18789 18588 
4 18588 18789 18790 18589 
4 18589 18790 18791 18590 
4 18590 18791 18792 18591 
4 18591 18792 18793 18592 
4 18592 18793 18794 18593 
4 18593 18794 18795 18594 
4 18594 18795 18796 18595 
4 18595 18796 18797 18596 
4 18596 18797 18798 18597 
4 18597 18798 18799 18598 
4 18598 18799 18800 18599 
4 18599 18800 18801 18600 
4 18600 18801 18802 18601 
4 18601 18802 18803 18602 
4 18602 18803 18804 18603 
4 18603 18804 18805 18604 
4 18604 18805 18806 18605 
4 18605 18806 18807 18606 
4 18606 18807 18808 18607 
4 18607 18808 18809 18608 
4 18608 18809 18810 18609 
4 18609 18810 18811 18610 
4 18610 18811 18812 18611 
4 18611 18812 18813 18612 
4 18612 18813 18814 18613 
4 18613 18814 18815 18614 
4 18614 18815 18816 18615 
4 18615 18816 18817 18616 
4 18616 18817 18818 18617 
4 18617 18818 18819 18618 
4 18618 18819 18820 18619 
4 18619 18820 18821 18620 
4 18620 18821 18822 18621 
4 18621 18822 18823 18622 
4 18622 18823 18824 18623 
4 18623 18824 18825 18624 
4 18624 18825 18826 18625 
4 18625 18826 18827 18626 
4 18626 18827 18828 18627 
4 18627 18828 18829 18628 
4 18628 18829 18830 18629 
4 18629 18830 18831 18630 
4 18630 18831 18832 18631 
4 18631 18832 18833 18632 
4 18632 18833 18834 18633 
4 18633 18834 18835 18634 
4 18634 18835 18836 18635 
4 18635 18836 18837 18636 
4 18636 18837 18838 18637 
4 18637 18838 18839 18638 
4 18638 18839 18840 18639 
4 18639 18840 18841 18640 
4 18640 18841 18842 18641 
4 18641 18842 18843 18642 
4 18642 18843 18844 18643 
4 18643 18844 18845 18644 
4 18644 18845 18846 18645 
4 18645 18846 18847 18646 
4 18646 18847 18848 18647 
4 18647 18848 18849 18648 
4 18648 18849 18850 18649 
4 18649 18850 18851 18650 
4 18650 18851 18852 18651 
4 18651 18852 18853 18652 
4 18652 18853 18854 18653 
4 18653 18854 18855 18654 
4 18654 18855 18856 18655 
4 18655 18856 18857 18656 
4 18656 18857 18858 18657 
4 18657 18858 18859 18658 
4 18658 18859 18860 18659 
4 18659 18860 18861 18660 
4 18660 18861 18862 18661 
4 18661 18862 18863 18662 
4 18662 18863 18864 18663 
4 18663 18864 18865 18664 
4 18664 18865 18866 18665 
4 18665 18866 18867 18666 
4 18666 18867 18868 18667 
4 18667 18868 18869 18668 
4 18668 18869 18870 18669 
4 18669 18870 18871 18670 
4 18670 18871 18872 18671 
4 18671 18872 18873 18672 
4 18672 18873 18874 18673 
4 18673 18874 18875 18674 
4 18674 18875 18876 18675 
4 18675 18876 18877 18676 
4 18676 18877 18878 18677 
4 18677 18878 18879 18678 
4 18678 18879 18880 18679 
4 18679 18880 18881 18680 
4 18680 18881 18882 18681 
4 18681 18882 18883 18682 
4 18682 18883 18884 18683 
4 18683 18884 18885 18684 
4 18684 18885 18886 18685 
4 18685 18886 18887 18686 
4 18686 18887 18888 18687 
4 18687 18888 18889 18688 
4 18688 18889 18890 18689 
4 18689 18890 18891 18690 
4 18690 18891 18892 18691 
4 18691 18892 18893 18692 
4 18693 18894 18895 18694 
4 18694 18895 18896 18695 
4 18695 18896 18897 18696 
4 18696 18897 18898 18697 
4 18697 18898 18899 18698 
4 18698 18899 18900 18699 
4 18699 18900 18901 18700 
4 18700 18901 18902 18701 
4 18701 18902 18903 18702 
4 18702 18903 18904 18703 
4 18703 18904 18905 18704 
4 18704 18905 18906 18705 
4 18705 18906 18907 18706 
4 18706 18907 18908 18707 
4 18707 18908 18909 18708 
4 18708 18909 18910 18709 
4 18709 18910 18911 18710 
4 18710 18911 18912 18711 
4 18711 18912 18913 18712 
4 18712 18913 18914 18713 
4 18713 18914 18915 18714 
4 18714 18915 18916 18715 
4 18715 18916 18917 18716 
4 18716 18917 18918 18717 
4 18717 18918 18919 18718 
4 18718 18919 18920 18719 
4 18719 18920 18921 18720 
4 18720 18921 18922 18721 
4 18721 18922 18923 18722 
4 18722 18923 18924 18723 
4 18723 18924 18925 18724 
4 18724 18925 18926 18725 
4 18725 18926 18927 18726 
4 18726 18927 18928 18727 
4 18727 18928 18929 18728 
4 18728 18929 18930 18729 
4 18729 18930 18931 18730 
4 18730 18931 18932 18731 
4 18731 18932 18933 18732 
4 18732 18933 18934 18733 
4 18733 18934 18935 18734 
4 18734 18935 18936 18735 
4 18735 18936 18937 18736 
4 18736 18937 18938 18737 
4 18737 18938 18939 18738 
4 18738 18939 18940 18739 
4 18739 18940 18941 18740 
4 18740 18941 18942 18741 
4 18741 18942 18943 18742 
4 18742 18943 18944 18743 
4 18743 18944 18945 18744 
4 18744 18945 18946 18745 
4 18745 18946 18947 18746 
4 18746 18947 18948 18747 
4 18747 18948 18949 18748 
4 18748 18949 18950 18749 
4 18749 18950 18951 18750 
4 18750 18951 18952 18751 
4 18751 18952 18953 18752 
4 18752 18953 18954 18753 
4 18753 18954 18955 18754 
4 18754 18955 18956 18755 
4 18755 18956 18957 18756 
4 18756 18957 18958 18757 
4 18757 18958 18959 18758 
4 18758 18959 18960 18759 
4 18759 18960 18961 18760 
4 18760 18961 18962 18761 
4 18761 18962 18963 18762 
4 18762 18963 18964 18763 
4 18763 18964 18965 18764 
4 18764 18965 18966 18765 
4 18765 18966 18967 18766 
4 18766 18967 18968 18767 
4 18767 18968 18969 18768 
4 18768 18969 18970 18769 
4 18769 18970 18971 18770 
4 18770 18971 18972 18771 
4 18771 18972 18973 18772 
4 18772 18973 18974 18773 
4 18773 18974 18975 18774 
4 18774 18975 18976 18775 
4 18775 18976 18977 18776 
4 18776 18977 18978 18777 
4 18777 18978 18979 18778 
4 18778 18979 18980 18779 
4 18779 18980 18981 18780 
4 18780 18981 18982 18781 
4 18781 18982 18983 18782 
4 18782 18983 18984 18783 
4 18783 18984 18985 18784 
4 18784 18985 18986 18785 
4 18785 18986 18987 18786 
4 18786 18987 18988 18787 
4 18787 18988 18989 18788 
4 18788 18989 18990 18789 
4 18789 18990 18991 18790 
4 18790 18991 18992 18791 
4 18791 18992 18993 18792 
4 18792 18993 18994 18793 
4 18793 18994 18995 18794 
4 18794 18995 18996 18795 
4 18795 18996 18997 18796 
4 18796 18997 18998 18797 
4 18797 18998 18999 18798 
4 18798 18999 19000 18799 
4 18799 19000 19001 18800 
4 18800 19001 19002 18801 
4 18801 19002 19003 18802 
4 18802 19003 19004 18803 
4 18803 19004 19005 18804 
4 18804 19005 19006 18805 
4 18805 19006 19007 18806 
4 18806 19007 19008 18807 
4 18807 19008 19009 18808 
4 18808 19009 19010 18809 
4 18809 19010 19011 18810 
4 18810 19011 19012 18811 
4 18811 19012 19013 18812 
4 18812 19013 19014 18813 
4 18813 19014 19015 18814 
4 18814 19015 19016 18815 
4 18815 19016 19017 18816 
4 18816 19017 19018 18817 
4 18817 19018 19019 18818 
4 18818 19019 19020 18819 
4 18819 19020 19021 18820 
4 18820 19021 19022 18821 
4 18821 19022 19023 18822 
4 18822 19023 19024 18823 
4 18823 19024 19025 18824 
4 18824 19025 19026 18825 
4 18825 19026 19027 18826 
4 18826 19027 19028 18827 
4 18827 19028 19029 18828 
4 18828 19029 19030 18829 
4 18829 19030 19031 18830 
4 18830 19031 19032 18831 
4 18831 19032 19033 18832 
4 18832 19033 19034 18833 
4 18833 19034 19035 18834 
4 18834 19035 19036 18835 
4 18835 19036 19037 18836 
4 18836 19037 19038 18837 
4 18837 19038 19039 18838 
4 18838 19039 19040 18839 
4 18839 19040 19041 18840 
4 18840 19041 19042 18841 
4 18841 19042 19043 18842 
4 18842 19043 19044 18843 
4 18843 19044 19045 18844 
4 18844 19045 19046 18845 
4 18845 19046 19047 18846 
4 18846 19047 19048 18847 
4 18847 19048 19049 18848 
4 18848 19049 19050 18849 
4 18849 19050 19051 18850 
4 18850 19051 19052 18851 
4 18851 19052 19053 18852 
4 18852 19053 19054 18853 
4 18853 19054 19055 18854 
4 18854 19055 19056 18855 
4 18855 19056 19057 18856 
4 18856 19057 19058 18857 
4 18857 19058 19059 18858 
4 18858 19059 19060 18859 
4 18859 19060 19061 18860 
4 18860 19061 19062 18861 
4 18861 19062 19063 18862 
4 18862 19063 19064 18863 
4 18863 19064 19065 18864 
4 18864 19065 19066 18865 
4 18865 19066 19067 18866 
4 18866 19067 19068 18867 
4 18867 19068 19069 18868 
4 18868 19069 19070 18869 
4 18869 19070 19071 18870 
4 18870 19071 19072 18871 
4 18871 19072 19073 18872 
4 18872 19073 19074 18873 
4 18873 19074 19075 18874 
4 18874 19075 19076 18875 
4 18875 19076 19077 18876 
4 18876 19077 19078 18877 
4 18877 19078 19079 18878 
4 18878 19079 19080 18879 
4 18879 19080 19081 18880 
4 18880 19081 19082 18881 
4 18881 19082 19083 18882 
4 18882 19083 19084 18883 
4 18883 19084 19085 18884 
4 18884 19085 19086 18885 
4 18885 19086 19087 18886 
4 18886 19087 19088 18887 
4 18887 19088 19089 18888 
4 18888 19089 19090 18889 
4 18889 19090 19091 18890 
4 18890 19091 19092 18891 
4 18891 19092 19093 18892 
4 18892 19093 19094 18893 
4 18894 19095 19096 18895 
4 18895 19096 19097 18896 
4 18896 19097 19098 18897 
4 18897 19098 19099 18898 
4 18898 19099 19100 18899 
4 18899 19100 19101 18900 
4 18900 19101 19102 18901 
4 18901 19102 19103 18902 
4 18902 19103 19104 18903 
4 18903 19104 19105 18904 
4 18904 19105 19106 18905 
4 18905 19106 19107 18906 
4 18906 19107 19108 18907 
4 18907 19108 19109 18908 
4 18908 19109 19110 18909 
4 18909 19110 19111 18910 
4 18910 19111 19112 18911 
4 18911 19112 19113 18912 
4 18912 19113 19114 18913 
4 18913 19114 19115 18914 
4 18914 19115 19116 18915 
4 18915 19116 19117 18916 
4 18916 19117 19118 18917 
4 18917 19118 19119 18918 
4 18918 19119 19120 18919 
4 18919 19120 19121 18920 
4 18920 19121 19122 18921 
4 18921 19122 19123 18922 
4 18922 19123 19124 18923 
4 18923 19124 19125 18924 
4 18924 19125 19126 18925 
4 18925 19126 19127 18926 
4 18926 19127 19128 18927 
4 18927 19128 19129 18928 
4 18928 19129 19130 18929 
4 18929 19130 19131 18930 
4 18930 19131 19132 18931 
4 18931 19132 19133 18932 
4 18932 19133 19134 18933 
4 18933 19134 19135 18934 
4 18934 19135 19136 18935 
4 18935 19136 19137 18936 
4 18936 19137 19138 18937 
4 18937 19138 19139 18938 
4 18938 19139 19140 18939 
4 18939 19140 19141 18940 
4 18940 19141 19142 18941 
4 18941 19142 19143 18942 
4 18942 19143 19144 18943 
4 18943 19144 19145 18944 
4 18944 19145 19146 18945 
4 18945 19146 19147 18946 
4 18946 19147 19148 18947 
4 18947 19148 19149 18948 
4 18948 19149 19150 18949 
4 18949 19150 19151 18950 
4 18950 19151 19152 18951 
4 18951 19152 19153 18952 
4 18952 19153 19154 18953 
4 18953 19154 19155 18954 
4 18954 19155 19156 18955 
4 18955 19156 19157 18956 
4 18956 19157 19158 18957 
4 18957 19158 19159 18958 
4 18958 19159 19160 18959 
4 18959 19160 19161 18960 
4 18960 19161 19162 18961 
4 18961 19162 19163 18962 
4 18962 19163 19164 18963 
4 18963 19164 19165 18964 
4 18964 19165 19166 18965 
4 18965 19166 19167 18966 
4 18966 19167 19168 18967 
4 18967 19168 19169 18968 
4 18968 19169 19170 18969 
4 18969 19170 19171 18970 
4 18970 19171 19172 18971 
4 18971 19172 19173 18972 
4 18972 19173 19174 18973 
4 18973 19174 19175 18974 
4 18974 19175 19176 18975 
4 18975 19176 19177 18976 
4 18976 19177 19178 18977 
4 18977 19178 19179 18978 
4 18978 19179 19180 18979 
4 18979 19180 19181 18980 
4 18980 19181 19182 18981 
4 18981 19182 19183 18982 
4 18982 19183 19184 18983 
4 18983 19184 19185 18984 
4 18984 19185 19186 18985 
4 18985 19186 19187 18986 
4 18986 19187 19188 18987 
4 18987 19188 19189 18988 
4 18988 19189 19190 18989 
4 18989 19190 19191 18990 
4 18990 19191 19192 18991 
4 18991 19192 19193 18992 
4 18992 19193 19194 18993 
4 18993 19194 19195 18994 
4 18994 19195 19196 18995 
4 18995 19196 19197 18996 
4 18996 19197 19198 18997 
4 18997 19198 19199 18998 
4 18998 19199 19200 18999 
4 18999 19200 19201 19000 
4 19000 19201 19202 19001 
4 19001 19202 19203 19002 
4 19002 19203 19204 19003 
4 19003 19204 19205 19004 
4 19004 19205 19206 19005 
4 19005 19206 19207 19006 
4 19006 19207 19208 19007 
4 19007 19208 19209 19008 
4 19008 19209 19210 19009 
4 19009 19210 19211 19010 
4 19010 19211 19212 19011 
4 19011 19212 19213 19012 
4 19012 19213 19214 19013 
4 19013 19214 19215 19014 
4 19014 19215 19216 19015 
4 19015 19216 19217 19016 
4 19016 19217 19218 19017 
4 19017 19218 19219 19018 
4 19018 19219 19220 19019 
4 19019 19220 19221 19020 
4 19020 19221 19222 19021 
4 19021 19222 19223 19022 
4 19022 19223 19224 19023 
4 19023 19224 19225 19024 
4 19024 19225 19226 19025 
4 19025 19226 19227 19026 
4 19026 19227 19228 19027 
4 19027 19228 19229 19028 
4 19028 19229 19230 19029 
4 19029 19230 19231 19030 
4 19030 19231 19232 19031 
4 19031 19232 19233 19032 
4 19032 19233 19234 19033 
4 19033 19234 19235 19034 
4 19034 19235 19236 19035 
4 19035 19236 19237 19036 
4 19036 19237 19238 19037 
4 19037 19238 19239 19038 
4 19038 19239 19240 19039 
4 19039 19240 19241 19040 
4 19040 19241 19242 19041 
4 19041 19242 19243 19042 
4 19042 19243 19244 19043 
4 19043 19244 19245 19044 
4 19044 19245 19246 19045 
4 19045 19246 19247 19046 
4 19046 19247 19248 19047 
4 19047 19248 19249 19048 
4 19048 19249 19250 19049 
4 19049 19250 19251 19050 
4 19050 19251 19252 19051 
4 19051 19252 19253 19052 
4 19052 19253 19254 19053 
4 19053 19254 19255 19054 
4 19054 19255 19256 19055 
4 19055 19256 19257 19056 
4 19056 19257 19258 19057 
4 19057 19258 19259 19058 
4 19058 19259 19260 19059 
4 19059 19260 19261 19060 
4 19060 19261 19262 19061 
4 19061 19262 19263 19062 
4 19062 19263 19264 19063 
4 19063 19264 19265 19064 
4 19064 19265 19266 19065 
4 19065 19266 19267 19066 
4 19066 19267 19268 19067 
4 19067 19268 19269 19068 
4 19068 19269 19270 19069 
4 19069 19270 19271 19070 
4 19070 19271 19272 19071 
4 19071 19272 19273 19072 
4 19072 19273 19274 19073 
4 19073 19274 19275 19074 
4 19074 19275 19276 19075 
4 19075 19276 19277 19076 
4 19076 19277 19278 19077 
4 19077 19278 19279 19078 
4 19078 19279 19280 19079 
4 19079 19280 19281 19080 
4 19080 19281 19282 19081 
4 19081 19282 19283 19082 
4 19082 19283 19284 19083 
4 19083 19284 19285 19084 
4 19084 19285 19286 19085 
4 19085 19286 19287 19086 
4 19086 19287 19288 19087 
4 19087 19288 19289 19088 
4 19088 19289 19290 19089 
4 19089 19290 19291 19090 
4 19090 19291 19292 19091 
4 19091 19292 19293 19092 
4 19092 19293 19294 19093 
4 19093 19294 19295 19094 
4 19095 19296 19297 19096 
4 19096 19297 19298 19097 
4 19097 19298 19299 19098 
4 19098 19299 19300 19099 
4 19099 19300 19301 19100 
4 19100 19301 19302 19101 
4 19101 19302 19303 19102 
4 19102 19303 19304 19103 
4 19103 19304 19305 19104 
4 19104 19305 19306 19105 
4 19105 19306 19307 19106 
4 19106 19307 19308 19107 
4 19107 19308 19309 19108 
4 19108 19309 19310 19109 
4 19109 19310 19311 19110 
4 19110 19311 19312 19111 
4 19111 19312 19313 19112 
4 19112 19313 19314 19113 
4 19113 19314 19315 19114 
4 19114 19315 19316 19115 
4 19115 19316 19317 19116 
4 19116 19317 19318 19117 
4 19117 19318 19319 19118 
4 19118 19319 19320 19119 
4 19119 19320 19321 19120 
4 19120 19321 19322 19121 
4 19121 19322 19323 19122 
4 19122 19323 19324 19123 
4 19123 19324 19325 19124 
4 19124 19325 19326 19125 
4 19125 19326 19327 19126 
4 19126 19327 19328 19127 
4 19127 19328 19329 19128 
4 19128 19329 19330 19129 
4 19129 19330 19331 19130 
4 19130 19331 19332 19131 
4 19131 19332 19333 19132 
4 19132 19333 19334 19133 
4 19133 19334 19335 19134 
4 19134 19335 19336 19135 
4 19135 19336 19337 19136 
4 19136 19337 19338 19137 
4 19137 19338 19339 19138 
4 19138 19339 19340 19139 
4 19139 19340 19341 19140 
4 19140 19341 19342 19141 
4 19141 19342 19343 19142 
4 19142 19343 19344 19143 
4 19143 19344 19345 19144 
4 19144 19345 19346 19145 
4 19145 19346 19347 19146 
4 19146 19347 19348 19147 
4 19147 19348 19349 19148 
4 19148 19349 19350 19149 
4 19149 19350 19351 19150 
4 19150 19351 19352 19151 
4 19151 19352 19353 19152 
4 19152 19353 19354 19153 
4 19153 19354 19355 19154 
4 19154 19355 19356 19155 
4 19155 19356 19357 19156 
4 19156 19357 19358 19157 
4 19157 19358 19359 19158 
4 19158 19359 19360 19159 
4 19159 19360 19361 19160 
4 19160 19361 19362 19161 
4 19161 19362 19363 19162 
4 19162 19363 19364 19163 
4 19163 19364 19365 19164 
4 19164 19365 19366 19165 
4 19165 19366 19367 19166 
4 19166 19367 19368 19167 
4 19167 19368 19369 19168 
4 19168 19369 19370 19169 
4 19169 19370 19371 19170 
4 19170 19371 19372 19171 
4 19171 19372 19373 19172 
4 19172 19373 19374 19173 
4 19173 19374 19375 19174 
4 19174 19375 19376 19175 
4 19175 19376 19377 19176 
4 19176 19377 19378 19177 
4 19177 19378 19379 19178 
4 19178 19379 19380 19179 
4 19179 19380 19381 19180 
4 19180 19381 19382 19181 
4 19181 19382 19383 19182 
4 19182 19383 19384 19183 
4 19183 19384 19385 19184 
4 19184 19385 19386 19185 
4 19185 19386 19387 19186 
4 19186 19387 19388 19187 
4 19187 19388 19389 19188 
4 19188 19389 19390 19189 
4 19189 19390 19391 19190 
4 19190 19391 19392 19191 
4 19191 19392 19393 19192 
4 19192 19393 19394 19193 
4 19193 19394 19395 19194 
4 19194 19395 19396 19195 
4 19195 19396 19397 19196 
4 19196 19397 19398 19197 
4 19197 19398 19399 19198 
4 19198 19399 19400 19199 
4 19199 19400 19401 19200 
4 19200 19401 19402 19201 
4 19201 19402 19403 19202 
4 19202 19403 19404 19203 
4 19203 19404 19405 19204 
4 19204 19405 19406 19205 
4 19205 19406 19407 19206 
4 19206 19407 19408 19207 
4 19207 19408 19409 19208 
4 19208 19409 19410 19209 
4 19209 19410 19411 19210 
4 19210 19411 19412 19211 
4 19211 19412 19413 19212 
4 19212 19413 19414 19213 
4 19213 19414 19415 19214 
4 19214 19415 19416 19215 
4 19215 19416 19417 19216 
4 19216 19417 19418 19217 
4 19217 19418 19419 19218 
4 19218 19419 19420 19219 
4 19219 19420 19421 19220 
4 19220 19421 19422 19221 
4 19221 19422 19423 19222 
4 19222 19423 19424 19223 
4 19223 19424 19425 19224 
4 19224 19425 19426 19225 
4 19225 19426 19427 19226 
4 19226 19427 19428 19227 
4 19227 19428 19429 19228 
4 19228 19429 19430 19229 
4 19229 19430 19431 19230 
4 19230 19431 19432 19231 
4 19231 19432 19433 19232 
4 19232 19433 19434 19233 
4 19233 19434 19435 19234 
4 19234 19435 19436 19235 
4 19235 19436 19437 19236 
4 19236 19437 19438 19237 
4 19237 19438 19439 19238 
4 19238 19439 19440 19239 
4 19239 19440 19441 19240 
4 19240 19441 19442 19241 
4 19241 19442 19443 19242 
4 19242 19443 19444 19243 
4 19243 19444 19445 19244 
4 19244 19445 19446 19245 
4 19245 19446 19447 19246 
4 19246 19447 19448 19247 
4 19247 19448 19449 19248 
4 19248 19449 19450 19249 
4 19249 19450 19451 19250 
4 19250 19451 19452 19251 
4 19251 19452 19453 19252 
4 19252 19453 19454 19253 
4 19253 19454 19455 19254 
4 19254 19455 19456 19255 
4 19255 19456 19457 19256 
4 19256 19457 19458 19257 
4 19257 19458 19459 19258 
4 19258 19459 19460 19259 
4 19259 19460 19461 19260 
4 19260 19461 19462 19261 
4 19261 19462 19463 19262 
4 19262 19463 19464 19263 
4 19263 19464 19465 19264 
4 19264 19465 19466 19265 
4 19265 19466 19467 19266 
4 19266 19467 19468 19267 
4 19267 19468 19469 19268 
4 19268 19469 19470 19269 
4 19269 19470 19471 19270 
4 19270 19471 19472 19271 
4 19271 19472 19473 19272 
4 19272 19473 19474 19273 
4 19273 19474 19475 19274 
4 19274 19475 19476 19275 
4 19275 19476 19477 19276 
4 19276 19477 19478 19277 
4 19277 19478 19479 19278 
4 19278 19479 19480 19279 
4 19279 19480 19481 19280 
4 19280 19481 19482 19281 
4 19281 19482 19483 19282 
4 19282 19483 19484 19283 
4 19283 19484 19485 19284 
4 19284 19485 19486 19285 
4 19285 19486 19487 19286 
4 19286 19487 19488 19287 
4 19287 19488 19489 19288 
4 19288 19489 19490 19289 
4 19289 19490 19491 19290 
4 19290 19491 19492 19291 
4 19291 19492 19493 19292 
4 19292 19493 19494 19293 
4 19293 19494 19495 19294 
4 19294 19495 19496 19295 
4 19296 19497 19498 19297 
4 19297 19498 19499 19298 
4 19298 19499 19500 19299 
4 19299 19500 19501 19300 
4 19300 19501 19502 19301 
4 19301 19502 19503 19302 
4 19302 19503 19504 19303 
4 19303 19504 19505 19304 
4 19304 19505 19506 19305 
4 19305 19506 19507 19306 
4 19306 19507 19508 19307 
4 19307 19508 19509 19308 
4 19308 19509 19510 19309 
4 19309 19510 19511 19310 
4 19310 19511 19512 19311 
4 19311 19512 19513 19312 
4 19312 19513 19514 19313 
4 19313 19514 19515 19314 
4 19314 19515 19516 19315 
4 19315 19516 19517 19316 
4 19316 19517 19518 19317 
4 19317 19518 19519 19318 
4 19318 19519 19520 19319 
4 19319 19520 19521 19320 
4 19320 19521 19522 19321 
4 19321 19522 19523 19322 
4 19322 19523 19524 19323 
4 19323 19524 19525 19324 
4 19324 19525 19526 19325 
4 19325 19526 19527 19326 
4 19326 19527 19528 19327 
4 19327 19528 19529 19328 
4 19328 19529 19530 19329 
4 19329 19530 19531 19330 
4 19330 19531 19532 19331 
4 19331 19532 19533 19332 
4 19332 19533 19534 19333 
4 19333 19534 19535 19334 
4 19334 19535 19536 19335 
4 19335 19536 19537 19336 
4 19336 19537 19538 19337 
4 19337 19538 19539 19338 
4 19338 19539 19540 19339 
4 19339 19540 19541 19340 
4 19340 19541 19542 19341 
4 19341 19542 19543 19342 
4 19342 19543 19544 19343 
4 19343 19544 19545 19344 
4 19344 19545 19546 19345 
4 19345 19546 19547 19346 
4 19346 19547 19548 19347 
4 19347 19548 19549 19348 
4 19348 19549 19550 19349 
4 19349 19550 19551 19350 
4 19350 19551 19552 19351 
4 19351 19552 19553 19352 
4 19352 19553 19554 19353 
4 19353 19554 19555 19354 
4 19354 19555 19556 19355 
4 19355 19556 19557 19356 
4 19356 19557 19558 19357 
4 19357 19558 19559 19358 
4 19358 19559 19560 19359 
4 19359 19560 19561 19360 
4 19360 19561 19562 19361 
4 19361 19562 19563 19362 
4 19362 19563 19564 19363 
4 19363 19564 19565 19364 
4 19364 19565 19566 19365 
4 19365 19566 19567 19366 
4 19366 19567 19568 19367 
4 19367 19568 19569 19368 
4 19368 19569 19570 19369 
4 19369 19570 19571 19370 
4 19370 19571 19572 19371 
4 19371 19572 19573 19372 
4 19372 19573 19574 19373 
4 19373 19574 19575 19374 
4 19374 19575 19576 19375 
4 19375 19576 19577 19376 
4 19376 19577 19578 19377 
4 19377 19578 19579 19378 
4 19378 19579 19580 19379 
4 19379 19580 19581 19380 
4 19380 19581 19582 19381 
4 19381 19582 19583 19382 
4 19382 19583 19584 19383 
4 19383 19584 19585 19384 
4 19384 19585 19586 19385 
4 19385 19586 19587 19386 
4 19386 19587 19588 19387 
4 19387 19588 19589 19388 
4 19388 19589 19590 19389 
4 19389 19590 19591 19390 
4 19390 19591 19592 19391 
4 19391 19592 19593 19392 
4 19392 19593 19594 19393 
4 19393 19594 19595 19394 
4 19394 19595 19596 19395 
4 19395 19596 19597 19396 
4 19396 19597 19598 19397 
4 19397 19598 19599 19398 
4 19398 19599 19600 19399 
4 19399 19600 19601 19400 
4 19400 19601 19602 19401 
4 19401 19602 19603 19402 
4 19402 19603 19604 19403 
4 19403 19604 19605 19404 
4 19404 19605 19606 19405 
4 19405 19606 19607 19406 
4 19406 19607 19608 19407 
4 19407 19608 19609 19408 
4 19408 19609 19610 19409 
4 19409 19610 19611 19410 
4 19410 19611 19612 19411 
4 19411 19612 19613 19412 
4 19412 19613 19614 19413 
4 19413 19614 19615 19414 
4 19414 19615 19616 19415 
4 19415 19616 19617 19416 
4 19416 19617 19618 19417 
4 19417 19618 19619 19418 
4 19418 19619 19620 19419 
4 19419 19620 19621 19420 
4 19420 19621 19622 19421 
4 19421 19622 19623 19422 
4 19422 19623 19624 19423 
4 19423 19624 19625 19424 
4 19424 19625 19626 19425 
4 19425 19626 19627 19426 
4 19426 19627 19628 19427 
4 19427 19628 19629 19428 
4 19428 19629 19630 19429 
4 19429 19630 19631 19430 
4 19430 19631 19632 19431 
4 19431 19632 19633 19432 
4 19432 19633 19634 19433 
4 19433 19634 19635 19434 
4 19434 19635 19636 19435 
4 19435 19636 19637 19436 
4 19436 19637 19638 19437 
4 19437 19638 19639 19438 
4 19438 19639 19640 19439 
4 19439 19640 19641 19440 
4 19440 19641 19642 19441 
4 19441 19642 19643 19442 
4 19442 19643 19644 19443 
4 19443 19644 19645 19444 
4 19444 19645 19646 19445 
4 19445 19646 19647 19446 
4 19446 19647 19648 19447 
4 19447 19648 19649 19448 
4 19448 19649 19650 19449 
4 19449 19650 19651 19450 
4 19450 19651 19652 19451 
4 19451 19652 19653 19452 
4 19452 19653 19654 19453 
4 19453 19654 19655 19454 
4 19454 19655 19656 19455 
4 19455 19656 19657 19456 
4 19456 19657 19658 19457 
4 19457 19658 19659 19458 
4 19458 19659 19660 19459 
4 19459 19660 19661 19460 
4 19460 19661 19662 19461 
4 19461 19662 19663 19462 
4 19462 19663 19664 19463 
4 19463 19664 19665 19464 
4 19464 19665 19666 19465 
4 19465 19666 19667 19466 
4 19466 19667 19668 19467 
4 19467 19668 19669 19468 
4 19468 19669 19670 19469 
4 19469 19670 19671 19470 
4 19470 19671 19672 19471 
4 19471 19672 19673 19472 
4 19472 19673 19674 19473 
4 19473 19674 19675 19474 
4 19474 19675 19676 19475 
4 19475 19676 19677 19476 
4 19476 19677 19678 19477 
4 19477 19678 19679 19478 
4 19478 19679 19680 19479 
4 19479 19680 19681 19480 
4 19480 19681 19682 19481 
4 19481 19682 19683 19482 
4 19482 19683 19684 19483 
4 19483 19684 19685 19484 
4 19484 19685 19686 19485 
4 19485 19686 19687 19486 
4 19486 19687 19688 19487 
4 19487 19688 19689 19488 
4 19488 19689 19690 19489 
4 19489 19690 19691 19490 
4 19490 19691 19692 19491 
4 19491 19692 19693 19492 
4 19492 19693 19694 19493 
4 19493 19694 19695 19494 
4 19494 19695 19696 19495 
4 19495 19696 19697 19496 
4 19497 19698 19699 19498 
4 19498 19699 19700 19499 
4 19499 19700 19701 19500 
4 19500 19701 19702 19501 
4 19501 19702 19703 19502 
4 19502 19703 19704 19503 
4 19503 19704 19705 19504 
4 19504 19705 19706 19505 
4 19505 19706 19707 19506 
4 19506 19707 19708 19507 
4 19507 19708 19709 19508 
4 19508 19709 19710 19509 
4 19509 19710 19711 19510 
4 19510 19711 19712 19511 
4 19511 19712 19713 19512 
4 19512 19713 19714 19513 
4 19513 19714 19715 19514 
4 19514 19715 19716 19515 
4 19515 19716 19717 19516 
4 19516 19717 19718 19517 
4 19517 19718 19719 19518 
4 19518 19719 19720 19519 
4 19519 19720 19721 19520 
4 19520 19721 19722 19521 
4 19521 19722 19723 19522 
4 19522 19723 19724 19523 
4 19523 19724 19725 19524 
4 19524 19725 19726 19525 
4 19525 19726 19727 19526 
4 19526 19727 19728 19527 
4 19527 19728 19729 19528 
4 19528 19729 19730 19529 
4 19529 19730 19731 19530 
4 19530 19731 19732 19531 
4 19531 19732 19733 19532 
4 19532 19733 19734 19533 
4 19533 19734 19735 19534 
4 19534 19735 19736 19535 
4 19535 19736 19737 19536 
4 19536 19737 19738 19537 
4 19537 19738 19739 19538 
4 19538 19739 19740 19539 
4 19539 19740 19741 19540 
4 19540 19741 19742 19541 
4 19541 19742 19743 19542 
4 19542 19743 19744 19543 
4 19543 19744 19745 19544 
4 19544 19745 19746 19545 
4 19545 19746 19747 19546 
4 19546 19747 19748 19547 
4 19547 19748 19749 19548 
4 19548 19749 19750 19549 
4 19549 19750 19751 19550 
4 19550 19751 19752 19551 
4 19551 19752 19753 19552 
4 19552 19753 19754 19553 
4 19553 19754 19755 19554 
4 19554 19755 19756 19555 
4 19555 19756 19757 19556 
4 19556 19757 19758 19557 
4 19557 19758 19759 19558 
4 19558 19759 19760 19559 
4 19559 19760 19761 19560 
4 19560 19761 19762 19561 
4 19561 19762 19763 19562 
4 19562 19763 19764 19563 
4 19563 19764 19765 19564 
4 19564 19765 19766 19565 
4 19565 19766 19767 19566 
4 19566 19767 19768 19567 
4 19567 19768 19769 19568 
4 19568 19769 19770 19569 
4 19569 19770 19771 19570 
4 19570 19771 19772 19571 
4 19571 19772 19773 19572 
4 19572 19773 19774 19573 
4 19573 19774 19775 19574 
4 19574 19775 19776 19575 
4 19575 19776 19777 19576 
4 19576 19777 19778 19577 
4 19577 19778 19779 19578 
4 19578 19779 19780 19579 
4 19579 19780 19781 19580 
4 19580 19781 19782 19581 
4 19581 19782 19783 19582 
4 19582 19783 19784 19583 
4 19583 19784 19785 19584 
4 19584 19785 19786 19585 
4 19585 19786 19787 19586 
4 19586 19787 19788 19587 
4 19587 19788 19789 19588 
4 19588 19789 19790 19589 
4 19589 19790 19791 19590 
4 19590 19791 19792 19591 
4 19591 19792 19793 19592 
4 19592 19793 19794 19593 
4 19593 19794 19795 19594 
4 19594 19795 19796 19595 
4 19595 19796 19797 19596 
4 19596 19797 19798 19597 
4 19597 19798 19799 19598 
4 19598 19799 19800 19599 
4 19599 19800 19801 19600 
4 19600 19801 19802 19601 
4 19601 19802 19803 19602 
4 19602 19803 19804 19603 
4 19603 19804 19805 19604 
4 19604 19805 19806 19605 
4 19605 19806 19807 19606 
4 19606 19807 19808 19607 
4 19607 19808 19809 19608 
4 19608 19809 19810 19609 
4 19609 19810 19811 19610 
4 19610 19811 19812 19611 
4 19611 19812 19813 19612 
4 19612 19813 19814 19613 
4 19613 19814 19815 19614 
4 19614 19815 19816 19615 
4 19615 19816 19817 19616 
4 19616 19817 19818 19617 
4 19617 19818 19819 19618 
4 19618 19819 19820 19619 
4 19619 19820 19821 19620 
4 19620 19821 19822 19621 
4 19621 19822 19823 19622 
4 19622 19823 19824 19623 
4 19623 19824 19825 19624 
4 19624 19825 19826 19625 
4 19625 19826 19827 19626 
4 19626 19827 19828 19627 
4 19627 19828 19829 19628 
4 19628 19829 19830 19629 
4 19629 19830 19831 19630 
4 19630 19831 19832 19631 
4 19631 19832 19833 19632 
4 19632 19833 19834 19633 
4 19633 19834 19835 19634 
4 19634 19835 19836 19635 
4 19635 19836 19837 19636 
4 19636 19837 19838 19637 
4 19637 19838 19839 19638 
4 19638 19839 19840 19639 
4 19639 19840 19841 19640 
4 19640 19841 19842 19641 
4 19641 19842 19843 19642 
4 19642 19843 19844 19643 
4 19643 19844 19845 19644 
4 19644 19845 19846 19645 
4 19645 19846 19847 19646 
4 19646 19847 19848 19647 
4 19647 19848 19849 19648 
4 19648 19849 19850 19649 
4 19649 19850 19851 19650 
4 19650 19851 19852 19651 
4 19651 19852 19853 19652 
4 19652 19853 19854 19653 
4 19653 19854 19855 19654 
4 19654 19855 19856 19655 
4 19655 19856 19857 19656 
4 19656 19857 19858 19657 
4 19657 19858 19859 19658 
4 19658 19859 19860 19659 
4 19659 19860 19861 19660 
4 19660 19861 19862 19661 
4 19661 19862 19863 19662 
4 19662 19863 19864 19663 
4 19663 19864 19865 19664 
4 19664 19865 19866 19665 
4 19665 19866 19867 19666 
4 19666 19867 19868 19667 
4 19667 19868 19869 19668 
4 19668 19869 19870 19669 
4 19669 19870 19871 19670 
4 19670 19871 19872 19671 
4 19671 19872 19873 19672 
4 19672 19873 19874 19673 
4 19673 19874 19875 19674 
4 19674 19875 19876 19675 
4 19675 19876 19877 19676 
4 19676 19877 19878 19677 
4 19677 19878 19879 19678 
4 19678 19879 19880 19679 
4 19679 19880 19881 19680 
4 19680 19881 19882 19681 
4 19681 19882 19883 19682 
4 19682 19883 19884 19683 
4 19683 19884 19885 19684 
4 19684 19885 19886 19685 
4 19685 19886 19887 19686 
4 19686 19887 19888 19687 
4 19687 19888 19889 19688 
4 19688 19889 19890 19689 
4 19689 19890 19891 19690 
4 19690 19891 19892 19691 
4 19691 19892 19893 19692 
4 19692 19893 19894 19693 
4 19693 19894 19895 19694 
4 19694 19895 19896 19695 
4 19695 19896 19897 19696 
4 19696 19897 19898 19697 
4 19698 19899 19900 19699 
4 19699 19900 19901 19700 
4 19700 19901 19902 19701 
4 19701 19902 19903 19702 
4 19702 19903 19904 19703 
4 19703 19904 19905 19704 
4 19704 19905 19906 19705 
4 19705 19906 19907 19706 
4 19706 19907 19908 19707 
4 19707 19908 19909 19708 
4 19708 19909 19910 19709 
4 19709 19910 19911 19710 
4 19710 19911 19912 19711 
4 19711 19912 19913 19712 
4 19712 19913 19914 19713 
4 19713 19914 19915 19714 
4 19714 19915 19916 19715 
4 19715 19916 19917 19716 
4 19716 19917 19918 19717 
4 19717 19918 19919 19718 
4 19718 19919 19920 19719 
4 19719 19920 19921 19720 
4 19720 19921 19922 19721 
4 19721 19922 19923 19722 
4 19722 19923 19924 19723 
4 19723 19924 19925 19724 
4 19724 19925 19926 19725 
4 19725 19926 19927 19726 
4 19726 19927 19928 19727 
4 19727 19928 19929 19728 
4 19728 19929 19930 19729 
4 19729 19930 19931 19730 
4 19730 19931 19932 19731 
4 19731 19932 19933 19732 
4 19732 19933 19934 19733 
4 19733 19934 19935 19734 
4 19734 19935 19936 19735 
4 19735 19936 19937 19736 
4 19736 19937 19938 19737 
4 19737 19938 19939 19738 
4 19738 19939 19940 19739 
4 19739 19940 19941 19740 
4 19740 19941 19942 19741 
4 19741 19942 19943 19742 
4 19742 19943 19944 19743 
4 19743 19944 19945 19744 
4 19744 19945 19946 19745 
4 19745 19946 19947 19746 
4 19746 19947 19948 19747 
4 19747 19948 19949 19748 
4 19748 19949 19950 19749 
4 19749 19950 19951 19750 
4 19750 19951 19952 19751 
4 19751 19952 19953 19752 
4 19752 19953 19954 19753 
4 19753 19954 19955 19754 
4 19754 19955 19956 19755 
4 19755 19956 19957 19756 
4 19756 19957 19958 19757 
4 19757 19958 19959 19758 
4 19758 19959 19960 19759 
4 19759 19960 19961 19760 
4 19760 19961 19962 19761 
4 19761 19962 19963 19762 
4 19762 19963 19964 19763 
4 19763 19964 19965 19764 
4 19764 19965 19966 19765 
4 19765 19966 19967 19766 
4 19766 19967 19968 19767 
4 19767 19968 19969 19768 
4 19768 19969 19970 19769 
4 19769 19970 19971 19770 
4 19770 19971 19972 19771 
4 19771 19972 19973 19772 
4 19772 19973 19974 19773 
4 19773 19974 19975 19774 
4 19774 19975 19976 19775 
4 19775 19976 19977 19776 
4 19776 19977 19978 19777 
4 19777 19978 19979 19778 
4 19778 19979 19980 19779 
4 19779 19980 19981 19780 
4 19780 19981 19982 19781 
4 19781 19982 19983 19782 
4 19782 19983 19984 19783 
4 19783 19984 19985 19784 
4 19784 19985 19986 19785 
4 19785 19986 19987 19786 
4 19786 19987 19988 19787 
4 19787 19988 19989 19788 
4 19788 19989 19990 19789 
4 19789 19990 19991 19790 
4 19790 19991 19992 19791 
4 19791 19992 19993 19792 
4 19792 19993 19994 19793 
4 19793 19994 19995 19794 
4 19794 19995 19996 19795 
4 19795 19996 19997 19796 
4 19796 19997 19998 19797 
4 19797 19998 19999 19798 
4 19798 19999 20000 19799 
4 19799 20000 20001 19800 
4 19800 20001 20002 19801 
4 19801 20002 20003 19802 
4 19802 20003 20004 19803 
4 19803 20004 20005 19804 
4 19804 20005 20006 19805 
4 19805 20006 20007 19806 
4 19806 20007 20008 19807 
4 19807 20008 20009 19808 
4 19808 20009 20010 19809 
4 19809 20010 20011 19810 
4 19810 20011 20012 19811 
4 19811 20012 20013 19812 
4 19812 20013 20014 19813 
4 19813 20014 20015 19814 
4 19814 20015 20016 19815 
4 19815 20016 20017 19816 
4 19816 20017 20018 19817 
4 19817 20018 20019 19818 
4 19818 20019 20020 19819 
4 19819 20020 20021 19820 
4 19820 20021 20022 19821 
4 19821 20022 20023 19822 
4 19822 20023 20024 19823 
4 19823 20024 20025 19824 
4 19824 20025 20026 19825 
4 19825 20026 20027 19826 
4 19826 20027 20028 19827 
4 19827 20028 20029 19828 
4 19828 20029 20030 19829 
4 19829 20030 20031 19830 
4 19830 20031 20032 19831 
4 19831 20032 20033 19832 
4 19832 20033 20034 19833 
4 19833 20034 20035 19834 
4 19834 20035 20036 19835 
4 19835 20036 20037 19836 
4 19836 20037 20038 19837 
4 19837 20038 20039 19838 
4 19838 20039 20040 19839 
4 19839 20040 20041 19840 
4 19840 20041 20042 19841 
4 19841 20042 20043 19842 
4 19842 20043 20044 19843 
4 19843 20044 20045 19844 
4 19844 20045 20046 19845 
4 19845 20046 20047 19846 
4 19846 20047 20048 19847 
4 19847 20048 20049 19848 
4 19848 20049 20050 19849 
4 19849 20050 20051 19850 
4 19850 20051 20052 19851 
4 19851 20052 20053 19852 
4 19852 20053 20054 19853 
4 19853 20054 20055 19854 
4 19854 20055 20056 19855 
4 19855 20056 20057 19856 
4 19856 20057 20058 19857 
4 19857 20058 20059 19858 
4 19858 20059 20060 19859 
4 19859 20060 20061 19860 
4 19860 20061 20062 19861 
4 19861 20062 20063 19862 
4 19862 20063 20064 19863 
4 19863 20064 20065 19864 
4 19864 20065 20066 19865 
4 19865 20066 20067 19866 
4 19866 20067 20068 19867 
4 19867 20068 20069 19868 
4 19868 20069 20070 19869 
4 19869 20070 20071 19870 
4 19870 20071 20072 19871 
4 19871 20072 20073 19872 
4 19872 20073 20074 19873 
4 19873 20074 20075 19874 
4 19874 20075 20076 19875 
4 19875 20076 20077 19876 
4 19876 20077 20078 19877 
4 19877 20078 20079 19878 
4 19878 20079 20080 19879 
4 19879 20080 20081 19880 
4 19880 20081 20082 19881 
4 19881 20082 20083 19882 
4 19882 20083 20084 19883 
4 19883 20084 20085 19884 
4 19884 20085 20086 19885 
4 19885 20086 20087 19886 
4 19886 20087 20088 19887 
4 19887 20088 20089 19888 
4 19888 20089 20090 19889 
4 19889 20090 20091 19890 
4 19890 20091 20092 19891 
4 19891 20092 20093 19892 
4 19892 20093 20094 19893 
4 19893 20094 20095 19894 
4 19894 20095 20096 19895 
4 19895 20096 20097 19896 
4 19896 20097 20098 19897 
4 19897 20098 20099 19898 
4 19899 20100 20101 19900 
4 19900 20101 20102 19901 
4 19901 20102 20103 19902 
4 19902 20103 20104 19903 
4 19903 20104 20105 19904 
4 19904 20105 20106 19905 
4 19905 20106 20107 19906 
4 19906 20107 20108 19907 
4 19907 20108 20109 19908 
4 19908 20109 20110 19909 
4 19909 20110 20111 19910 
4 19910 20111 20112 19911 
4 19911 20112 20113 19912 
4 19912 20113 20114 19913 
4 19913 20114 20115 19914 
4 19914 20115 20116 19915 
4 19915 20116 20117 19916 
4 19916 20117 20118 19917 
4 19917 20118 20119 19918 
4 19918 20119 20120 19919 
4 19919 20120 20121 19920 
4 19920 20121 20122 19921 
4 19921 20122 20123 19922 
4 19922 20123 20124 19923 
4 19923 20124 20125 19924 
4 19924 20125 20126 19925 
4 19925 20126 20127 19926 
4 19926 20127 20128 19927 
4 19927 20128 20129 19928 
4 19928 20129 20130 19929 
4 19929 20130 20131 19930 
4 19930 20131 20132 19931 
4 19931 20132 20133 19932 
4 19932 20133 20134 19933 
4 19933 20134 20135 19934 
4 19934 20135 20136 19935 
4 19935 20136 20137 19936 
4 19936 20137 20138 19937 
4 19937 20138 20139 19938 
4 19938 20139 20140 19939 
4 19939 20140 20141 19940 
4 19940 20141 20142 19941 
4 19941 20142 20143 19942 
4 19942 20143 20144 19943 
4 19943 20144 20145 19944 
4 19944 20145 20146 19945 
4 19945 20146 20147 19946 
4 19946 20147 20148 19947 
4 19947 20148 20149 19948 
4 19948 20149 20150 19949 
4 19949 20150 20151 19950 
4 19950 20151 20152 19951 
4 19951 20152 20153 19952 
4 19952 20153 20154 19953 
4 19953 20154 20155 19954 
4 19954 20155 20156 19955 
4 19955 20156 20157 19956 
4 19956 20157 20158 19957 
4 19957 20158 20159 19958 
4 19958 20159 20160 19959 
4 19959 20160 20161 19960 
4 19960 20161 20162 19961 
4 19961 20162 20163 19962 
4 19962 20163 20164 19963 
4 19963 20164 20165 19964 
4 19964 20165 20166 19965 
4 19965 20166 20167 19966 
4 19966 20167 20168 19967 
4 19967 20168 20169 19968 
4 19968 20169 20170 19969 
4 19969 20170 20171 19970 
4 19970 20171 20172 19971 
4 19971 20172 20173 19972 
4 19972 20173 20174 19973 
4 19973 20174 20175 19974 
4 19974 20175 20176 19975 
4 19975 20176 20177 19976 
4 19976 20177 20178 19977 
4 19977 20178 20179 19978 
4 19978 20179 20180 19979 
4 19979 20180 20181 19980 
4 19980 20181 20182 19981 
4 19981 20182 20183 19982 
4 19982 20183 20184 19983 
4 19983 20184 20185 19984 
4 19984 20185 20186 19985 
4 19985 20186 20187 19986 
4 19986 20187 20188 19987 
4 19987 20188 20189 19988 
4 19988 20189 20190 19989 
4 19989 20190 20191 19990 
4 19990 20191 20192 19991 
4 19991 20192 20193 19992 
4 19992 20193 20194 19993 
4 19993 20194 20195 19994 
4 19994 20195 20196 19995 
4 19995 20196 20197 19996 
4 19996 20197 20198 19997 
4 19997 20198 20199 19998 
4 19998 20199 20200 19999 
4 19999 20200 20201 20000 
4 20000 20201 20202 20001 
4 20001 20202 20203 20002 
4 20002 20203 20204 20003 
4 20003 20204 20205 20004 
4 20004 20205 20206 20005 
4 20005 20206 20207 20006 
4 20006 20207 20208 20007 
4 20007 20208 20209 20008 
4 20008 20209 20210 20009 
4 20009 20210 20211 20010 
4 20010 20211 20212 20011 
4 20011 20212 20213 20012 
4 20012 20213 20214 20013 
4 20013 20214 20215 20014 
4 20014 20215 20216 20015 
4 20015 20216 20217 20016 
4 20016 20217 20218 20017 
4 20017 20218 20219 20018 
4 20018 20219 20220 20019 
4 20019 20220 20221 20020 
4 20020 20221 20222 20021 
4 20021 20222 20223 20022 
4 20022 20223 20224 20023 
4 20023 20224 20225 20024 
4 20024 20225 20226 20025 
4 20025 20226 20227 20026 
4 20026 20227 20228 20027 
4 20027 20228 20229 20028 
4 20028 20229 20230 20029 
4 20029 20230 20231 20030 
4 20030 20231 20232 20031 
4 20031 20232 20233 20032 
4 20032 20233 20234 20033 
4 20033 20234 20235 20034 
4 20034 20235 20236 20035 
4 20035 20236 20237 20036 
4 20036 20237 20238 20037 
4 20037 20238 20239 20038 
4 20038 20239 20240 20039 
4 20039 20240 20241 20040 
4 20040 20241 20242 20041 
4 20041 20242 20243 20042 
4 20042 20243 20244 20043 
4 20043 20244 20245 20044 
4 20044 20245 20246 20045 
4 20045 20246 20247 20046 
4 20046 20247 20248 20047 
4 20047 20248 20249 20048 
4 20048 20249 20250 20049 
4 20049 20250 20251 20050 
4 20050 20251 20252 20051 
4 20051 20252 20253 20052 
4 20052 20253 20254 20053 
4 20053 20254 20255 20054 
4 20054 20255 20256 20055 
4 20055 20256 20257 20056 
4 20056 20257 20258 20057 
4 20057 20258 20259 20058 
4 20058 20259 20260 20059 
4 20059 20260 20261 20060 
4 20060 20261 20262 20061 
4 20061 20262 20263 20062 
4 20062 20263 20264 20063 
4 20063 20264 20265 20064 
4 20064 20265 20266 20065 
4 20065 20266 20267 20066 
4 20066 20267 20268 20067 
4 20067 20268 20269 20068 
4 20068 20269 20270 20069 
4 20069 20270 20271 20070 
4 20070 20271 20272 20071 
4 20071 20272 20273 20072 
4 20072 20273 20274 20073 
4 20073 20274 20275 20074 
4 20074 20275 20276 20075 
4 20075 20276 20277 20076 
4 20076 20277 20278 20077 
4 20077 20278 20279 20078 
4 20078 20279 20280 20079 
4 20079 20280 20281 20080 
4 20080 20281 20282 20081 
4 20081 20282 20283 20082 
4 20082 20283 20284 20083 
4 20083 20284 20285 20084 
4 20084 20285 20286 20085 
4 20085 20286 20287 20086 
4 20086 20287 20288 20087 
4 20087 20288 20289 20088 
4 20088 20289 20290 20089 
4 20089 20290 20291 20090 
4 20090 20291 20292 20091 
4 20091 20292 20293 20092 
4 20092 20293 20294 20093 
4 20093 20294 20295 20094 
4 20094 20295 20296 20095 
4 20095 20296 20297 20096 
4 20096 20297 20298 20097 
4 20097 20298 20299 20098 
4 20098 20299 20300 20099 
CELL_TYPES 20000 
9 
9 
9 
9 
9 
9 
9 
9 
9 
9 
9 
9 
9 
9 
9 
9 
9 
9 
9 
9 
9 
9 
9 
9 
9 
9 
9 
9 
9 
9 
9 
9 
9 
9 
9 
9 
9 
9 
9 
9 
9 
9 
9 
9 
9 
9 
9 
9 
9 
9 
9 
9 
9 
9 
9 
9 
9 
9 
9 
9 
9 
9 
9 
9 
9 
9 
9 
9 
9 
9 
9 
9 
9 
9 
9 
9 
9 
9 
9 
9 
9 
9 
9 
9 
9 
9 
9 
9 
9 
9 
9 
9 
9 
9 
9 
9 
9 
9 
9 
9 
9 
9 
9 
9 
9 
9 
9 
9 
9 
9 
9 
9 
9 
9 
9 
9 
9 
9 
9 
9 
9 
9 
9 
9 
9 
9 
9 
9 
9 
9 
9 
9 
9 
9 
9 
9 
9 
9 
9 
9 
9 
9 
9 
9 
9 
9 
9 
9 
9 
9 
9 
9 
9 
9 
9 
9 
9 
9 
9 
9 
9 
9 
9 
9 
9 
9 
9 
9 
9 
9 
9 
9 
9 
9 
9 
9 
9 
9 
9 
9 
9 
9 
9 
9 
9 
9 
9 
9 
9 
9 
9 
9 
9 
9 
9 
9 
9 
9 
9 
9 
9 
9 
9 
9 
9 
9 
9 
9 
9 
9 
9 
9 
9 
9 
9 
9 
9 
9 
9 
9 
9 
9 
9 
9 
9 
9 
9 
9 
9 
9 
9 
9 
9 
9 
9 
9 
9 
9 
9 
9 
9 
9 
9 
9 
9 
9 
9 
9 
9 
9 
9 
9 
9 
9 
9 
9 
9 
9 
9 
9 
9 
9 
9 
9 
9 
9 
9 
9 
9 
9 
9 
9 
9 
9 
9 
9 
9 
9 
9 
9 
9 
9 
9 
9 
9 
9 
9 
9 
9 
9 
9 
9 
9 
9 
9 
9 
9 
9 
9 
9 
9 
9 
9 
9 
9 
9 
9 
9 
9 
9 
9 
9 
9 
9 
9 
9 
9 
9 
9 
9 
9 
9 
9 
9 
9 
9 
9 
9 
9 
9 
9 
9 
9 
9 
9 
9 
9 
9 
9 
9 
9 
9 
9 
9 
9 
9 
9 
9 
9 
9 
9 
9 
9 
9 
9 
9 
9 
9 
9 
9 
9 
9 
9 
9 
9 
9 
9 
9 
9 
9 
9 
9 
9 
9 
9 
9 
9 
9 
9 
9 
9 
9 
9 
9 
9 
9 
9 
9 
9 
9 
9 
9 
9 
9 
9 
9 
9 
9 
9 
9 
9 
9 
9 
9 
9 
9 
9 
9 
9 
9 
9 
9 
9 
9 
9 
9 
9 
9 
9 
9 
9 
9 
9 
9 
9 
9 
9 
9 
9 
9 
9 
9 
9 
9 
9 
9 
9 
9 
9 
9 
9 
9 
9 
9 
9 
9 
9 
9 
9 
9 
9 
9 
9 
9 
9 
9 
9 
9 
9 
9 
9 
9 
9 
9 
9 
9 
9 
9 
9 
9 
9 
9 
9 
9 
9 
9 
9 
9 
9 
9 
9 
9 
9 
9 
9 
9 
9 
9 
9 
9 
9 
9 
9 
9 
9 
9 
9 
9 
9 
9 
9 
9 
9 
9 
9 
9 
9 
9 
9 
9 
9 
9 
9 
9 
9 
9 
9 
9 
9 
9 
9 
9 
9 
9 
9 
9 
9 
9 
9 
9 
9 
9 
9 
9 
9 
9 
9 
9 
9 
9 
9 
9 
9 
9 
9 
9 
9 
9 
9 
9 
9 
9 
9 
9 
9 
9 
9 
9 
9 
9 
9 
9 
9 
9 
9 
9 
9 
9 
9 
9 
9 
9 
9 
9 
9 
9 
9 
9 
9 
9 
9 
9 
9 
9 
9 
9 
9 
9 
9 
9 
9 
9 
9 
9 
9 
9 
9 
9 
9 
9 
9 
9 
9 
9 
9 
9 
9 
9 
9 
9 
9 
9 
9 
9 
9 
9 
9 
9 
9 
9 
9 
9 
9 
9 
9 
9 
9 
9 
9 
9 
9 
9 
9 
9 
9 
9 
9 
9 
9 
9 
9 
9 
9 
9 
9 
9 
9 
9 
9 
9 
9 
9 
9 
9 
9 
9 
9 
9 
9 
9 
9 
9 
9 
9 
9 
9 
9 
9 
9 
9 
9 
9 
9 
9 
9 
9 
9 
9 
9 
9 
9 
9 
9 
9 
9 
9 
9 
9 
9 
9 
9 
9 
9 
9 
9 
9 
9 
9 
9 
9 
9 
9 
9 
9 
9 
9 
9 
9 
9 
9 
9 
9 
9 
9 
9 
9 
9 
9 
9 
9 
9 
9 
9 
9 
9 
9 
9 
9 
9 
9 
9 
9 
9 
9 
9 
9 
9 
9 
9 
9 
9 
9 
9 
9 
9 
9 
9 
9 
9 
9 
9 
9 
9 
9 
9 
9 
9 
9 
9 
9 
9 
9 
9 
9 
9 
9 
9 
9 
9 
9 
9 
9 
9 
9 
9 
9 
9 
9 
9 
9 
9 
9 
9 
9 
9 
9 
9 
9 
9 
9 
9 
9 
9 
9 
9 
9 
9 
9 
9 
9 
9 
9 
9 
9 
9 
9 
9 
9 
9 
9 
9 
9 
9 
9 
9 
9 
9 
9 
9 
9 
9 
9 
9 
9 
9 
9 
9 
9 
9 
9 
9 
9 
9 
9 
9 
9 
9 
9 
9 
9 
9 
9 
9 
9 
9 
9 
9 
9 
9 
9 
9 
9 
9 
9 
9 
9 
9 
9 
9 
9 
9 
9 
9 
9 
9 
9 
9 
9 
9 
9 
9 
9 
9 
9 
9 
9 
9 
9 
9 
9 
9 
9 
9 
9 
9 
9 
9 
9 
9 
9 
9 
9 
9 
9 
9 
9 
9 
9 
9 
9 
9 
9 
9 
9 
9 
9 
9 
9 
9 
9 
9 
9 
9 
9 
9 
9 
9 
9 
9 
9 
9 
9 
9 
9 
9 
9 
9 
9 
9 
9 
9 
9 
9 
9 
9 
9 
9 
9 
9 
9 
9 
9 
9 
9 
9 
9 
9 
9 
9 
9 
9 
9 
9 
9 
9 
9 
9 
9 
9 
9 
9 
9 
9 
9 
9 
9 
9 
9 
9 
9 
9 
9 
9 
9 
9 
9 
9 
9 
9 
9 
9 
9 
9 
9 
9 
9 
9 
9 
9 
9 
9 
9 
9 
9 
9 
9 
9 
9 
9 
9 
9 
9 
9 
9 
9 
9 
9 
9 
9 
9 
9 
9 
9 
9 
9 
9 
9 
9 
9 
9 
9 
9 
9 
9 
9 
9 
9 
9 
9 
9 
9 
9 
9 
9 
9 
9 
9 
9 
9 
9 
9 
9 
9 
9 
9 
9 
9 
9 
9 
9 
9 
9 
9 
9 
9 
9 
9 
9 
9 
9 
9 
9 
9 
9 
9 
9 
9 
9 
9 
9 
9 
9 
9 
9 
9 
9 
9 
9 
9 
9 
9 
9 
9 
9 
9 
9 
9 
9 
9 
9 
9 
9 
9 
9 
9 
9 
9 
9 
9 
9 
9 
9 
9 
9 
9 
9 
9 
9 
9 
9 
9 
9 
9 
9 
9 
9 
9 
9 
9 
9 
9 
9 
9 
9 
9 
9 
9 
9 
9 
9 
9 
9 
9 
9 
9 
9 
9 
9 
9 
9 
9 
9 
9 
9 
9 
9 
9 
9 
9 
9 
9 
9 
9 
9 
9 
9 
9 
9 
9 
9 
9 
9 
9 
9 
9 
9 
9 
9 
9 
9 
9 
9 
9 
9 
9 
9 
9 
9 
9 
9 
9 
9 
9 
9 
9 
9 
9 
9 
9 
9 
9 
9 
9 
9 
9 
9 
9 
9 
9 
9 
9 
9 
9 
9 
9 
9 
9 
9 
9 
9 
9 
9 
9 
9 
9 
9 
9 
9 
9 
9 
9 
9 
9 
9 
9 
9 
9 
9 
9 
9 
9 
9 
9 
9 
9 
9 
9 
9 
9 
9 
9 
9 
9 
9 
9 
9 
9 
9 
9 
9 
9 
9 
9 
9 
9 
9 
9 
9 
9 
9 
9 
9 
9 
9 
9 
9 
9 
9 
9 
9 
9 
9 
9 
9 
9 
9 
9 
9 
9 
9 
9 
9 
9 
9 
9 
9 
9 
9 
9 
9 
9 
9 
9 
9 
9 
9 
9 
9 
9 
9 
9 
9 
9 
9 
9 
9 
9 
9 
9 
9 
9 
9 
9 
9 
9 
9 
9 
9 
9 
9 
9 
9 
9 
9 
9 
9 
9 
9 
9 
9 
9 
9 
9 
9 
9 
9 
9 
9 
9 
9 
9 
9 
9 
9 
9 
9 
9 
9 
9 
9 
9 
9 
9 
9 
9 
9 
9 
9 
9 
9 
9 
9 
9 
9 
9 
9 
9 
9 
9 
9 
9 
9 
9 
9 
9 
9 
9 
9 
9 
9 
9 
9 
9 
9 
9 
9 
9 
9 
9 
9 
9 
9 
9 
9 
9 
9 
9 
9 
9 
9 
9 
9 
9 
9 
9 
9 
9 
9 
9 
9 
9 
9 
9 
9 
9 
9 
9 
9 
9 
9 
9 
9 
9 
9 
9 
9 
9 
9 
9 
9 
9 
9 
9 
9 
9 
9 
9 
9 
9 
9 
9 
9 
9 
9 
9 
9 
9 
9 
9 
9 
9 
9 
9 
9 
9 
9 
9 
9 
9 
9 
9 
9 
9 
9 
9 
9 
9 
9 
9 
9 
9 
9 
9 
9 
9 
9 
9 
9 
9 
9 
9 
9 
9 
9 
9 
9 
9 
9 
9 
9 
9 
9 
9 
9 
9 
9 
9 
9 
9 
9 
9 
9 
9 
9 
9 
9 
9 
9 
9 
9 
9 
9 
9 
9 
9 
9 
9 
9 
9 
9 
9 
9 
9 
9 
9 
9 
9 
9 
9 
9 
9 
9 
9 
9 
9 
9 
9 
9 
9 
9 
9 
9 
9 
9 
9 
9 
9 
9 
9 
9 
9 
9 
9 
9 
9 
9 
9 
9 
9 
9 
9 
9 
9 
9 
9 
9 
9 
9 
9 
9 
9 
9 
9 
9 
9 
9 
9 
9 
9 
9 
9 
9 
9 
9 
9 
9 
9 
9 
9 
9 
9 
9 
9 
9 
9 
9 
9 
9 
9 
9 
9 
9 
9 
9 
9 
9 
9 
9 
9 
9 
9 
9 
9 
9 
9 
9 
9 
9 
9 
9 
9 
9 
9 
9 
9 
9 
9 
9 
9 
9 
9 
9 
9 
9 
9 
9 
9 
9 
9 
9 
9 
9 
9 
9 
9 
9 
9 
9 
9 
9 
9 
9 
9 
9 
9 
9 
9 
9 
9 
9 
9 
9 
9 
9 
9 
9 
9 
9 
9 
9 
9 
9 
9 
9 
9 
9 
9 
9 
9 
9 
9 
9 
9 
9 
9 
9 
9 
9 
9 
9 
9 
9 
9 
9 
9 
9 
9 
9 
9 
9 
9 
9 
9 
9 
9 
9 
9 
9 
9 
9 
9 
9 
9 
9 
9 
9 
9 
9 
9 
9 
9 
9 
9 
9 
9 
9 
9 
9 
9 
9 
9 
9 
9 
9 
9 
9 
9 
9 
9 
9 
9 
9 
9 
9 
9 
9 
9 
9 
9 
9 
9 
9 
9 
9 
9 
9 
9 
9 
9 
9 
9 
9 
9 
9 
9 
9 
9 
9 
9 
9 
9 
9 
9 
9 
9 
9 
9 
9 
9 
9 
9 
9 
9 
9 
9 
9 
9 
9 
9 
9 
9 
9 
9 
9 
9 
9 
9 
9 
9 
9 
9 
9 
9 
9 
9 
9 
9 
9 
9 
9 
9 
9 
9 
9 
9 
9 
9 
9 
9 
9 
9 
9 
9 
9 
9 
9 
9 
9 
9 
9 
9 
9 
9 
9 
9 
9 
9 
9 
9 
9 
9 
9 
9 
9 
9 
9 
9 
9 
9 
9 
9 
9 
9 
9 
9 
9 
9 
9 
9 
9 
9 
9 
9 
9 
9 
9 
9 
9 
9 
9 
9 
9 
9 
9 
9 
9 
9 
9 
9 
9 
9 
9 
9 
9 
9 
9 
9 
9 
9 
9 
9 
9 
9 
9 
9 
9 
9 
9 
9 
9 
9 
9 
9 
9 
9 
9 
9 
9 
9 
9 
9 
9 
9 
9 
9 
9 
9 
9 
9 
9 
9 
9 
9 
9 
9 
9 
9 
9 
9 
9 
9 
9 
9 
9 
9 
9 
9 
9 
9 
9 
9 
9 
9 
9 
9 
9 
9 
9 
9 
9 
9 
9 
9 
9 
9 
9 
9 
9 
9 
9 
9 
9 
9 
9 
9 
9 
9 
9 
9 
9 
9 
9 
9 
9 
9 
9 
9 
9 
9 
9 
9 
9 
9 
9 
9 
9 
9 
9 
9 
9 
9 
9 
9 
9 
9 
9 
9 
9 
9 
9 
9 
9 
9 
9 
9 
9 
9 
9 
9 
9 
9 
9 
9 
9 
9 
9 
9 
9 
9 
9 
9 
9 
9 
9 
9 
9 
9 
9 
9 
9 
9 
9 
9 
9 
9 
9 
9 
9 
9 
9 
9 
9 
9 
9 
9 
9 
9 
9 
9 
9 
9 
9 
9 
9 
9 
9 
9 
9 
9 
9 
9 
9 
9 
9 
9 
9 
9 
9 
9 
9 
9 
9 
9 
9 
9 
9 
9 
9 
9 
9 
9 
9 
9 
9 
9 
9 
9 
9 
9 
9 
9 
9 
9 
9 
9 
9 
9 
9 
9 
9 
9 
9 
9 
9 
9 
9 
9 
9 
9 
9 
9 
9 
9 
9 
9 
9 
9 
9 
9 
9 
9 
9 
9 
9 
9 
9 
9 
9 
9 
9 
9 
9 
9 
9 
9 
9 
9 
9 
9 
9 
9 
9 
9 
9 
9 
9 
9 
9 
9 
9 
9 
9 
9 
9 
9 
9 
9 
9 
9 
9 
9 
9 
9 
9 
9 
9 
9 
9 
9 
9 
9 
9 
9 
9 
9 
9 
9 
9 
9 
9 
9 
9 
9 
9 
9 
9 
9 
9 
9 
9 
9 
9 
9 
9 
9 
9 
9 
9 
9 
9 
9 
9 
9 
9 
9 
9 
9 
9 
9 
9 
9 
9 
9 
9 
9 
9 
9 
9 
9 
9 
9 
9 
9 
9 
9 
9 
9 
9 
9 
9 
9 
9 
9 
9 
9 
9 
9 
9 
9 
9 
9 
9 
9 
9 
9 
9 
9 
9 
9 
9 
9 
9 
9 
9 
9 
9 
9 
9 
9 
9 
9 
9 
9 
9 
9 
9 
9 
9 
9 
9 
9 
9 
9 
9 
9 
9 
9 
9 
9 
9 
9 
9 
9 
9 
9 
9 
9 
9 
9 
9 
9 
9 
9 
9 
9 
9 
9 
9 
9 
9 
9 
9 
9 
9 
9 
9 
9 
9 
9 
9 
9 
9 
9 
9 
9 
9 
9 
9 
9 
9 
9 
9 
9 
9 
9 
9 
9 
9 
9 
9 
9 
9 
9 
9 
9 
9 
9 
9 
9 
9 
9 
9 
9 
9 
9 
9 
9 
9 
9 
9 
9 
9 
9 
9 
9 
9 
9 
9 
9 
9 
9 
9 
9 
9 
9 
9 
9 
9 
9 
9 
9 
9 
9 
9 
9 
9 
9 
9 
9 
9 
9 
9 
9 
9 
9 
9 
9 
9 
9 
9 
9 
9 
9 
9 
9 
9 
9 
9 
9 
9 
9 
9 
9 
9 
9 
9 
9 
9 
9 
9 
9 
9 
9 
9 
9 
9 
9 
9 
9 
9 
9 
9 
9 
9 
9 
9 
9 
9 
9 
9 
9 
9 
9 
9 
9 
9 
9 
9 
9 
9 
9 
9 
9 
9 
9 
9 
9 
9 
9 
9 
9 
9 
9 
9 
9 
9 
9 
9 
9 
9 
9 
9 
9 
9 
9 
9 
9 
9 
9 
9 
9 
9 
9 
9 
9 
9 
9 
9 
9 
9 
9 
9 
9 
9 
9 
9 
9 
9 
9 
9 
9 
9 
9 
9 
9 
9 
9 
9 
9 
9 
9 
9 
9 
9 
9 
9 
9 
9 
9 
9 
9 
9 
9 
9 
9 
9 
9 
9 
9 
9 
9 
9 
9 
9 
9 
9 
9 
9 
9 
9 
9 
9 
9 
9 
9 
9 
9 
9 
9 
9 
9 
9 
9 
9 
9 
9 
9 
9 
9 
9 
9 
9 
9 
9 
9 
9 
9 
9 
9 
9 
9 
9 
9 
9 
9 
9 
9 
9 
9 
9 
9 
9 
9 
9 
9 
9 
9 
9 
9 
9 
9 
9 
9 
9 
9 
9 
9 
9 
9 
9 
9 
9 
9 
9 
9 
9 
9 
9 
9 
9 
9 
9 
9 
9 
9 
9 
9 
9 
9 
9 
9 
9 
9 
9 
9 
9 
9 
9 
9 
9 
9 
9 
9 
9 
9 
9 
9 
9 
9 
9 
9 
9 
9 
9 
9 
9 
9 
9 
9 
9 
9 
9 
9 
9 
9 
9 
9 
9 
9 
9 
9 
9 
9 
9 
9 
9 
9 
9 
9 
9 
9 
9 
9 
9 
9 
9 
9 
9 
9 
9 
9 
9 
9 
9 
9 
9 
9 
9 
9 
9 
9 
9 
9 
9 
9 
9 
9 
9 
9 
9 
9 
9 
9 
9 
9 
9 
9 
9 
9 
9 
9 
9 
9 
9 
9 
9 
9 
9 
9 
9 
9 
9 
9 
9 
9 
9 
9 
9 
9 
9 
9 
9 
9 
9 
9 
9 
9 
9 
9 
9 
9 
9 
9 
9 
9 
9 
9 
9 
9 
9 
9 
9 
9 
9 
9 
9 
9 
9 
9 
9 
9 
9 
9 
9 
9 
9 
9 
9 
9 
9 
9 
9 
9 
9 
9 
9 
9 
9 
9 
9 
9 
9 
9 
9 
9 
9 
9 
9 
9 
9 
9 
9 
9 
9 
9 
9 
9 
9 
9 
9 
9 
9 
9 
9 
9 
9 
9 
9 
9 
9 
9 
9 
9 
9 
9 
9 
9 
9 
9 
9 
9 
9 
9 
9 
9 
9 
9 
9 
9 
9 
9 
9 
9 
9 
9 
9 
9 
9 
9 
9 
9 
9 
9 
9 
9 
9 
9 
9 
9 
9 
9 
9 
9 
9 
9 
9 
9 
9 
9 
9 
9 
9 
9 
9 
9 
9 
9 
9 
9 
9 
9 
9 
9 
9 
9 
9 
9 
9 
9 
9 
9 
9 
9 
9 
9 
9 
9 
9 
9 
9 
9 
9 
9 
9 
9 
9 
9 
9 
9 
9 
9 
9 
9 
9 
9 
9 
9 
9 
9 
9 
9 
9 
9 
9 
9 
9 
9 
9 
9 
9 
9 
9 
9 
9 
9 
9 
9 
9 
9 
9 
9 
9 
9 
9 
9 
9 
9 
9 
9 
9 
9 
9 
9 
9 
9 
9 
9 
9 
9 
9 
9 
9 
9 
9 
9 
9 
9 
9 
9 
9 
9 
9 
9 
9 
9 
9 
9 
9 
9 
9 
9 
9 
9 
9 
9 
9 
9 
9 
9 
9 
9 
9 
9 
9 
9 
9 
9 
9 
9 
9 
9 
9 
9 
9 
9 
9 
9 
9 
9 
9 
9 
9 
9 
9 
9 
9 
9 
9 
9 
9 
9 
9 
9 
9 
9 
9 
9 
9 
9 
9 
9 
9 
9 
9 
9 
9 
9 
9 
9 
9 
9 
9 
9 
9 
9 
9 
9 
9 
9 
9 
9 
9 
9 
9 
9 
9 
9 
9 
9 
9 
9 
9 
9 
9 
9 
9 
9 
9 
9 
9 
9 
9 
9 
9 
9 
9 
9 
9 
9 
9 
9 
9 
9 
9 
9 
9 
9 
9 
9 
9 
9 
9 
9 
9 
9 
9 
9 
9 
9 
9 
9 
9 
9 
9 
9 
9 
9 
9 
9 
9 
9 
9 
9 
9 
9 
9 
9 
9 
9 
9 
9 
9 
9 
9 
9 
9 
9 
9 
9 
9 
9 
9 
9 
9 
9 
9 
9 
9 
9 
9 
9 
9 
9 
9 
9 
9 
9 
9 
9 
9 
9 
9 
9 
9 
9 
9 
9 
9 
9 
9 
9 
9 
9 
9 
9 
9 
9 
9 
9 
9 
9 
9 
9 
9 
9 
9 
9 
9 
9 
9 
9 
9 
9 
9 
9 
9 
9 
9 
9 
9 
9 
9 
9 
9 
9 
9 
9 
9 
9 
9 
9 
9 
9 
9 
9 
9 
9 
9 
9 
9 
9 
9 
9 
9 
9 
9 
9 
9 
9 
9 
9 
9 
9 
9 
9 
9 
9 
9 
9 
9 
9 
9 
9 
9 
9 
9 
9 
9 
9 
9 
9 
9 
9 
9 
9 
9 
9 
9 
9 
9 
9 
9 
9 
9 
9 
9 
9 
9 
9 
9 
9 
9 
9 
9 
9 
9 
9 
9 
9 
9 
9 
9 
9 
9 
9 
9 
9 
9 
9 
9 
9 
9 
9 
9 
9 
9 
9 
9 
9 
9 
9 
9 
9 
9 
9 
9 
9 
9 
9 
9 
9 
9 
9 
9 
9 
9 
9 
9 
9 
9 
9 
9 
9 
9 
9 
9 
9 
9 
9 
9 
9 
9 
9 
9 
9 
9 
9 
9 
9 
9 
9 
9 
9 
9 
9 
9 
9 
9 
9 
9 
9 
9 
9 
9 
9 
9 
9 
9 
9 
9 
9 
9 
9 
9 
9 
9 
9 
9 
9 
9 
9 
9 
9 
9 
9 
9 
9 
9 
9 
9 
9 
9 
9 
9 
9 
9 
9 
9 
9 
9 
9 
9 
9 
9 
9 
9 
9 
9 
9 
9 
9 
9 
9 
9 
9 
9 
9 
9 
9 
9 
9 
9 
9 
9 
9 
9 
9 
9 
9 
9 
9 
9 
9 
9 
9 
9 
9 
9 
9 
9 
9 
9 
9 
9 
9 
9 
9 
9 
9 
9 
9 
9 
9 
9 
9 
9 
9 
9 
9 
9 
9 
9 
9 
9 
9 
9 
9 
9 
9 
9 
9 
9 
9 
9 
9 
9 
9 
9 
9 
9 
9 
9 
9 
9 
9 
9 
9 
9 
9 
9 
9 
9 
9 
9 
9 
9 
9 
9 
9 
9 
9 
9 
9 
9 
9 
9 
9 
9 
9 
9 
9 
9 
9 
9 
9 
9 
9 
9 
9 
9 
9 
9 
9 
9 
9 
9 
9 
9 
9 
9 
9 
9 
9 
9 
9 
9 
9 
9 
9 
9 
9 
9 
9 
9 
9 
9 
9 
9 
9 
9 
9 
9 
9 
9 
9 
9 
9 
9 
9 
9 
9 
9 
9 
9 
9 
9 
9 
9 
9 
9 
9 
9 
9 
9 
9 
9 
9 
9 
9 
9 
9 
9 
9 
9 
9 
9 
9 
9 
9 
9 
9 
9 
9 
9 
9 
9 
9 
9 
9 
9 
9 
9 
9 
9 
9 
9 
9 
9 
9 
9 
9 
9 
9 
9 
9 
9 
9 
9 
9 
9 
9 
9 
9 
9 
9 
9 
9 
9 
9 
9 
9 
9 
9 
9 
9 
9 
9 
9 
9 
9 
9 
9 
9 
9 
9 
9 
9 
9 
9 
9 
9 
9 
9 
9 
9 
9 
9 
9 
9 
9 
9 
9 
9 
9 
9 
9 
9 
9 
9 
9 
9 
9 
9 
9 
9 
9 
9 
9 
9 
9 
9 
9 
9 
9 
9 
9 
9 
9 
9 
9 
9 
9 
9 
9 
9 
9 
9 
9 
9 
9 
9 
9 
9 
9 
9 
9 
9 
9 
9 
9 
9 
9 
9 
9 
9 
9 
9 
9 
9 
9 
9 
9 
9 
9 
9 
9 
9 
9 
9 
9 
9 
9 
9 
9 
9 
9 
9 
9 
9 
9 
9 
9 
9 
9 
9 
9 
9 
9 
9 
9 
9 
9 
9 
9 
9 
9 
9 
9 
9 
9 
9 
9 
9 
9 
9 
9 
9 
9 
9 
9 
9 
9 
9 
9 
9 
9 
9 
9 
9 
9 
9 
9 
9 
9 
9 
9 
9 
9 
9 
9 
9 
9 
9 
9 
9 
9 
9 
9 
9 
9 
9 
9 
9 
9 
9 
9 
9 
9 
9 
9 
9 
9 
9 
9 
9 
9 
9 
9 
9 
9 
9 
9 
9 
9 
9 
9 
9 
9 
9 
9 
9 
9 
9 
9 
9 
9 
9 
9 
9 
9 
9 
9 
9 
9 
9 
9 
9 
9 
9 
9 
9 
9 
9 
9 
9 
9 
9 
9 
9 
9 
9 
9 
9 
9 
9 
9 
9 
9 
9 
9 
9 
9 
9 
9 
9 
9 
9 
9 
9 
9 
9 
9 
9 
9 
9 
9 
9 
9 
9 
9 
9 
9 
9 
9 
9 
9 
9 
9 
9 
9 
9 
9 
9 
9 
9 
9 
9 
9 
9 
9 
9 
9 
9 
9 
9 
9 
9 
9 
9 
9 
9 
9 
9 
9 
9 
9 
9 
9 
9 
9 
9 
9 
9 
9 
9 
9 
9 
9 
9 
9 
9 
9 
9 
9 
9 
9 
9 
9 
9 
9 
9 
9 
9 
9 
9 
9 
9 
9 
9 
9 
9 
9 
9 
9 
9 
9 
9 
9 
9 
9 
9 
9 
9 
9 
9 
9 
9 
9 
9 
9 
9 
9 
9 
9 
9 
9 
9 
9 
9 
9 
9 
9 
9 
9 
9 
9 
9 
9 
9 
9 
9 
9 
9 
9 
9 
9 
9 
9 
9 
9 
9 
9 
9 
9 
9 
9 
9 
9 
9 
9 
9 
9 
9 
9 
9 
9 
9 
9 
9 
9 
9 
9 
9 
9 
9 
9 
9 
9 
9 
9 
9 
9 
9 
9 
9 
9 
9 
9 
9 
9 
9 
9 
9 
9 
9 
9 
9 
9 
9 
9 
9 
9 
9 
9 
9 
9 
9 
9 
9 
9 
9 
9 
9 
9 
9 
9 
9 
9 
9 
9 
9 
9 
9 
9 
9 
9 
9 
9 
9 
9 
9 
9 
9 
9 
9 
9 
9 
9 
9 
9 
9 
9 
9 
9 
9 
9 
9 
9 
9 
9 
9 
9 
9 
9 
9 
9 
9 
9 
9 
9 
9 
9 
9 
9 
9 
9 
9 
9 
9 
9 
9 
9 
9 
9 
9 
9 
9 
9 
9 
9 
9 
9 
9 
9 
9 
9 
9 
9 
9 
9 
9 
9 
9 
9 
9 
9 
9 
9 
9 
9 
9 
9 
9 
9 
9 
9 
9 
9 
9 
9 
9 
9 
9 
9 
9 
9 
9 
9 
9 
9 
9 
9 
9 
9 
9 
9 
9 
9 
9 
9 
9 
9 
9 
9 
9 
9 
9 
9 
9 
9 
9 
9 
9 
9 
9 
9 
9 
9 
9 
9 
9 
9 
9 
9 
9 
9 
9 
9 
9 
9 
9 
9 
9 
9 
9 
9 
9 
9 
9 
9 
9 
9 
9 
9 
9 
9 
9 
9 
9 
9 
9 
9 
9 
9 
9 
9 
9 
9 
9 
9 
9 
9 
9 
9 
9 
9 
9 
9 
9 
9 
9 
9 
9 
9 
9 
9 
9 
9 
9 
9 
9 
9 
9 
9 
9 
9 
9 
9 
9 
9 
9 
9 
9 
9 
9 
9 
9 
9 
9 
9 
9 
9 
9 
9 
9 
9 
9 
9 
9 
9 
9 
9 
9 
9 
9 
9 
9 
9 
9 
9 
9 
9 
9 
9 
9 
9 
9 
9 
9 
9 
9 
9 
9 
9 
9 
9 
9 
9 
9 
9 
9 
9 
9 
9 
9 
9 
9 
9 
9 
9 
9 
9 
9 
9 
9 
9 
9 
9 
9 
9 
9 
9 
9 
9 
9 
9 
9 
9 
9 
9 
9 
9 
9 
9 
9 
9 
9 
9 
9 
9 
9 
9 
9 
9 
9 
9 
9 
9 
9 
9 
9 
9 
9 
9 
9 
9 
9 
9 
9 
9 
9 
9 
9 
9 
9 
9 
9 
9 
9 
9 
9 
9 
9 
9 
9 
9 
9 
9 
9 
9 
9 
9 
9 
9 
9 
9 
9 
9 
9 
9 
9 
9 
9 
9 
9 
9 
9 
9 
9 
9 
9 
9 
9 
9 
9 
9 
9 
9 
9 
9 
9 
9 
9 
9 
9 
9 
9 
9 
9 
9 
9 
9 
9 
9 
9 
9 
9 
9 
9 
9 
9 
9 
9 
9 
9 
9 
9 
9 
9 
9 
9 
9 
9 
9 
9 
9 
9 
9 
9 
9 
9 
9 
9 
9 
9 
9 
9 
9 
9 
9 
9 
9 
9 
9 
9 
9 
9 
9 
9 
9 
9 
9 
9 
9 
9 
9 
9 
9 
9 
9 
9 
9 
9 
9 
9 
9 
9 
9 
9 
9 
9 
9 
9 
9 
9 
9 
9 
9 
9 
9 
9 
9 
9 
9 
9 
9 
9 
9 
9 
9 
9 
9 
9 
9 
9 
9 
9 
9 
9 
9 
9 
9 
9 
9 
9 
9 
9 
9 
9 
9 
9 
9 
9 
9 
9 
9 
9 
9 
9 
9 
9 
9 
9 
9 
9 
9 
9 
9 
9 
9 
9 
9 
9 
9 
9 
9 
9 
9 
9 
9 
9 
9 
9 
9 
9 
9 
9 
9 
9 
9 
9 
9 
9 
9 
9 
9 
9 
9 
9 
9 
9 
9 
9 
9 
9 
9 
9 
9 
9 
9 
9 
9 
9 
9 
9 
9 
9 
9 
9 
9 
9 
9 
9 
9 
9 
9 
9 
9 
9 
9 
9 
9 
9 
9 
9 
9 
9 
9 
9 
9 
9 
9 
9 
9 
9 
9 
9 
9 
9 
9 
9 
9 
9 
9 
9 
9 
9 
9 
9 
9 
9 
9 
9 
9 
9 
9 
9 
9 
9 
9 
9 
9 
9 
9 
9 
9 
9 
9 
9 
9 
9 
9 
9 
9 
9 
9 
9 
9 
9 
9 
9 
9 
9 
9 
9 
9 
9 
9 
9 
9 
9 
9 
9 
9 
9 
9 
9 
9 
9 
9 
9 
9 
9 
9 
9 
9 
9 
9 
9 
9 
9 
9 
9 
9 
9 
9 
9 
9 
9 
9 
9 
9 
9 
9 
9 
9 
9 
9 
9 
9 
9 
9 
9 
9 
9 
9 
9 
9 
9 
9 
9 
9 
9 
9 
9 
9 
9 
9 
9 
9 
9 
9 
9 
9 
9 
9 
9 
9 
9 
9 
9 
9 
9 
9 
9 
9 
9 
9 
9 
9 
9 
9 
9 
9 
9 
9 
9 
9 
9 
9 
9 
9 
9 
9 
9 
9 
9 
9 
9 
9 
9 
9 
9 
9 
9 
9 
9 
9 
9 
9 
9 
9 
9 
9 
9 
9 
9 
9 
9 
9 
9 
9 
9 
9 
9 
9 
9 
9 
9 
9 
9 
9 
9 
9 
9 
9 
9 
9 
9 
9 
9 
9 
9 
9 
9 
9 
9 
9 
9 
9 
9 
9 
9 
9 
9 
9 
9 
9 
9 
9 
9 
9 
9 
9 
9 
9 
9 
9 
9 
9 
9 
9 
9 
9 
9 
9 
9 
9 
9 
9 
9 
9 
9 
9 
9 
9 
9 
9 
9 
9 
9 
9 
9 
9 
9 
9 
9 
9 
9 
9 
9 
9 
9 
9 
9 
9 
9 
9 
9 
9 
9 
9 
9 
9 
9 
9 
9 
9 
9 
9 
9 
9 
9 
9 
9 
9 
9 
9 
9 
9 
9 
9 
9 
9 
9 
9 
9 
9 
9 
9 
9 
9 
9 
9 
9 
9 
9 
9 
9 
9 
9 
9 
9 
9 
9 
9 
9 
9 
9 
9 
9 
9 
9 
9 
9 
9 
9 
9 
9 
9 
9 
9 
9 
9 
9 
9 
9 
9 
9 
9 
9 
9 
9 
9 
9 
9 
9 
9 
9 
9 
9 
9 
9 
9 
9 
9 
9 
9 
9 
9 
9 
9 
9 
9 
9 
9 
9 
9 
9 
9 
9 
9 
9 
9 
9 
9 
9 
9 
9 
9 
9 
9 
9 
9 
9 
9 
9 
9 
9 
9 
9 
9 
9 
9 
9 
9 
9 
9 
9 
9 
9 
9 
9 
9 
9 
9 
9 
9 
9 
9 
9 
9 
9 
9 
9 
9 
9 
9 
9 
9 
9 
9 
9 
9 
9 
9 
9 
9 
9 
9 
9 
9 
9 
9 
9 
9 
9 
9 
9 
9 
9 
9 
9 
9 
9 
9 
9 
9 
9 
9 
9 
9 
9 
9 
9 
9 
9 
9 
9 
9 
9 
9 
9 
9 
9 
9 
9 
9 
9 
9 
9 
9 
9 
9 
9 
9 
9 
9 
9 
9 
9 
9 
9 
9 
9 
9 
9 
9 
9 
9 
9 
9 
9 
9 
9 
9 
9 
9 
9 
9 
9 
9 
9 
9 
9 
9 
9 
9 
9 
9 
9 
9 
9 
9 
9 
9 
9 
9 
9 
9 
9 
9 
9 
9 
9 
9 
9 
9 
9 
9 
9 
9 
9 
9 
9 
9 
9 
9 
9 
9 
9 
9 
9 
9 
9 
9 
9 
9 
9 
9 
9 
9 
9 
9 
9 
9 
9 
9 
9 
9 
9 
9 
9 
9 
9 
9 
9 
9 
9 
9 
9 
9 
9 
9 
9 
9 
9 
9 
9 
9 
9 
9 
9 
9 
9 
9 
9 
9 
9 
9 
9 
9 
9 
9 
9 
9 
9 
9 
9 
9 
9 
9 
9 
9 
9 
9 
9 
9 
9 
9 
9 
9 
9 
9 
9 
9 
9 
9 
9 
9 
9 
9 
9 
9 
9 
9 
9 
9 
9 
9 
9 
9 
9 
9 
9 
9 
9 
9 
9 
9 
9 
9 
9 
9 
9 
9 
9 
9 
9 
9 
9 
9 
9 
9 
9 
9 
9 
9 
9 
9 
9 
9 
9 
9 
9 
9 
9 
9 
9 
9 
9 
9 
9 
9 
9 
9 
9 
9 
9 
9 
9 
9 
9 
9 
9 
9 
9 
9 
9 
9 
9 
9 
9 
9 
9 
9 
9 
9 
9 
9 
9 
9 
9 
9 
9 
9 
9 
9 
9 
9 
9 
9 
9 
9 
9 
9 
9 
9 
9 
9 
9 
9 
9 
9 
9 
9 
9 
9 
9 
9 
9 
9 
9 
9 
9 
9 
9 
9 
9 
9 
9 
9 
9 
9 
9 
9 
9 
9 
9 
9 
9 
9 
9 
9 
9 
9 
9 
9 
9 
9 
9 
9 
9 
9 
9 
9 
9 
9 
9 
9 
9 
9 
9 
9 
9 
9 
9 
9 
9 
9 
9 
9 
9 
9 
9 
9 
9 
9 
9 
9 
9 
9 
9 
9 
9 
9 
9 
9 
9 
9 
9 
9 
9 
9 
9 
9 
9 
9 
9 
9 
9 
9 
9 
9 
9 
9 
9 
9 
9 
9 
9 
9 
9 
9 
9 
9 
9 
9 
9 
9 
9 
9 
9 
9 
9 
9 
9 
9 
9 
9 
9 
9 
9 
9 
9 
9 
9 
9 
9 
9 
9 
9 
9 
9 
9 
9 
9 
9 
9 
9 
9 
9 
9 
9 
9 
9 
9 
9 
9 
9 
9 
9 
9 
9 
9 
9 
9 
9 
9 
9 
9 
9 
9 
9 
9 
9 
9 
9 
9 
9 
9 
9 
9 
9 
9 
9 
9 
9 
9 
9 
9 
9 
9 
9 
9 
9 
9 
9 
9 
9 
9 
9 
9 
9 
9 
9 
9 
9 
9 
9 
9 
9 
9 
9 
9 
9 
9 
9 
9 
9 
9 
9 
9 
9 
9 
9 
9 
9 
9 
9 
9 
9 
9 
9 
9 
9 
9 
9 
9 
9 
9 
9 
9 
9 
9 
9 
9 
9 
9 
9 
9 
9 
9 
9 
9 
9 
9 
9 
9 
9 
9 
9 
9 
9 
9 
9 
9 
9 
9 
9 
9 
9 
9 
9 
9 
9 
9 
9 
9 
9 
9 
9 
9 
9 
9 
9 
9 
9 
9 
9 
9 
9 
9 
9 
9 
9 
9 
9 
9 
9 
9 
9 
9 
9 
9 
9 
9 
9 
9 
9 
9 
9 
9 
9 
9 
9 
9 
9 
9 
9 
9 
9 
9 
9 
9 
9 
9 
9 
9 
9 
9 
9 
9 
9 
9 
9 
9 
9 
9 
9 
9 
9 
9 
9 
9 
9 
9 
9 
9 
9 
9 
9 
9 
9 
9 
9 
9 
9 
9 
9 
9 
9 
9 
9 
9 
9 
9 
9 
9 
9 
9 
9 
9 
9 
9 
9 
9 
9 
9 
9 
9 
9 
9 
9 
9 
9 
9 
9 
9 
9 
9 
9 
9 
9 
9 
9 
9 
9 
9 
9 
9 
9 
9 
9 
9 
9 
9 
9 
9 
9 
9 
9 
9 
9 
9 
9 
9 
9 
9 
9 
9 
9 
9 
9 
9 
9 
9 
9 
9 
9 
9 
9 
9 
9 
9 
9 
9 
9 
9 
9 
9 
9 
9 
9 
9 
9 
9 
9 
9 
9 
9 
9 
9 
9 
9 
9 
9 
9 
9 
9 
9 
9 
9 
9 
9 
9 
9 
9 
9 
9 
9 
9 
9 
9 
9 
9 
9 
9 
9 
9 
9 
9 
9 
9 
9 
9 
9 
9 
9 
9 
9 
9 
9 
9 
9 
9 
9 
9 
9 
9 
9 
9 
9 
9 
9 
9 
9 
9 
9 
9 
9 
9 
9 
9 
9 
9 
9 
9 
9 
9 
9 
9 
9 
9 
9 
9 
9 
9 
9 
9 
9 
9 
9 
9 
9 
9 
9 
9 
9 
9 
9 
9 
9 
9 
9 
9 
9 
9 
9 
9 
9 
9 
9 
9 
9 
9 
9 
9 
9 
9 
9 
9 
9 
9 
9 
9 
9 
9 
9 
9 
9 
9 
9 
9 
9 
9 
9 
9 
9 
9 
9 
9 
9 
9 
9 
9 
9 
9 
9 
9 
9 
9 
9 
9 
9 
9 
9 
9 
9 
9 
9 
9 
9 
9 
9 
9 
9 
9 
9 
9 
9 
9 
9 
9 
9 
9 
9 
9 
9 
9 
9 
9 
9 
9 
9 
9 
9 
9 
9 
9 
9 
9 
9 
9 
9 
9 
9 
9 
9 
9 
9 
9 
9 
9 
9 
9 
9 
9 
9 
9 
9 
9 
9 
9 
9 
9 
9 
9 
9 
9 
9 
9 
9 
9 
9 
9 
9 
9 
9 
9 
9 
9 
9 
9 
9 
9 
9 
9 
9 
9 
9 
9 
9 
9 
9 
9 
9 
9 
9 
9 
9 
9 
9 
9 
9 
9 
9 
9 
9 
9 
9 
9 
9 
9 
9 
9 
9 
9 
9 
9 
9 
9 
9 
9 
9 
9 
9 
9 
9 
9 
9 
9 
9 
9 
9 
9 
9 
9 
9 
9 
9 
9 
9 
9 
9 
9 
9 
9 
9 
9 
9 
9 
9 
9 
9 
9 
9 
9 
9 
9 
9 
9 
9 
9 
9 
9 
9 
9 
9 
9 
9 
9 
9 
9 
9 
9 
9 
9 
9 
9 
9 
9 
9 
9 
9 
9 
9 
9 
9 
9 
9 
9 
9 
9 
9 
9 
9 
9 
9 
9 
9 
9 
9 
9 
9 
9 
9 
9 
9 
9 
9 
9 
9 
9 
9 
9 
9 
9 
9 
9 
9 
9 
9 
9 
9 
9 
9 
9 
9 
9 
9 
9 
9 
9 
9 
9 
9 
9 
9 
9 
9 
9 
9 
9 
9 
9 
9 
9 
9 
9 
9 
9 
9 
9 
9 
9 
9 
9 
9 
9 
9 
9 
9 
9 
9 
9 
9 
9 
9 
9 
9 
9 
9 
9 
9 
9 
9 
9 
9 
9 
9 
9 
9 
9 
9 
9 
9 
9 
9 
9 
9 
9 
9 
9 
9 
9 
9 
9 
9 
9 
9 
9 
9 
9 
9 
9 
9 
9 
9 
9 
9 
9 
9 
9 
9 
9 
9 
9 
9 
9 
9 
9 
9 
9 
9 
9 
9 
9 
9 
9 
9 
9 
9 
9 
9 
9 
9 
9 
9 
9 
9 
9 
9 
9 
9 
9 
9 
9 
9 
9 
9 
9 
9 
9 
9 
9 
9 
9 
9 
9 
9 
9 
9 
9 
9 
9 
9 
9 
9 
9 
9 
9 
9 
9 
9 
9 
9 
9 
9 
9 
9 
9 
9 
9 
9 
9 
9 
9 
9 
9 
9 
9 
9 
9 
9 
9 
9 
9 
9 
9 
9 
9 
9 
9 
9 
9 
9 
9 
9 
9 
9 
9 
9 
9 
9 
9 
9 
9 
9 
9 
9 
9 
9 
9 
9 
9 
9 
9 
9 
9 
9 
9 
9 
9 
9 
9 
9 
9 
9 
9 
9 
9 
9 
9 
9 
9 
9 
9 
9 
9 
9 
9 
9 
9 
9 
9 
9 
9 
9 
9 
9 
9 
9 
9 
9 
9 
9 
9 
9 
9 
9 
9 
9 
9 
9 
9 
9 
9 
9 
9 
9 
9 
9 
9 
9 
9 
9 
9 
9 
9 
9 
9 
9 
9 
9 
9 
9 
9 
9 
9 
9 
9 
9 
9 
9 
9 
9 
9 
9 
9 
9 
9 
9 
9 
9 
9 
9 
9 
9 
9 
9 
9 
9 
9 
9 
9 
9 
9 
9 
9 
9 
9 
9 
9 
9 
9 
9 
9 
9 
9 
9 
9 
9 
9 
9 
9 
9 
9 
9 
9 
9 
9 
9 
9 
9 
9 
9 
9 
9 
9 
9 
9 
9 
9 
9 
9 
9 
9 
9 
9 
9 
9 
9 
9 
9 
9 
9 
9 
9 
9 
9 
9 
9 
9 
9 
9 
9 
9 
9 
9 
9 
9 
9 
9 
9 
9 
9 
9 
9 
9 
9 
9 
9 
9 
9 
9 
9 
9 
9 
9 
9 
9 
9 
9 
9 
9 
9 
9 
9 
9 
9 
9 
9 
9 
9 
9 
9 
9 
9 
9 
9 
9 
9 
9 
9 
9 
9 
9 
9 
9 
9 
9 
9 
9 
9 
9 
9 
9 
9 
9 
9 
9 
9 
9 
9 
9 
9 
9 
9 
9 
9 
9 
9 
9 
9 
9 
9 
9 
9 
9 
9 
9 
9 
9 
9 
9 
9 
9 
9 
9 
9 
9 
9 
9 
9 
9 
9 
9 
9 
9 
9 
9 
9 
9 
9 
9 
9 
9 
9 
9 
9 
9 
9 
9 
9 
9 
9 
9 
9 
9 
9 
9 
9 
9 
9 
9 
9 
9 
9 
9 
9 
9 
9 
9 
9 
9 
9 
9 
9 
9 
9 
9 
9 
9 
9 
9 
9 
9 
9 
9 
9 
9 
9 
9 
9 
9 
9 
9 
9 
9 
9 
9 
9 
9 
9 
9 
9 
9 
9 
9 
9 
9 
9 
9 
9 
9 
9 
9 
9 
9 
9 
9 
9 
9 
9 
9 
9 
9 
9 
9 
9 
9 
9 
9 
9 
9 
9 
9 
9 
9 
9 
9 
9 
9 
9 
9 
9 
9 
9 
9 
9 
9 
9 
9 
9 
9 
9 
9 
9 
9 
9 
9 
9 
9 
9 
9 
9 
9 
9 
9 
9 
9 
9 
9 
9 
9 
9 
9 
9 
9 
9 
9 
9 
9 
9 
9 
9 
9 
9 
9 
9 
9 
9 
9 
9 
9 
9 
9 
9 
9 
9 
9 
9 
9 
9 
9 
9 
9 
9 
9 
9 
9 
9 
9 
9 
9 
9 
9 
9 
9 
9 
9 
9 
9 
9 
9 
9 
9 
9 
9 
9 
9 
9 
9 
9 
9 
9 
9 
9 
9 
9 
9 
9 
9 
9 
9 
9 
9 
9 
9 
9 
9 
9 
9 
9 
9 
9 
9 
9 
9 
9 
9 
9 
9 
9 
9 
9 
9 
9 
9 
9 
9 
9 
9 
9 
9 
9 
9 
9 
9 
9 
9 
9 
9 
9 
9 
9 
9 
9 
9 
9 
9 
9 
9 
9 
9 
9 
9 
9 
9 
9 
9 
9 
9 
9 
9 
9 
9 
9 
9 
9 
9 
9 
9 
9 
9 
9 
9 
9 
9 
9 
9 
9 
9 
9 
9 
9 
9 
9 
9 
9 
9 
9 
9 
9 
9 
9 
9 
9 
9 
9 
9 
9 
9 
9 
9 
9 
9 
9 
9 
9 
9 
9 
9 
9 
9 
9 
9 
9 
9 
9 
9 
9 
9 
9 
9 
9 
9 
9 
9 
9 
9 
9 
9 
9 
9 
9 
9 
9 
9 
9 
9 
9 
9 
9 
9 
9 
9 
9 
9 
9 
9 
9 
9 
9 
9 
9 
9 
9 
9 
9 
9 
9 
9 
9 
9 
9 
9 
9 
9 
9 
9 
9 
9 
9 
9 
9 
9 
9 
9 
9 
9 
9 
9 
9 
9 
9 
9 
9 
9 
9 
9 
9 
9 
9 
9 
9 
9 
9 
9 
9 
9 
9 
9 
9 
9 
9 
9 
9 
9 
9 
9 
9 
9 
9 
9 
9 
9 
9 
9 
9 
9 
9 
9 
9 
9 
9 
9 
9 
9 
9 
9 
9 
9 
9 
9 
9 
9 
9 
9 
9 
9 
9 
9 
9 
9 
9 
9 
9 
9 
9 
9 
9 
9 
9 
9 
9 
9 
9 
9 
9 
9 
9 
9 
9 
9 
9 
9 
9 
9 
9 
9 
9 
9 
9 
9 
9 
9 
9 
9 
9 
9 
9 
9 
9 
9 
9 
9 
9 
9 
9 
9 
9 
9 
9 
9 
9 
9 
9 
9 
9 
9 
9 
9 
9 
9 
9 
9 
9 
9 
9 
9 
9 
9 
9 
9 
9 
9 
9 
9 
9 
9 
9 
9 
9 
9 
9 
9 
9 
9 
9 
9 
9 
9 
9 
9 
9 
9 
9 
9 
9 
9 
9 
9 
9 
9 
9 
9 
9 
9 
9 
9 
9 
9 
9 
9 
9 
9 
9 
9 
9 
9 
9 
9 
9 
9 
9 
9 
9 
9 
9 
9 
9 
9 
9 
9 
9 
9 
9 
9 
9 
9 
9 
9 
9 
9 
9 
9 
9 
9 
9 
9 
9 
9 
9 
9 
9 
9 
9 
9 
9 
9 
9 
9 
9 
9 
9 
9 
9 
9 
9 
9 
9 
9 
9 
9 
9 
9 
9 
9 
9 
9 
9 
9 
9 
9 
9 
9 
9 
9 
9 
9 
9 
9 
9 
9 
9 
9 
9 
9 
9 
9 
9 
9 
9 
9 
9 
9 
9 
9 
9 
9 
9 
9 
9 
9 
9 
9 
9 
9 
9 
9 
9 
9 
9 
9 
9 
9 
9 
9 
9 
9 
9 
9 
9 
9 
9 
9 
9 
9 
9 
9 
9 
9 
9 
9 
9 
9 
9 
9 
9 
9 
9 
9 
9 
9 
9 
9 
9 
9 
9 
9 
9 
9 
9 
9 
9 
9 
9 
9 
9 
9 
9 
9 
9 
9 
9 
9 
9 
9 
9 
9 
9 
9 
9 
9 
9 
9 
9 
9 
9 
9 
9 
9 
9 
9 
9 
9 
9 
9 
9 
9 
9 
9 
9 
9 
9 
9 
9 
9 
9 
9 
9 
9 
9 
9 
9 
9 
9 
9 
9 
9 
9 
9 
9 
9 
9 
9 
9 
9 
9 
9 
9 
9 
9 
9 
9 
9 
9 
9 
9 
9 
9 
9 
9 
9 
9 
9 
9 
9 
9 
9 
9 
9 
9 
9 
9 
9 
9 
9 
9 
9 
9 
9 
9 
9 
9 
9 
9 
9 
9 
9 
9 
9 
9 
9 
9 
9 
9 
9 
9 
9 
9 
9 
9 
9 
9 
9 
9 
9 
9 
9 
9 
9 
9 
9 
9 
9 
9 
9 
9 
9 
9 
9 
9 
9 
9 
9 
9 
9 
9 
9 
9 
9 
9 
9 
9 
9 
9 
9 
9 
9 
9 
9 
9 
9 
9 
9 
9 
9 
9 
9 
9 
9 
9 
9 
9 
9 
9 
9 
9 
9 
9 
9 
9 
9 
9 
9 
9 
9 
9 
9 
9 
9 
9 
9 
9 
9 
9 
9 
9 
9 
9 
9 
9 
9 
9 
9 
9 
9 
9 
9 
9 
9 
9 
9 
9 
9 
9 
9 
9 
9 
9 
9 
9 
9 
9 
9 
9 
9 
9 
9 
9 
9 
9 
9 
9 
9 
9 
9 
9 
9 
9 
9 
9 
9 
9 
9 
9 
9 
9 
9 
9 
9 
9 
9 
9 
9 
9 
9 
9 
9 
9 
9 
9 
9 
9 
9 
9 
9 
9 
9 
9 
9 
9 
9 
9 
9 
9 
9 
9 
9 
9 
9 
9 
9 
9 
9 
9 
9 
9 
9 
9 
9 
9 
9 
9 
9 
9 
9 
9 
9 
9 
9 
9 
9 
9 
9 
9 
9 
9 
9 
9 
9 
9 
9 
9 
9 
9 
9 
9 
9 
9 
9 
9 
9 
9 
9 
9 
9 
9 
9 
9 
9 
9 
9 
9 
9 
9 
9 
9 
9 
9 
9 
9 
9 
9 
9 
9 
9 
9 
9 
9 
9 
9 
9 
9 
9 
9 
9 
9 
9 
9 
9 
9 
9 
9 
9 
9 
9 
9 
9 
9 
9 
9 
9 
9 
9 
9 
9 
9 
9 
9 
9 
9 
9 
9 
9 
9 
9 
9 
9 
9 
9 
9 
9 
9 
9 
9 
9 
9 
9 
9 
9 
9 
9 
9 
9 
9 
9 
9 
9 
9 
9 
9 
9 
9 
9 
9 
9 
9 
9 
9 
9 
9 
9 
9 
9 
9 
9 
9 
9 
9 
9 
9 
9 
9 
9 
9 
9 
9 
9 
9 
9 
9 
9 
9 
9 
9 
9 
9 
9 
9 
9 
9 
9 
9 
9 
9 
9 
9 
9 
9 
9 
9 
9 
9 
9 
9 
9 
9 
9 
9 
9 
9 
9 
9 
9 
9 
9 
9 
9 
9 
9 
9 
9 
9 
9 
9 
9 
9 
9 
9 
9 
9 
9 
9 
9 
9 
9 
9 
9 
9 
9 
9 
9 
9 
9 
9 
9 
9 
9 
9 
9 
9 
9 
9 
9 
9 
9 
9 
9 
9 
9 
9 
9 
9 
9 
9 
9 
9 
9 
9 
9 
9 
9 
9 
9 
9 
9 
9 
9 
9 
9 
9 
9 
9 
9 
9 
9 
9 
9 
9 
9 
9 
9 
9 
9 
9 
9 
9 
9 
9 
9 
9 
9 
9 
9 
9 
9 
9 
9 
9 
9 
9 
9 
9 
9 
9 
9 
9 
9 
9 
9 
9 
9 
9 
9 
9 
9 
9 
9 
9 
9 
9 
9 
9 
9 
9 
9 
9 
9 
9 
9 
9 
9 
9 
9 
9 
9 
9 
9 
9 
9 
9 
9 
9 
9 
9 
9 
9 
9 
9 
9 
9 
9 
9 
9 
9 
9 
9 
9 
9 
9 
9 
9 
9 
9 
9 
9 
9 
9 
9 
9 
9 
9 
9 
9 
9 
9 
9 
9 
9 
9 
9 
9 
9 
9 
9 
9 
9 
9 
9 
9 
9 
9 
9 
9 
9 
9 
9 
9 
9 
9 
9 
9 
9 
9 
9 
9 
9 
9 
9 
9 
9 
9 
9 
9 
9 
9 
9 
9 
9 
9 
9 
9 
9 
9 
9 
9 
9 
9 
9 
9 
9 
9 
9 
9 
9 
9 
9 
9 
9 
9 
9 
9 
9 
9 
9 
9 
9 
9 
9 
9 
9 
9 
9 
9 
9 
9 
9 
9 
9 
9 
9 
9 
9 
9 
9 
9 
9 
9 
9 
9 
9 
9 
9 
9 
9 
9 
9 
9 
9 
9 
9 
9 
9 
9 
9 
9 
9 
9 
9 
9 
9 
9 
9 
9 
9 
9 
9 
9 
9 
9 
9 
9 
9 
9 
9 
9 
9 
9 
9 
9 
9 
9 
9 
9 
9 
9 
9 
9 
9 
9 
9 
9 
9 
9 
9 
9 
9 
9 
9 
9 
9 
9 
9 
9 
9 
9 
9 
9 
9 
9 
9 
9 
9 
9 
9 
9 
9 
9 
9 
9 
9 
9 
9 
9 
9 
9 
9 
9 
9 
9 
9 
9 
9 
9 
9 
9 
9 
9 
9 
9 
9 
9 
9 
9 
9 
9 
9 
9 
9 
9 
9 
9 
9 
9 
9 
9 
9 
9 
9 
9 
9 
9 
9 
9 
9 
9 
9 
9 
9 
9 
9 
9 
9 
9 
9 
9 
9 
9 
9 
9 
9 
9 
9 
9 
9 
9 
9 
9 
9 
9 
9 
9 
9 
9 
9 
9 
9 
9 
9 
9 
9 
9 
9 
9 
9 
9 
9 
9 
9 
9 
9 
9 
9 
9 
9 
9 
9 
9 
9 
9 
9 
9 
9 
9 
9 
9 
9 
9 
9 
9 
9 
9 
9 
9 
9 
9 
9 
9 
9 
9 
9 
9 
9 
9 
9 
9 
9 
9 
9 
9 
9 
9 
9 
9 
9 
9 
9 
9 
9 
9 
9 
9 
9 
9 
9 
9 
9 
9 
9 
9 
9 
9 
9 
9 
9 
9 
9 
9 
9 
9 
9 
9 
9 
9 
9 
9 
9 
9 
9 
9 
9 
9 
9 
9 
9 
9 
9 
9 
9 
9 
9 
9 
9 
9 
9 
9 
9 
9 
9 
9 
9 
9 
9 
9 
9 
9 
9 
9 
9 
9 
9 
9 
9 
9 
9 
9 
9 
9 
9 
9 
9 
9 
9 
9 
9 
9 
9 
9 
9 
9 
9 
9 
9 
9 
9 
9 
9 
9 
9 
9 
9 
9 
9 
9 
9 
9 
9 
9 
9 
9 
9 
9 
9 
9 
9 
9 
9 
9 
9 
9 
9 
9 
9 
9 
9 
9 
9 
9 
9 
9 
9 
9 
9 
9 
9 
9 
9 
9 
9 
9 
9 
9 
9 
9 
9 
9 
9 
9 
9 
9 
9 
9 
9 
9 
9 
9 
9 
9 
9 
9 
9 
9 
9 
9 
9 
9 
9 
9 
9 
9 
9 
9 
9 
9 
9 
9 
9 
9 
9 
9 
9 
9 
9 
9 
9 
9 
9 
9 
9 
9 
9 
9 
9 
9 
9 
9 
9 
9 
9 
9 
9 
9 
9 
9 
9 
9 
9 
9 
9 
9 
9 
9 
9 
9 
9 
9 
9 
9 
9 
9 
9 
9 
9 
9 
9 
9 
9 
9 
9 
9 
9 
9 
9 
9 
9 
9 
9 
9 
9 
9 
9 
9 
9 
9 
9 
9 
9 
9 
9 
9 
9 
9 
9 
9 
9 
9 
9 
9 
9 
9 
9 
9 
9 
9 
9 
9 
9 
9 
9 
9 
9 
9 
9 
9 
9 
9 
9 
9 
9 
9 
9 
9 
9 
9 
9 
9 
9 
9 
9 
9 
9 
9 
9 
9 
9 
9 
9 
9 
9 
9 
9 
9 
9 
9 
9 
9 
9 
9 
9 
9 
9 
9 
9 
9 
9 
9 
9 
9 
9 
9 
9 
9 
9 
9 
9 
9 
9 
9 
9 
9 
9 
9 
9 
9 
9 
9 
9 
9 
9 
9 
9 
9 
9 
9 
9 
9 
9 
9 
9 
9 
9 
9 
9 
9 
9 
9 
9 
9 
9 
9 
9 
9 
9 
9 
9 
9 
9 
9 
9 
9 
9 
9 
9 
9 
9 
9 
9 
9 
9 
9 
9 
9 
9 
9 
9 
9 
9 
9 
9 
9 
9 
9 
9 
9 
9 
9 
9 
9 
9 
9 
9 
9 
9 
9 
9 
9 
9 
9 
9 
9 
9 
9 
9 
9 
9 
9 
9 
9 
9 
9 
9 
9 
9 
9 
9 
9 
9 
9 
9 
9 
9 
9 
9 
9 
9 
9 
9 
9 
9 
9 
9 
9 
9 
9 
9 
9 
9 
9 
9 
9 
9 
9 
9 
9 
9 
9 
9 
9 
9 
9 
9 
9 
9 
9 
9 
9 
9 
9 
9 
9 
9 
9 
9 
9 
9 
9 
9 
9 
9 
9 
9 
9 
9 
9 
9 
9 
9 
9 
9 
9 
9 
9 
9 
9 
9 
9 
9 
9 
9 
9 
9 
9 
9 
9 
9 
9 
9 
9 
9 
9 
9 
9 
9 
9 
9 
9 
9 
9 
9 
9 
9 
9 
9 
9 
9 
9 
9 
9 
9 
9 
9 
9 
9 
9 
9 
9 
9 
9 
9 
9 
9 
9 
9 
9 
9 
9 
9 
9 
9 
9 
9 
9 
9 
9 
9 
9 
9 
9 
9 
9 
9 
9 
9 
9 
9 
9 
9 
9 
9 
9 
9 
9 
9 
9 
9 
9 
9 
9 
9 
9 
9 
9 
9 
9 
9 
9 
9 
9 
9 
9 
9 
9 
9 
9 
9 
9 
9 
9 
9 
9 
9 
9 
9 
9 
9 
9 
9 
9 
9 
9 
9 
9 
9 
9 
9 
9 
9 
9 
9 
9 
9 
9 
9 
9 
9 
9 
9 
9 
9 
9 
9 
9 
9 
9 
9 
9 
9 
9 
9 
9 
9 
9 
9 
9 
9 
9 
9 
9 
9 
9 
9 
9 
9 
9 
9 
9 
9 
9 
9 
9 
9 
9 
9 
9 
9 
9 
9 
9 
9 
9 
9 
9 
9 
9 
9 
9 
9 
9 
9 
9 
9 
9 
9 
9 
9 
9 
9 
9 
9 
9 
9 
9 
9 
9 
9 
9 
9 
9 
9 
9 
9 
9 
9 
9 
9 
9 
9 
9 
9 
9 
9 
9 
9 
9 
9 
9 
9 
9 
9 
9 
9 
9 
9 
9 
9 
9 
9 
9 
9 
9 
9 
9 
9 
9 
9 
9 
9 
9 
9 
9 
9 
9 
9 
9 
9 
9 
9 
9 
9 
9 
9 
9 
9 
9 
9 
9 
9 
9 
9 
9 
9 
9 
9 
9 
9 
9 
9 
9 
9 
9 
9 
9 
9 
9 
9 
9 
9 
9 
9 
9 
9 
9 
9 
9 
9 
9 
9 
9 
9 
9 
9 
9 
9 
9 
9 
9 
9 
9 
9 
9 
9 
9 
9 
9 
9 
9 
9 
9 
9 
9 
9 
9 
9 
9 
9 
9 
9 
9 
9 
9 
9 
9 
9 
9 
9 
9 
9 
9 
9 
9 
9 
9 
9 
9 
9 
9 
9 
9 
9 
9 
9 
9 
9 
9 
9 
9 
9 
9 
9 
9 
9 
9 
9 
9 
9 
9 
9 
9 
9 
9 
9 
9 
9 
9 
9 
9 
9 
9 
9 
9 
9 
9 
9 
9 
9 
9 
9 
9 
9 
9 
9 
9 
9 
9 
9 
9 
9 
9 
9 
9 
9 
9 
9 
9 
9 
9 
9 
9 
9 
9 
9 
9 
9 
9 
9 
9 
9 
9 
9 
9 
9 
9 
9 
9 
9 
9 
9 
9 
9 
9 
9 
9 
9 
9 
9 
9 
9 
9 
9 
9 
9 
9 
9 
9 
9 
9 
9 
9 
9 
9 
9 
9 
9 
9 
9 
9 
9 
9 
9 
9 
9 
9 
9 
9 
9 
9 
9 
9 
9 
9 
9 
9 
9 
9 
9 
9 
9 
9 
9 
9 
9 
9 
9 
9 
9 
9 
9 
9 
9 
9 
9 
9 
9 
9 
9 
9 
9 
9 
9 
9 
9 
9 
9 
9 
9 
9 
9 
9 
9 
9 
9 
9 
9 
9 
9 
9 
9 
9 
9 
9 
9 
9 
9 
9 
9 
9 
9 
9 
9 
9 
9 
9 
9 
9 
9 
9 
9 
9 
9 
9 
9 
9 
9 
9 
9 
9 
9 
9 
9 
9 
9 
9 
9 
9 
9 
9 
9 
9 
9 
9 
9 
9 
9 
9 
9 
9 
9 
9 
9 
9 
9 
9 
9 
9 
9 
9 
9 
9 
9 
9 
9 
9 
9 
9 
9 
9 
9 
9 
9 
9 
9 
9 
9 
9 
9 
9 
9 
9 
9 
9 
9 
9 
9 
9 
9 
9 
9 
9 
9 
9 
9 
9 
9 
9 
9 
9 
9 
9 
9 
9 
9 
9 
9 
9 
9 
9 
9 
9 
9 
9 
9 
9 
9 
9 
9 
9 
9 
9 
9 
9 
9 
9 
9 
9 
9 
9 
9 
9 
9 
9 
9 
9 
9 
9 
9 
9 
9 
9 
9 
9 
9 
9 
9 
9 
9 
9 
9 
9 
9 
9 
9 
9 
9 
9 
9 
9 
9 
9 
9 
9 
9 
9 
9 
9 
9 
9 
9 
9 
9 
9 
9 
9 
9 
9 
9 
9 
9 
9 
9 
9 
9 
9 
9 
9 
9 
9 
9 
9 
9 
9 
9 
9 
9 
9 
9 
9 
9 
9 
9 
9 
9 
9 
9 
9 
9 
9 
9 
9 
9 
9 
9 
9 
9 
9 
9 
9 
9 
9 
9 
9 
9 
9 
9 
9 
9 
9 
9 
9 
9 
9 
9 
9 
9 
9 
9 
9 
9 
9 
9 
9 
9 
9 
9 
9 
9 
9 
9 
9 
9 
9 
9 
9 
9 
9 
9 
9 
9 
9 
9 
9 
9 
9 
9 
9 
9 
9 
9 
9 
9 
9 
9 
9 
9 
9 
9 
9 
9 
9 
9 
9 
9 
9 
9 
9 
9 
9 
9 
9 
9 
9 
9 
9 
9 
9 
9 
9 
9 
9 
9 
9 
9 
9 
9 
9 
9 
9 
9 
9 
9 
9 
9 
9 
9 
9 
9 
9 
9 
9 
9 
9 
9 
9 
9 
9 
9 
9 
9 
9 
9 
9 
9 
9 
9 
9 
9 
9 
9 
9 
9 
9 
9 
9 
9 
9 
9 
9 
9 
9 
9 
9 
9 
9 
9 
9 
9 
9 
9 
9 
9 
9 
9 
9 
9 
9 
9 
9 
9 
9 
9 
9 
9 
9 
9 
9 
9 
9 
9 
9 
9 
9 
9 
9 
9 
9 
9 
9 
9 
9 
9 
9 
9 
9 
9 
9 
9 
9 
9 
9 
9 
9 
9 
9 
9 
9 
9 
9 
9 
9 
9 
9 
9 
9 
9 
9 
9 
9 
9 
9 
9 
9 
9 
9 
9 
9 
9 
9 
9 
9 
9 
9 
9 
9 
9 
9 
9 
9 
9 
9 
9 
9 
9 
9 
9 
9 
9 
9 
9 
9 
9 
9 
9 
9 
9 
9 
9 
9 
9 
9 
9 
9 
9 
9 
9 
9 
9 
9 
9 
9 
9 
9 
9 
9 
9 
9 
9 
9 
9 
9 
9 
9 
9 
9 
9 
9 
9 
9 
9 
9 
9 
9 
9 
9 
9 
9 
9 
9 
9 
9 
9 
9 
9 
9 
9 
9 
9 
9 
9 
9 
9 
9 
9 
9 
9 
9 
9 
9 
9 
9 
9 
9 
9 
9 
9 
9 
9 
9 
9 
9 
9 
9 
9 
9 
9 
9 
9 
9 
9 
9 
9 
9 
9 
9 
9 
9 
9 
9 
9 
9 
9 
9 
9 
9 
9 
9 
9 
9 
9 
9 
9 
9 
9 
9 
9 
9 
9 
9 
9 
9 
9 
9 
9 
9 
9 
9 
9 
9 
9 
9 
9 
9 
9 
9 
9 
9 
9 
9 
9 
9 
9 
9 
9 
9 
9 
9 
9 
9 
9 
9 
9 
9 
9 
9 
9 
9 
9 
9 
9 
9 
9 
9 
9 
9 
9 
9 
9 
9 
9 
9 
9 
9 
9 
9 
9 
9 
9 
9 
9 
9 
9 
9 
9 
9 
9 
9 
9 
9 
9 
9 
9 
9 
9 
9 
9 
9 
9 
9 
9 
9 
9 
9 
9 
9 
9 
9 
9 
9 
9 
9 
9 
9 
9 
9 
9 
9 
9 
9 
9 
9 
9 
9 
9 
9 
9 
9 
9 
9 
9 
9 
9 
9 
9 
9 
9 
9 
9 
9 
9 
9 
9 
9 
9 
9 
9 
9 
9 
9 
9 
9 
9 
9 
9 
9 
9 
9 
9 
9 
9 
9 
9 
9 
9 
9 
9 
9 
9 
9 
9 
9 
9 
9 
9 
9 
9 
9 
9 
9 
9 
9 
9 
9 
9 
9 
9 
9 
9 
9 
9 
9 
9 
9 
9 
9 
9 
9 
9 
9 
9 
9 
9 
9 
9 
9 
9 
9 
9 
9 
9 
9 
9 
9 
9 
9 
9 
9 
9 
9 
9 
9 
9 
9 
9 
9 
9 
9 
9 
9 
9 
9 
9 
9 
9 
9 
9 
9 
9 
9 
9 
9 
9 
9 
9 
9 
9 
9 
9 
9 
9 
9 
9 
9 
9 
9 
9 
9 
9 
9 
9 
9 
9 
9 
9 
9 
9 
9 
9 
9 
9 
9 
9 
9 
9 
9 
9 
9 
9 
9 
9 
9 
9 
9 
9 
9 
9 
9 
9 
9 
9 
9 
9 
9 
9 
9 
9 
9 
9 
9 
9 
9 
9 
9 
9 
9 
9 
9 
9 
9 
9 
9 
9 
9 
9 
9 
9 
9 
9 
9 
9 
9 
9 
9 
9 
9 
9 
9 
9 
9 
9 
9 
9 
9 
9 
9 
9 
9 
9 
9 
9 
9 
9 
9 
9 
9 
9 
9 
9 
9 
9 
9 
9 
9 
9 
9 
9 
9 
9 
9 
9 
9 
9 
9 
9 
9 
9 
9 
9 
9 
9 
9 
9 
9 
9 
9 
9 
9 
9 
9 
9 
9 
9 
9 
9 
9 
9 
9 
9 
9 
9 
9 
9 
9 
9 
9 
9 
9 
9 
9 
9 
9 
9 
9 
9 
9 
9 
9 
9 
9 
9 
9 
9 
9 
9 
9 
9 
9 
9 
9 
9 
9 
9 
9 
9 
9 
9 
9 
9 
9 
9 
9 
9 
9 
9 
9 
9 
9 
9 
9 
9 
9 
9 
9 
9 
9 
9 
9 
9 
9 
9 
9 
9 
9 
9 
9 
9 
9 
9 
9 
9 
9 
9 
9 
9 
9 
9 
9 
9 
9 
9 
9 
9 
9 
9 
9 
9 
9 
9 
9 
9 
9 
9 
9 
9 
9 
9 
9 
9 
9 
9 
9 
9 
9 
9 
9 
9 
9 
9 
9 
9 
9 
9 
9 
9 
9 
9 
9 
9 
9 
9 
9 
9 
9 
9 
9 
9 
9 
9 
9 
9 
9 
9 
9 
9 
9 
9 
9 
9 
9 
9 
9 
9 
9 
9 
9 
9 
9 
9 
9 
9 
9 
9 
9 
9 
9 
9 
9 
9 
9 
9 
9 
9 
9 
9 
9 
9 
9 
9 
9 
9 
9 
9 
9 
9 
9 
9 
9 
9 
9 
9 
9 
9 
9 
9 
9 
9 
9 
9 
9 
9 
9 
9 
9 
9 
9 
9 
9 
9 
9 
9 
9 
9 
9 
9 
9 
9 
9 
9 
9 
9 
9 
9 
9 
9 
9 
9 
9 
9 
9 
9 
9 
9 
9 
9 
9 
9 
9 
9 
9 
9 
9 
9 
9 
9 
9 
9 
9 
9 
9 
9 
9 
9 
9 
9 
9 
9 
9 
9 
9 
9 
9 
9 
9 
9 
9 
9 
9 
9 
9 
9 
9 
9 
9 
9 
9 
9 
9 
9 
9 
9 
9 
9 
9 
9 
9 
9 
9 
9 
9 
9 
9 
9 
9 
9 
9 
9 
9 
9 
9 
9 
9 
9 
9 
9 
9 
9 
9 
9 
9 
9 
9 
9 
9 
9 
9 
9 
9 
9 
9 
9 
9 
9 
9 
9 
9 
9 
9 
9 
9 
9 
9 
9 
9 
9 
9 
9 
9 
9 
9 
9 
9 
9 
9 
9 
9 
9 
9 
9 
9 
9 
9 
9 
9 
9 
9 
9 
9 
9 
9 
9 
9 
9 
9 
9 
9 
9 
9 
9 
9 
9 
9 
9 
9 
9 
9 
9 
9 
9 
9 
9 
9 
9 
9 
9 
9 
9 
9 
9 
9 
9 
9 
9 
9 
9 
9 
9 
9 
9 
9 
9 
9 
9 
9 
9 
9 
9 
9 
9 
9 
9 
9 
9 
9 
9 
9 
9 
9 
9 
9 
9 
9 
9 
9 
9 
9 
9 
9 
9 
9 
9 
9 
9 
9 
9 
9 
9 
9 
9 
9 
9 
9 
9 
9 
9 
9 
9 
9 
9 
9 
9 
9 
9 
9 
9 
9 
9 
9 
9 
9 
9 
9 
9 
9 
9 
9 
9 
9 
9 
9 
9 
9 
9 
9 
9 
9 
9 
9 
9 
9 
9 
9 
9 
9 
9 
9 
9 
9 
9 
9 
9 
9 
9 
9 
9 
9 
9 
9 
9 
9 
9 
9 
9 
9 
9 
9 
9 
9 
9 
9 
9 
9 
9 
9 
9 
9 
9 
9 
9 
9 
9 
9 
9 
9 
9 
9 
9 
9 
9 
9 
9 
9 
9 
9 
9 
9 
9 
9 
9 
9 
9 
9 
9 
9 
9 
9 
9 
9 
9 
9 
9 
9 
9 
9 
9 
9 
9 
9 
9 
9 
9 
9 
9 
9 
9 
9 
9 
9 
9 
9 
9 
9 
9 
9 
9 
9 
9 
9 
9 
9 
9 
9 
9 
9 
9 
9 
9 
9 
9 
9 
9 
9 
9 
9 
9 
9 
9 
9 
9 
9 
9 
9 
9 
9 
9 
9 
9 
9 
9 
9 
9 
9 
9 
9 
9 
9 
9 
9 
9 
9 
9 
9 
9 
9 
9 
9 
9 
9 
9 
9 
9 
9 
9 
9 
9 
9 
9 
9 
9 
9 
9 
9 
9 
9 
9 
9 
9 
9 
9 
9 
9 
9 
9 
9 
9 
9 
9 
9 
9 
9 
9 
9 
9 
9 
9 
9 
9 
9 
9 
9 
9 
9 
9 
9 
9 
9 
9 
9 
9 
9 
9 
9 
9 
9 
9 
9 
9 
9 
9 
9 
9 
9 
9 
9 
9 
9 
9 
9 
9 
9 
9 
9 
9 
9 
9 
9 
9 
9 
9 
9 
9 
9 
9 
9 
9 
9 
9 
9 
9 
9 
9 
9 
9 
9 
9 
9 
9 
9 
9 
9 
9 
9 
9 
9 
9 
9 
9 
9 
9 
9 
9 
9 
9 
9 
9 
9 
9 
9 
9 
9 
9 
9 
9 
9 
9 
9 
9 
9 
9 
9 
9 
9 
9 
9 
9 
9 
9 
9 
9 
9 
9 
9 
9 
9 
9 
9 
9 
9 
9 
9 
9 
9 
9 
9 
9 
9 
9 
9 
9 
9 
9 
9 
9 
9 
9 
9 
9 
9 
9 
9 
9 
9 
9 
9 
9 
9 
9 
9 
9 
9 
9 
9 
9 
9 
9 
9 
9 
9 
9 
9 
9 
9 
9 
9 
9 
9 
9 
9 
9 
9 
9 
9 
9 
9 
9 
9 
9 
9 
9 
9 
9 
9 
9 
9 
9 
9 
9 
9 
9 
9 
9 
9 
9 
9 
9 
9 
9 
9 
9 
9 
9 
9 
9 
9 
9 
9 
9 
9 
9 
9 
9 
9 
9 
9 
9 
9 
9 
9 
9 
9 
9 
9 
9 
9 
9 
9 
9 
9 
9 
9 
9 
9 
9 
9 
9 
9 
9 
9 
9 
9 
9 
9 
9 
9 
9 
9 
9 
9 
9 
9 
9 
9 
9 
9 
9 
9 
9 
9 
9 
9 
9 
9 
9 
9 
9 
9 
9 
9 
9 
9 
9 
9 
9 
9 
9 
9 
9 
9 
9 
9 
9 
9 
9 
9 
9 
9 
9 
9 
9 
9 
9 
9 
9 
9 
9 
9 
9 
9 
9 
9 
9 
9 
9 
9 
9 
9 
9 
9 
9 
9 
9 
9 
9 
9 
9 
9 
9 
9 
9 
9 
9 
9 
9 
9 
9 
9 
9 
9 
9 
9 
9 
9 
9 
9 
9 
9 
9 
9 
9 
9 
9 
9 
9 
9 
9 
9 
9 
9 
9 
9 
9 
9 
9 
9 
9 
9 
9 
9 
9 
9 
9 
9 
9 
9 
9 
9 
9 
9 
9 
9 
9 
9 
9 
9 
9 
9 
9 
9 
9 
9 
9 
9 
9 
9 
9 
9 
9 
9 
9 
9 
9 
9 
9 
9 
9 
9 
9 
9 
9 
9 
9 
9 
9 
9 
9 
9 
9 
9 
9 
9 
9 
9 
9 
9 
9 
9 
9 
9 
9 
9 
9 
9 
9 
9 
9 
9 
9 
9 
9 
9 
9 
9 
9 
9 
9 
9 
9 
9 
9 
9 
9 
9 
9 
9 
9 
9 
9 
9 
9 
9 
9 
9 
9 
9 
9 
9 
9 
9 
9 
9 
9 
9 
9 
9 
9 
9 
9 
9 
9 
9 
9 
9 
9 
9 
9 
9 
9 
9 
9 
9 
9 
9 
9 
9 
9 
9 
9 
9 
9 
9 
9 
9 
9 
9 
9 
9 
9 
9 
9 
9 
9 
9 
9 
9 
9 
9 
9 
9 
9 
9 
9 
9 
9 
9 
9 
9 
9 
9 
9 
9 
9 
9 
9 
9 
9 
9 
9 
9 
9 
9 
9 
9 
9 
9 
9 
9 
9 
9 
9 
9 
9 
9 
9 
9 
9 
9 
9 
9 
9 
9 
9 
9 
9 
9 
9 
9 
9 
9 
9 
9 
9 
9 
9 
9 
9 
9 
9 
9 
9 
9 
9 
9 
9 
9 
9 
9 
9 
9 
9 
9 
9 
9 
9 
9 
9 
9 
9 
9 
9 
9 
9 
9 
9 
9 
9 
9 
9 
9 
9 
9 
9 
9 
9 
9 
9 
9 
9 
9 
9 
9 
9 
9 
9 
9 
9 
9 
9 
9 
9 
9 
9 
9 
9 
9 
9 
9 
9 
9 
9 
9 
9 
9 
9 
9 
9 
9 
9 
9 
9 
9 
9 
9 
9 
9 
9 
9 
9 
9 
9 
9 
9 
9 
9 
9 
9 
9 
9 
9 
9 
9 
9 
9 
9 
9 
9 
9 
9 
9 
9 
9 
9 
9 
9 
9 
9 
9 
9 
9 
9 
9 
9 
9 
9 
9 
9 
9 
9 
9 
9 
9 
9 
9 
9 
9 
9 
9 
9 
9 
9 
9 
9 
9 
9 
9 
9 
9 
9 
9 
9 
9 
9 
9 
9 
9 
9 
9 
9 
9 
9 
9 
9 
9 
9 
9 
9 
9 
9 
9 
9 
9 
9 
9 
9 
9 
9 
9 
9 
9 
9 
9 
9 
9 
9 
9 
9 
9 
9 
9 
9 
9 
9 
9 
9 
9 
9 
9 
9 
9 
9 
9 
9 
9 
9 
9 
9 
9 
9 
9 
9 
9 
9 
9 
9 
9 
9 
9 
9 
9 
9 
9 
9 
9 
9 
9 
9 
9 
9 
9 
9 
9 
9 
9 
9 
9 
9 
9 
9 
9 
9 
9 
9 
9 
9 
9 
9 
9 
9 
9 
9 
9 
9 
9 
9 
9 
9 
9 
9 
9 
9 
9 
9 
9 
9 
9 
9 
9 
9 
9 
9 
9 
9 
9 
9 
9 
9 
9 
9 
9 
9 
9 
9 
9 
9 
9 
9 
9 
9 
9 
9 
9 
9 
9 
9 
9 
9 
9 
9 
9 
9 
9 
9 
9 
9 
9 
9 
9 
9 
9 
9 
9 
9 
9 
9 
9 
9 
9 
9 
9 
9 
9 
9 
9 
9 
9 
9 
9 
9 
9 
9 
9 
9 
9 
9 
9 
9 
9 
9 
9 
9 
9 
9 
9 
9 
9 
9 
9 
9 
9 
9 
9 
9 
9 
9 
9 
9 
9 
9 
9 
9 
9 
9 
9 
9 
9 
9 
9 
9 
9 
9 
9 
9 
9 
9 
9 
9 
9 
9 
9 
9 
9 
9 
9 
9 
9 
9 
9 
9 
9 
9 
9 
9 
9 
9 
9 
9 
9 
9 
9 
9 
9 
9 
9 
9 
9 
9 
9 
9 
9 
9 
9 
9 
9 
9 
9 
9 
9 
9 
9 
9 
9 
9 
9 
9 
9 
9 
9 
9 
9 
9 
9 
9 
9 
9 
9 
9 
9 
9 
9 
9 
9 
9 
9 
9 
9 
9 
9 
9 
9 
9 
9 
9 
9 
9 
9 
9 
9 
9 
9 
9 
9 
9 
9 
9 
9 
9 
9 
9 
9 
9 
9 
9 
9 
9 
9 
9 
9 
9 
9 
9 
9 
9 
9 
9 
9 
9 
9 
9 
9 
9 
9 
9 
9 
9 
9 
9 
9 
9 
9 
9 
9 
9 
9 
9 
9 
9 
9 
9 
9 
9 
9 
9 
9 
9 
9 
9 
9 
9 
9 
9 
9 
9 
9 
9 
9 
9 
9 
9 
9 
9 
9 
9 
9 
9 
9 
9 
9 
9 
9 
9 
9 
9 
9 
9 
9 
9 
9 
9 
9 
9 
9 
9 
9 
9 
9 
9 
9 
9 
9 
9 
9 
9 
9 
9 
9 
9 
9 
9 
9 
9 
9 
9 
9 
9 
9 
9 
9 
9 
9 
9 
9 
9 
9 
9 
9 
9 
9 
9 
9 
9 
9 
9 
9 
9 
9 
9 
9 
9 
9 
9 
9 
9 
9 
9 
9 
9 
9 
9 
9 
9 
9 
9 
9 
9 
9 
9 
9 
9 
9 
9 
9 
9 
9 
9 
9 
9 
9 
9 
9 
9 
9 
9 
9 
9 
9 
9 
9 
9 
9 
9 
9 
9 
9 
9 
9 
9 
9 
9 
9 
9 
9 
9 
9 
9 
9 
9 
9 
9 
9 
9 
9 
9 
9 
9 
9 
9 
9 
9 
9 
9 
9 
9 
9 
9 
9 
9 
9 
9 
9 
9 
9 
9 
9 
9 
9 
9 
9 
9 
9 
9 
9 
9 
9 
9 
9 
9 
9 
9 
9 
9 
9 
9 
9 
9 
9 
9 
9 
9 
9 
9 
9 
9 
9 
9 
9 
9 
9 
9 
9 
9 
9 
9 
9 
9 
9 
9 
9 
9 
9 
9 
9 
9 
9 
9 
9 
9 
9 
9 
9 
9 
9 
9 
9 
9 
9 
9 
9 
9 
9 
9 
9 
9 
9 
9 
9 
9 
9 
9 
9 
9 
9 
9 
9 
9 
9 
9 
9 
9 
9 
9 
9 
9 
9 
9 
9 
9 
9 
9 
9 
9 
9 
9 
9 
9 
9 
9 
9 
9 
9 
9 
9 
9 
9 
9 
9 
9 
9 
9 
9 
9 
9 
9 
9 
9 
9 
9 
9 
9 
9 
9 
9 
9 
9 
9 
9 
9 
9 
9 
9 
9 
9 
9 
9 
9 
9 
9 
9 
9 
9 
9 
9 
9 
9 
9 
9 
9 
9 
9 
9 
9 
9 
9 
9 
9 
9 
9 
9 
9 
9 
9 
9 
9 
9 
9 
9 
9 
9 
9 
9 
9 
9 
9 
9 
9 
9 
9 
9 
9 
9 
9 
9 
9 
9 
9 
9 
9 
9 
9 
9 
9 
9 
9 
9 
9 
9 
9 
9 
9 
9 
9 
9 
9 
9 
9 
9 
9 
9 
9 
9 
9 
9 
9 
9 
9 
9 
9 
9 
9 
9 
9 
9 
9 
9 
9 
9 
9 
9 
9 
9 
9 
9 
9 
9 
9 
9 
9 
9 
9 
9 
9 
9 
9 
9 
9 
9 
9 
9 
9 
9 
9 
9 
9 
9 
9 
9 
9 
9 
9 
9 
9 
9 
9 
9 
9 
9 
9 
9 
9 
9 
9 
9 
9 
9 
9 
9 
9 
9 
9 
9 
9 
9 
9 
9 
9 
9 
9 
9 
9 
9 
9 
9 
9 
9 
9 
9 
9 
9 
9 
9 
9 
9 
9 
9 
9 
9 
9 
9 
9 
9 
9 
9 
9 
9 
9 
9 
9 
9 
9 
9 
9 
9 
9 
9 
9 
9 
9 
9 
9 
9 
9 
9 
9 
9 
9 
9 
9 
9 
9 
9 
9 
9 
9 
9 
9 
9 
9 
9 
9 
9 
9 
9 
9 
9 
9 
9 
9 
9 
9 
9 
9 
9 
9 
9 
9 
9 
9 
9 
9 
9 
9 
9 
9 
9 
9 
9 
9 
9 
9 
9 
9 
9 
9 
9 
9 
9 
9 
9 
9 
9 
9 
9 
9 
9 
9 
9 
9 
9 
9 
9 
9 
9 
9 
9 
9 
9 
9 
9 
9 
9 
9 
9 
9 
9 
9 
9 
9 
9 
9 
9 
9 
9 
9 
9 
9 
9 
9 
9 
9 
9 
9 
9 
9 
9 
9 
9 
9 
9 
9 
9 
9 
9 
9 
9 
9 
9 
9 
9 
9 
9 
9 
9 
9 
9 
9 
9 
9 
9 
9 
9 
9 
9 
9 
9 
9 
9 
9 
9 
9 
9 
9 
9 
9 
9 
9 
9 
9 
9 
9 
9 
9 
9 
9 
9 
9 
9 
9 
9 
9 
9 
9 
9 
9 
9 
9 
9 
9 
9 
9 
9 
9 
9 
9 
9 
9 
9 
9 
9 
9 
9 
9 
9 
9 
9 
9 
9 
9 
9 
9 
9 
9 
9 
9 
9 
9 
9 
9 
9 
9 
9 
9 
9 
9 
9 
9 
9 
9 
9 
9 
9 
9 
9 
9 
9 
9 
9 
9 
9 
9 
9 
9 
9 
9 
9 
9 
9 
9 
9 
9 
9 
9 
9 
9 
9 
9 
9 
9 
9 
9 
9 
9 
9 
9 
9 
9 
9 
9 
9 
9 
9 
9 
9 
9 
9 
9 
9 
9 
9 
9 
9 
9 
9 
9 
9 
9 
9 
9 
9 
9 
9 
9 
9 
9 
9 
9 
9 
9 
9 
9 
9 
9 
9 
9 
9 
9 
9 
9 
9 
9 
9 
9 
9 
9 
9 
9 
9 
9 
9 
9 
9 
9 
9 
9 
9 
9 
9 
9 
9 
9 
9 
9 
9 
9 
9 
9 
9 
9 
9 
9 
9 
9 
9 
9 
9 
9 
9 
9 
9 
9 
9 
9 
9 
9 
9 
9 
9 
9 
9 
9 
9 
9 
9 
9 
9 
9 
9 
9 
9 
9 
9 
9 
9 
9 
9 
9 
9 
9 
9 
9 
9 
9 
9 
9 
9 
9 
9 
9 
9 
9 
9 
9 
9 
9 
9 
9 
9 
9 
9 
9 
9 
9 
9 
9 
9 
9 
9 
9 
9 
9 
9 
9 
9 
9 
9 
9 
9 
9 
9 
9 
9 
9 
9 
9 
9 
9 
9 
9 
9 
9 
9 
9 
9 
9 
9 
9 
9 
9 
9 
9 
9 
9 
9 
9 
9 
9 
9 
9 
9 
9 
9 
9 
9 
9 
9 
9 
9 
9 
9 
9 
9 
9 
9 
9 
9 
9 
9 
9 
9 
9 
9 
9 
9 
9 
9 
9 
9 
9 
9 
9 
9 
9 
9 
9 
9 
9 
9 
9 
9 
9 
9 
9 
9 
9 
9 
9 
9 
9 
9 
9 
9 
9 
9 
9 
9 
9 
9 
9 
9 
9 
9 
9 
9 
9 
9 
9 
9 
9 
9 
9 
9 
9 
9 
9 
9 
9 
9 
9 
9 
9 
9 
9 
9 
9 
9 
9 
9 
9 
9 
9 
9 
9 
9 
9 
9 
9 
9 
9 
9 
9 
9 
9 
9 
9 
9 
9 
9 
9 
9 
9 
9 
9 
9 
9 
9 
9 
9 
9 
9 
9 
9 
9 
9 
9 
9 
9 
9 
9 
9 
9 
9 
9 
9 
9 
9 
9 
9 
9 
9 
9 
9 
9 
9 
9 
9 
9 
9 
9 
9 
9 
9 
9 
9 
9 
9 
9 
9 
9 
9 
9 
9 
9 
9 
9 
9 
9 
9 
9 
9 
9 
9 
9 
9 
9 
9 
9 
9 
9 
9 
9 
9 
9 
9 
9 
9 
9 
9 
9 
9 
9 
9 
9 
9 
9 
9 
9 
9 
9 
9 
9 
9 
9 
9 
9 
9 
9 
9 
9 
9 
9 
9 
9 
9 
9 
9 
9 
9 
9 
9 
9 
9 
9 
9 
9 
9 
9 
9 
9 
9 
9 
9 
9 
9 
9 
9 
9 
9 
9 
9 
9 
9 
9 
9 
9 
9 
9 
9 
9 
9 
9 
9 
9 
9 
9 
9 
9 
9 
9 
9 
9 
9 
9 
9 
9 
9 
9 
9 
9 
9 
9 
9 
9 
9 
9 
9 
9 
9 
9 
9 
9 
9 
9 
9 
9 
9 
9 
9 
9 
9 
9 
9 
9 
9 
9 
9 
9 
9 
9 
9 
9 
9 
9 
9 
9 
9 
9 
9 
9 
9 
9 
9 
9 
9 
9 
9 
9 
9 
9 
9 
9 
9 
9 
9 
9 
9 
9 
9 
9 
9 
9 
9 
9 
9 
9 
9 
9 
9 
9 
9 
9 
9 
9 
9 
9 
9 
9 
9 
9 
9 
9 
9 
9 
9 
9 
9 
9 
9 
9 
9 
9 
9 
9 
9 
9 
9 
9 
9 
9 
9 
9 
9 
9 
9 
9 
9 
9 
9 
9 
9 
9 
9 
9 
9 
9 
9 
9 
9 
9 
9 
9 
9 
9 
9 
9 
9 
9 
9 
9 
9 
9 
9 
9 
9 
9 
9 
9 
9 
9 
9 
9 
9 
9 
9 
9 
9 
9 
9 
9 
9 
9 
9 
9 
9 
9 
9 
9 
9 
9 
9 
9 
9 
9 
9 
9 
9 
9 
9 
9 
9 
9 
9 
9 
9 
9 
9 
9 
9 
9 
9 
9 
9 
9 
9 
9 
9 
9 
9 
9 
9 
9 
9 
9 
9 
9 
9 
9 
9 
9 
9 
9 
9 
9 
9 
9 
9 
9 
9 
9 
9 
9 
9 
9 
9 
9 
9 
9 
9 
9 
9 
9 
9 
9 
9 
9 
9 
9 
9 
9 
9 
9 
9 
9 
9 
9 
9 
9 
9 
9 
9 
9 
9 
9 
9 
9 
9 
9 
9 
9 
9 
9 
9 
9 
9 
9 
9 
9 
9 
9 
9 
9 
9 
9 
9 
9 
9 
9 
9 
9 
9 
9 
9 
9 
9 
9 
9 
9 
9 
9 
9 
9 
9 
9 
9 
9 
9 
9 
9 
9 
9 
9 
9 
9 
9 
9 
9 
9 
9 
9 
9 
9 
9 
9 
9 
9 
9 
9 
9 
9 
9 
9 
9 
9 
9 
9 
9 
9 
9 
9 
9 
9 
9 
9 
9 
9 
9 
9 
9 
9 
9 
9 
9 
9 
9 
9 
9 
9 
9 
9 
9 
9 
9 
9 
9 
9 
9 
9 
9 
9 
9 
9 
9 
9 
9 
9 
9 
9 
9 
9 
9 
9 
9 
9 
9 
9 
9 
9 
9 
9 
9 
9 
9 
9 
9 
9 
9 
9 
9 
9 
9 
9 
9 
9 
9 
9 
9 
9 
9 
9 
9 
9 
9 
9 
9 
9 
9 
9 
9 
9 
9 
9 
9 
9 
9 
9 
9 
9 
9 
9 
9 
9 
9 
9 
9 
9 
9 
9 
9 
9 
9 
9 
9 
9 
9 
9 
9 
9 
9 
9 
9 
9 
9 
9 
9 
9 
9 
9 
9 
9 
9 
9 
9 
9 
9 
9 
9 
9 
9 
9 
9 
9 
9 
9 
9 
9 
9 
9 
9 
9 
9 
9 
9 
9 
9 
9 
9 
9 
9 
9 
9 
9 
9 
9 
9 
9 
9 
9 
9 
9 
9 
9 
9 
9 
9 
9 
9 
9 
9 
9 
9 
9 
9 
9 
9 
9 
9 
9 
9 
9 
9 
9 
9 
9 
9 
9 
9 
9 
9 
9 
9 
9 
9 
9 
9 
9 
9 
9 
9 
9 
9 
9 
9 
9 
9 
9 
9 
9 
9 
9 
9 
9 
9 
9 
9 
9 
9 
9 
9 
9 
9 
9 
9 
9 
9 
9 
9 
9 
9 
9 
9 
9 
9 
9 
9 
9 
9 
9 
9 
9 
9 
9 
9 
9 
9 
9 
9 
9 
9 
9 
9 
9 
9 
9 
9 
9 
9 
9 
9 
9 
9 
9 
9 
9 
9 
9 
9 
9 
9 
9 
9 
9 
9 
9 
9 
9 
9 
9 
9 
9 
9 
9 
9 
9 
9 
9 
9 
9 
9 
9 
9 
9 
9 
9 
9 
9 
9 
9 
9 
9 
9 
9 
9 
9 
9 
9 
9 
9 
9 
9 
9 
9 
9 
9 
9 
9 
9 
9 
9 
9 
9 
9 
9 
9 
9 
9 
9 
9 
9 
9 
9 
9 
9 
9 
9 
9 
9 
9 
9 
9 
9 
9 
9 
9 
9 
9 
9 
9 
9 
9 
9 
9 
9 
9 
9 
9 
9 
9 
9 
9 
9 
9 
9 
9 
9 
9 
9 
9 
9 
9 
9 
9 
9 
9 
9 
9 
9 
9 
9 
9 
9 
9 
9 
9 
9 
9 
9 
9 
9 
9 
9 
9 
9 
9 
9 
9 
9 
9 
9 
9 
9 
9 
9 
9 
9 
9 
9 
9 
9 
9 
9 
9 
9 
9 
9 
9 
9 
9 
9 
9 
9 
9 
9 
9 
9 
9 
9 
9 
9 
9 
9 
9 
9 
9 
9 
9 
9 
9 
9 
9 
9 
9 
9 
9 
9 
9 
9 
9 
9 
9 
9 
9 
9 
9 
9 
9 
9 
9 
9 
9 
9 
9 
9 
9 
9 
9 
9 
9 
9 
9 
9 
9 
9 
9 
9 
9 
9 
9 
9 
9 
9 
9 
9 
9 
9 
9 
9 
9 
9 
9 
9 
9 
9 
9 
9 
9 
9 
9 
9 
9 
9 
9 
9 
9 
9 
9 
9 
9 
9 
9 
9 
9 
9 
9 
9 
9 
9 
9 
9 
9 
9 
9 
9 
9 
9 
9 
9 
9 
9 
9 
9 
9 
9 
9 
9 
9 
9 
9 
9 
9 
9 
9 
9 
9 
9 
9 
9 
9 
9 
9 
9 
9 
9 
9 
9 
9 
9 
9 
9 
9 
9 
9 
9 
9 
9 
9 
9 
9 
9 
9 
9 
9 
9 
9 
9 
9 
9 
9 
9 
9 
9 
9 
9 
9 
9 
9 
9 
9 
9 
9 
9 
9 
9 
9 
9 
9 
9 
9 
9 
9 
9 
9 
9 
9 
9 
9 
9 
9 
9 
9 
9 
9 
9 
9 
9 
9 
9 
9 
9 
9 
9 
9 
9 
9 
9 
9 
9 
9 
9 
9 
9 
9 
9 
9 
9 
9 
9 
9 
9 
9 
9 
9 
9 
9 
9 
9 
9 
9 
9 
9 
9 
9 
9 
9 
9 
9 
9 
9 
9 
9 
9 
9 
9 
9 
9 
9 
9 
9 
9 
9 
9 
9 
9 
9 
9 
9 
9 
9 
9 
9 
9 
9 
9 
9 
9 
9 
9 
9 
9 
9 
9 
9 
9 
9 
9 
9 
9 
9 
9 
9 
9 
9 
9 
9 
9 
9 
9 
9 
9 
9 
9 
9 
9 
9 
9 
9 
9 
9 
9 
9 
9 
9 
9 
9 
9 
9 
9 
9 
9 
9 
9 
9 
9 
9 
9 
9 
9 
9 
9 
9 
9 
9 
9 
9 
9 
9 
9 
9 
9 
9 
9 
9 
9 
9 
9 
9 
9 
9 
9 
9 
9 
9 
9 
9 
9 
9 
9 
9 
9 
9 
9 
9 
9 
9 
9 
9 
9 
9 
9 
9 
9 
9 
9 
9 
9 
9 
9 
9 
9 
9 
9 
9 
9 
9 
9 
9 
9 
9 
9 
9 
9 
9 
9 
9 
9 
9 
9 
9 
9 
9 
9 
9 
9 
9 
9 
9 
9 
9 
9 
9 
9 
9 
9 
9 
9 
9 
9 
9 
9 
9 
9 
9 
9 
9 
9 
9 
9 
9 
9 
9 
9 
9 
9 
9 
9 
9 
9 
9 
9 
9 
9 
9 
9 
9 
9 
9 
9 
9 
9 
9 
9 
9 
9 
9 
9 
9 
9 
9 
9 
9 
9 
9 
9 
9 
9 
9 
9 
9 
9 
9 
9 
9 
9 
9 
9 
9 
9 
9 
9 
9 
9 
9 
9 
9 
9 
9 
9 
9 
9 
9 
9 
9 
9 
9 
9 
9 
9 
9 
9 
9 
9 
9 
9 
9 
9 
9 
9 
9 
9 
9 
9 
9 
9 
9 
9 
9 
9 
9 
9 
9 
9 
9 
9 
9 
9 
9 
9 
9 
9 
9 
9 
9 
9 
9 
9 
9 
9 
9 
9 
9 
9 
9 
9 
9 
9 
9 
9 
9 
9 
9 
9 
9 
9 
9 
9 
9 
9 
9 
9 
9 
9 
9 
9 
9 
9 
9 
9 
9 
9 
9 
9 
9 
9 
9 
9 
9 
9 
9 
9 
9 
9 
9 
9 
9 
9 
9 
9 
9 
9 
9 
9 
9 
9 
9 
9 
9 
9 
9 
9 
9 
9 
9 
9 
9 
9 
9 
9 
9 
9 
9 
9 
9 
9 
9 
9 
9 
9 
9 
9 
9 
9 
9 
9 
9 
9 
9 
9 
9 
9 
9 
9 
9 
9 
9 
9 
9 
9 
9 
9 
9 
9 
9 
9 
9 
9 
9 
9 
9 
9 
9 
9 
9 
9 
9 
9 
9 
9 
9 
9 
9 
9 
9 
9 
9 
9 
9 
9 
9 
9 
9 
9 
9 
9 
9 
9 
9 
9 
9 
9 
9 
9 
9 
9 
9 
9 
9 
9 
9 
9 
9 
9 
9 
9 
9 
9 
9 
9 
9 
9 
9 
9 
9 
9 
9 
9 
9 
9 
9 
9 
9 
9 
9 
9 
9 
9 
9 
9 
9 
9 
9 
9 
9 
9 
9 
9 
9 
9 
9 
9 
9 
9 
9 
9 
9 
9 
9 
9 
9 
9 
9 
9 
9 
9 
9 
9 
9 
9 
9 
9 
9 
9 
9 
9 
9 
9 
9 
9 
9 
9 
9 
9 
9 
9 
9 
9 
9 
9 
9 
9 
9 
9 
9 
9 
9 
9 
9 
9 
9 
9 
9 
9 
9 
9 
9 
9 
9 
9 
9 
9 
9 
9 
9 
9 
9 
9 
9 
9 
9 
9 
9 
9 
9 
9 
9 
9 
9 
9 
9 
9 
9 
9 
9 
9 
9 
9 
9 
9 
9 
9 
9 
9 
9 
9 
9 
9 
9 
9 
9 
9 
9 
9 
9 
9 
9 
9 
9 
9 
9 
9 
9 
9 
9 
9 
9 
9 
9 
9 
9 
9 
9 
9 
9 
9 
9 
9 
9 
9 
9 
9 
9 
9 
9 
9 
9 
9 
9 
9 
9 
9 
9 
9 
9 
9 
9 
9 
9 
9 
9 
9 
9 
9 
9 
9 
9 
9 
9 
9 
9 
9 
9 
9 
9 
9 
9 
9 
9 
9 
9 
9 
9 
9 
9 
9 
9 
9 
9 
9 
9 
9 
9 
9 
9 
9 
9 
9 
9 
9 
9 
9 
9 
9 
9 
9 
9 
9 
9 
9 
9 
9 
9 
9 
9 
9 
9 
9 
9 
9 
9 
9 
9 
9 
9 
9 
9 
9 
9 
9 
9 
9 
9 
9 
9 
9 
9 
9 
9 
9 
9 
9 
9 
9 
9 
9 
9 
9 
9 
9 
9 
9 
9 
9 
9 
9 
9 
9 
9 
9 
9 
9 
9 
9 
9 
9 
9 
9 
9 
9 
9 
9 
9 
9 
9 
9 
9 
9 
9 
9 
9 
9 
9 
9 
9 
9 
9 
9 
9 
9 
9 
9 
9 
9 
9 
9 
9 
9 
9 
9 
9 
9 
9 
9 
9 
9 
9 
9 
9 
9 
9 
9 
9 
9 
9 
9 
9 
9 
9 
9 
9 
9 
9 
9 
9 
9 
9 
9 
9 
9 
9 
9 
9 
9 
9 
9 
9 
9 
9 
9 
9 
9 
9 
9 
9 
9 
9 
9 
9 
9 
9 
9 
9 
9 
9 
9 
9 
9 
9 
9 
9 
9 
9 
9 
9 
9 
9 
9 
9 
9 
9 
9 
9 
9 
9 
9 
9 
9 
9 
9 
9 
9 
9 
9 
9 
9 
9 
9 
9 
9 
9 
9 
9 
9 
9 
9 
9 
9 
9 
9 
9 
9 
9 
9 
9 
9 
9 
9 
9 
9 
9 
9 
9 
9 
9 
9 
9 
9 
9 
9 
9 
9 
9 
9 
9 
9 
9 
9 
9 
9 
9 
9 
9 
9 
9 
9 
9 
9 
9 
9 
9 
9 
9 
9 
9 
9 
9 
9 
9 
9 
9 
9 
9 
9 
9 
9 
9 
9 
9 
9 
9 
9 
9 
9 
9 
9 
9 
9 
9 
9 
9 
9 
9 
9 
9 
9 
9 
9 
9 
9 
9 
9 
9 
9 
9 
9 
9 
9 
9 
9 
9 
9 
9 
9 
9 
9 
9 
9 
9 
9 
9 
9 
9 
9 
9 
9 
9 
9 
9 
9 
9 
9 
9 
9 
9 
9 
9 
9 
9 
9 
9 
9 
9 
9 
9 
9 
9 
9 
9 
9 
9 
9 
9 
9 
9 
9 
9 
9 
9 
9 
9 
9 
9 
9 
9 
9 
9 
9 
9 
9 
9 
9 
9 
9 
9 
9 
9 
9 
9 
9 
9 
9 
9 
9 
9 
9 
9 
9 
9 
9 
9 
9 
9 
9 
9 
9 
9 
9 
9 
9 
9 
9 
9 
9 
9 
9 
9 
9 
9 
9 
9 
9 
9 
9 
9 
9 
9 
9 
9 
9 
9 
9 
9 
9 
9 
9 
9 
9 
9 
9 
9 
9 
9 
9 
9 
9 
9 
9 
9 
9 
9 
9 
9 
9 
9 
9 
9 
9 
9 
9 
9 
9 
9 
9 
9 
9 
9 
9 
9 
9 
9 
9 
9 
9 
9 
9 
9 
9 
9 
9 
9 
9 
9 
9 
9 
9 
9 
9 
9 
9 
9 
9 
9 
9 
9 
9 
9 
9 
9 
9 
9 
9 
9 
9 
9 
9 
9 
9 
9 
9 
9 
9 
9 
9 
9 
9 
9 
9 
9 
9 
9 
9 
9 
9 
9 
9 
9 
9 
9 
9 
9 
9 
9 
9 
9 
9 
9 
9 
9 
9 
9 
9 
9 
9 
9 
9 
9 
9 
9 
9 
9 
9 
9 
9 
9 
9 
9 
9 
9 
9 
9 
9 
9 
9 
9 
9 
9 
9 
9 
9 
9 
9 
9 
9 
9 
9 
9 
9 
9 
9 
9 
9 
9 
9 
9 
9 
9 
9 
9 
9 
9 
9 
9 
9 
9 
9 
9 
9 
9 
9 
9 
9 
9 
9 
9 
9 
9 
9 
9 
9 
9 
9 
9 
9 
9 
9 
9 
9 
9 
9 
9 
9 
9 
9 
9 
9 
9 
9 
9 
9 
9 
9 
9 
9 
9 
9 
9 
9 
9 
9 
9 
9 
9 
9 
9 
9 
9 
9 
9 
9 
9 
9 
9 
9 
9 
9 
9 
9 
9 
9 
9 
9 
9 
9 
9 
9 
9 
9 
9 
9 
9 
9 
9 
9 
9 
9 
9 
9 
9 
9 
9 
9 
9 
9 
9 
9 
9 
9 
9 
9 
9 
9 
9 
9 
9 
9 
9 
9 
9 
9 
9 
9 
9 
9 
9 
9 
9 
9 
9 
9 
9 
9 
9 
9 
9 
9 
9 
9 
9 
9 
9 
9 
9 
9 
9 
9 
9 
9 
9 
9 
9 
9 
9 
9 
9 
9 
9 
9 
9 
9 
9 
9 
9 
9 
9 
9 
9 
9 
9 
9 
9 
9 
9 
9 
9 
9 
9 
9 
9 
9 
9 
9 
9 
9 
9 
9 
9 
9 
9 
9 
9 
9 
9 
9 
9 
9 
9 
9 
9 
9 
9 
9 
9 
9 
9 
9 
9 
9 
9 
9 
9 
9 
9 
9 
9 
9 
9 
9 
9 
9 
9 
9 
9 
9 
9 
9 
9 
9 
9 
9 
9 
9 
9 
9 
9 
9 
9 
9 
9 
9 
9 
9 
9 
9 
9 
9 
9 
9 
9 
9 
9 
9 
9 
9 
9 
9 
9 
9 
9 
9 
9 
9 
9 
9 
9 
9 
9 
9 
9 
9 
9 
9 
9 
9 
9 
9 
9 
9 
9 
9 
9 
9 
9 
9 
9 
9 
9 
9 
9 
9 
9 
9 
9 
9 
9 
9 
9 
9 
9 
9 
9 
9 
9 
9 
9 
9 
9 
9 
9 
9 
9 
9 
9 
9 
9 
9 
9 
9 
9 
9 
9 
9 
9 
9 
9 
9 
9 
9 
9 
9 
9 
9 
9 
9 
9 
9 
9 
9 
9 
9 
9 
9 
9 
9 
9 
9 
9 
9 
9 
9 
9 
9 
9 
9 
9 
9 
9 
9 
9 
9 
9 
9 
9 
9 
9 
9 
9 
9 
9 
9 
9 
9 
9 
9 
9 
9 
9 
9 
9 
9 
9 
9 
9 
9 
9 
9 
9 
9 
9 
9 
9 
9 
9 
9 
9 
9 
9 
9 
9 
9 
9 
9 
9 
9 
9 
9 
9 
9 
9 
9 
9 
9 
9 
9 
9 
9 
9 
9 
9 
9 
9 
9 
9 
9 
9 
9 
9 
9 
9 
9 
9 
9 
9 
9 
9 
9 
9 
9 
9 
9 
9 
9 
9 
9 
9 
9 
9 
9 
9 
9 
9 
9 
9 
9 
9 
9 
9 
9 
9 
9 
9 
9 
9 
9 
9 
9 
9 
9 
9 
9 
9 
9 
9 
9 
9 
9 
9 
9 
9 
9 
9 
9 
9 
9 
9 
9 
9 
9 
9 
9 
9 
9 
9 
9 
9 
9 
9 
9 
9 
9 
9 
9 
9 
9 
9 
9 
9 
9 
9 
9 
9 
9 
9 
9 
9 
9 
9 
9 
9 
9 
9 
9 
9 
9 
9 
9 
9 
9 
9 
9 
9 
9 
9 
9 
9 
9 
9 
9 
9 
9 
9 
9 
9 
9 
9 
9 
9 
9 
9 
9 
9 
9 
9 
9 
9 
9 
9 
9 
9 
9 
9 
9 
9 
9 
9 
9 
9 
9 
9 
9 
9 
9 
9 
9 
9 
9 
9 
9 
9 
9 
9 
9 
9 
9 
9 
9 
9 
9 
9 
9 
9 
9 
9 
9 
9 
9 
9 
9 
9 
9 
9 
9 
9 
9 
9 
9 
9 
9 
9 
9 
9 
9 
9 
9 
9 
9 
9 
9 
9 
9 
9 
9 
9 
9 
9 
9 
9 
9 
9 
9 
9 
9 
9 
9 
9 
9 
9 
9 
9 
9 
9 
9 
9 
9 
9 
9 
9 
9 
9 
9 
9 
9 
9 
9 
9 
9 
9 
9 
9 
9 
9 
9 
9 
9 
9 
9 
9 
9 
9 
9 
9 
9 
9 
9 
9 
9 
9 
9 
9 
9 
9 
9 
9 
9 
9 
9 
9 
9 
9 
9 
9 
9 
9 
9 
9 
9 
9 
9 
9 
9 
9 
9 
9 
9 
9 
9 
9 
9 
9 
9 
9 
9 
9 
9 
9 
9 
9 
9 
9 
9 
9 
9 
9 
9 
9 
9 
9 
9 
9 
9 
9 
9 
9 
9 
9 
9 
9 
9 
9 
9 
9 
9 
9 
9 
9 
9 
9 
9 
9 
9 
9 
9 
9 
9 
9 
9 
9 
9 
9 
9 
9 
9 
9 
9 
9 
9 
9 
9 
9 
9 
9 
9 
9 
9 
9 
9 
9 
9 
9 
9 
9 
9 
9 
9 
9 
9 
9 
9 
9 
9 
9 
9 
9 
9 
9 
9 
9 
9 
9 
9 
9 
9 
9 
9 
9 
9 
9 
9 
9 
9 
9 
9 
9 
9 
9 
9 
9 
9 
9 
9 
9 
9 
9 
9 
9 
9 
9 
9 
9 
9 
9 
9 
9 
9 
9 
9 
9 
9 
9 
9 
9 
9 
9 
9 
9 
9 
9 
9 
9 
9 
9 
9 
9 
9 
9 
9 
9 
9 
9 
9 
9 
9 
9 
9 
9 
9 
9 
9 
9 
9 
9 
9 
9 
9 
9 
9 
9 
9 
9 
9 
9 
9 
9 
9 
9 
9 
9 
9 
9 
9 
9 
9 
9 
9 
9 
9 
9 
9 
9 
9 
9 
9 
9 
9 
9 
9 
9 
9 
9 
9 
9 
9 
9 
9 
9 
9 
9 
9 
9 
9 
9 
9 
9 
9 
9 
9 
9 
9 
9 
9 
9 
9 
9 
9 
9 
9 
9 
9 
9 
9 
9 
9 
9 
9 
9 
9 
9 
9 
9 
9 
9 
9 
9 
9 
9 
9 
9 
9 
9 
9 
9 
9 
9 
9 
9 
9 
9 
9 
9 
9 
9 
9 
9 
9 
9 
9 
9 
9 
9 
9 
9 
9 
9 
9 
9 
9 
9 
9 
9 
9 
9 
9 
9 
9 
9 
9 
9 
9 
9 
9 
9 
9 
9 
9 
9 
9 
9 
9 
9 
9 
9 
9 
9 
9 
9 
9 
9 
9 
9 
9 
9 
9 
9 
9 
9 
9 
9 
9 
9 
9 
9 
9 
9 
9 
9 
9 
9 
9 
9 
9 
9 
9 
9 
9 
9 
9 
9 
9 
9 
9 
9 
9 
9 
9 
9 
9 
9 
9 
9 
9 
9 
9 
9 
9 
9 
9 
9 
9 
9 
9 
9 
9 
9 
9 
9 
9 
9 
9 
9 
9 
9 
9 
9 
9 
9 
9 
9 
9 
9 
9 
9 
9 
9 
9 
9 
9 
9 
9 
9 
9 
9 
9 
9 
9 
9 
9 
9 
9 
9 
9 
9 
9 
9 
9 
9 
9 
9 
9 
9 
9 
9 
9 
9 
9 
9 
9 
9 
9 
9 
9 
9 
9 
9 
9 
9 
9 
9 
9 
9 
9 
9 
9 
9 
9 
9 
9 
9 
9 
9 
9 
9 
9 
9 
9 
9 
9 
9 
9 
9 
9 
9 
9 
9 
9 
9 
9 
9 
9 
9 
9 
9 
9 
9 
9 
9 
9 
9 
9 
9 
9 
9 
9 
9 
9 
9 
9 
9 
9 
9 
9 
9 
9 
9 
9 
9 
9 
9 
9 
9 
9 
9 
9 
9 
9 
9 
9 
9 
9 
9 
9 
9 
9 
9 
9 
9 
9 
9 
9 
9 
9 
9 
9 
9 
9 
9 
9 
9 
9 
9 
9 
9 
9 
9 
9 
9 
9 
9 
9 
9 
9 
9 
9 
9 
9 
9 
9 
9 
9 
9 
9 
9 
9 
9 
9 
9 
9 
9 
9 
9 
9 
9 
9 
9 
9 
9 
9 
9 
9 
9 
9 
9 
9 
9 
9 
9 
9 
9 
9 
9 
9 
9 
9 
9 
9 
9 
9 
9 
9 
9 
9 
9 
9 
9 
9 
9 
9 
9 
9 
9 
9 
9 
9 
9 
9 
9 
9 
9 
9 
9 
9 
9 
9 
9 
9 
9 
9 
9 
9 
9 
9 
9 
9 
9 
9 
9 
9 
9 
9 
9 
9 
9 
9 
9 
9 
9 
9 
9 
9 
9 
9 
9 
9 
9 
9 
9 
9 
9 
9 
9 
9 
9 
9 
9 
9 
9 
9 
9 
9 
9 
9 
9 
9 
9 
9 
9 
9 
9 
9 
9 
9 
9 
9 
9 
9 
9 
9 
9 
9 
9 
9 
9 
9 
9 
9 
9 
9 
9 
9 
9 
9 
9 
9 
9 
9 
9 
9 
9 
9 
9 
9 
9 
9 
9 
9 
9 
9 
9 
9 
9 
9 
9 
9 
9 
9 
9 
9 
9 
9 
9 
9 
9 
9 
9 
9 
9 
9 
9 
9 
9 
9 
9 
9 
9 
9 
9 
9 
9 
9 
9 
9 
9 
9 
9 
9 
9 
9 
9 
9 
9 
9 
9 
9 
9 
9 
9 
9 
9 
9 
9 
9 
9 
9 
9 
9 
9 
9 
9 
9 
9 
9 
9 
9 
9 
9 
9 
9 
9 
9 
9 
9 
9 
9 
9 
9 
9 
9 
9 
9 
9 
9 
9 
9 
9 
9 
9 
9 
9 
9 
9 
9 
9 
9 
9 
9 
9 
9 
9 
9 
9 
9 
9 
9 
9 
9 
9 
9 
9 
9 
9 
9 
9 
9 
9 
9 
9 
9 
9 
9 
9 
9 
9 
9 
9 
9 
9 
9 
9 
9 
9 
9 
9 
9 
9 
9 
9 
9 
9 
9 
9 
9 
9 
9 
9 
9 
9 
9 
9 
9 
9 
9 
9 
9 
9 
9 
9 
9 
9 
9 
9 
9 
9 
9 
9 
9 
9 
9 
9 
9 
9 
9 
9 
9 
9 
9 
9 
9 
9 
9 
9 
9 
9 
9 
9 
9 
9 
9 
9 
9 
9 
9 
9 
9 
9 
9 
9 
9 
9 
9 
9 
9 
9 
9 
9 
9 
9 
9 
9 
9 
9 
9 
9 
9 
9 
9 
9 
9 
9 
9 
9 
9 
9 
9 
9 
9 
9 
9 
9 
9 
9 
9 
9 
9 
9 
9 
9 
9 
9 
9 
9 
9 
9 
9 
9 
9 
9 
9 
9 
9 
9 
9 
9 
9 
9 
9 
9 
9 
9 
9 
9 
9 
9 
9 
9 
9 
9 
9 
9 
9 
9 
9 
9 
9 
9 
9 
9 
9 
9 
9 
9 
9 
9 
9 
9 
9 
9 
9 
9 
9 
9 
9 
9 
9 
9 
9 
9 
9 
9 
9 
9 
9 
9 
9 
9 
9 
9 
9 
9 
9 
9 
9 
9 
9 
9 
9 
9 
9 
9 
9 
9 
9 
9 
9 
9 
9 
9 
9 
9 
9 
9 
9 
9 
9 
9 
9 
9 
9 
9 
9 
9 
9 
9 
9 
9 
9 
9 
9 
9 
9 
9 
9 
9 
9 
9 
9 
9 
9 
9 
9 
9 
9 
9 
9 
9 
9 
9 
9 
9 
9 
9 
9 
9 
9 
9 
9 
9 
9 
9 
9 
9 
9 
9 
9 
9 
9 
9 
9 
9 
9 
9 
9 
9 
9 
9 
9 
9 
9 
9 
9 
9 
9 
9 
9 
9 
9 
9 
9 
9 
9 
9 
9 
9 
9 
9 
9 
9 
9 
9 
9 
9 
9 
9 
9 
9 
9 
9 
9 
9 
9 
9 
9 
9 
9 
9 
9 
9 
9 
9 
9 
9 
9 
9 
9 
9 
9 
9 
9 
9 
9 
9 
9 
9 
9 
9 
9 
9 
9 
9 
9 
9 
9 
9 
9 
9 
9 
9 
9 
9 
9 
9 
9 
9 
9 
9 
9 
9 
9 
9 
9 
9 
9 
9 
9 
9 
9 
9 
9 
9 
9 
9 
9 
9 
9 
9 
9 
9 
9 
9 
9 
9 
9 
9 
9 
9 
9 
9 
9 
9 
9 
9 
9 
9 
9 
9 
9 
9 
9 
9 
9 
9 
9 
9 
9 
9 
9 
9 
9 
9 
9 
9 
9 
9 
9 
9 
9 
9 
9 
9 
9 
9 
9 
9 
9 
9 
9 
9 
9 
9 
9 
9 
9 
9 
9 
9 
9 
9 
9 
9 
9 
9 
9 
9 
9 
9 
9 
9 
9 
9 
9 
9 
9 
9 
9 
9 
9 
9 
9 
9 
9 
9 
9 
9 
9 
9 
9 
9 
9 
9 
9 
9 
9 
9 
9 
9 
9 
9 
9 
9 
9 
9 
9 
9 
9 
9 
9 
9 
9 
9 
9 
9 
9 
9 
9 
9 
9 
9 
9 
9 
9 
9 
9 
9 
9 
9 
9 
9 
9 
9 
9 
9 
9 
9 
9 
9 
9 
9 
9 
9 
9 
9 
9 
9 
9 
9 
9 
9 
9 
9 
9 
9 
9 
9 
9 
9 
9 
9 
9 
9 
9 
9 
9 
9 
9 
9 
9 
9 
9 
9 
9 
9 
9 
9 
9 
9 
9 
9 
9 
9 
9 
9 
9 
9 
9 
9 
9 
9 
9 
9 
9 
9 
9 
9 
9 
9 
9 
9 
9 
9 
9 
9 
9 
9 
9 
9 
9 
9 
9 
9 
9 
9 
9 
9 
9 
9 
9 
9 
9 
9 
9 
9 
9 
9 
9 
9 
9 
9 
9 
9 
9 
9 
9 
9 
9 
9 
9 
9 
9 
9 
9 
9 
9 
9 
9 
9 
9 
9 
9 
9 
9 
9 
9 
9 
9 
9 
9 
9 
9 
9 
9 
9 
9 
9 
9 
9 
9 
9 
9 
9 
9 
9 
9 
9 
9 
9 
9 
9 
9 
9 
9 
9 
9 
9 
9 
9 
9 
9 
9 
9 
9 
9 
9 
9 
9 
9 
9 
9 
9 
9 
9 
9 
9 
9 
9 
9 
9 
9 
9 
9 
9 
9 
9 
9 
9 
9 
9 
9 
9 
9 
9 
9 
9 
9 
9 
9 
9 
9 
9 
9 
9 
9 
9 
9 
9 
9 
9 
9 
9 
9 
9 
9 
9 
9 
9 
9 
9 
9 
9 
9 
9 
9 
9 
9 
9 
9 
9 
9 
9 
9 
9 
9 
9 
9 
9 
9 
9 
9 
9 
9 
9 
9 
9 
9 
9 
9 
9 
9 
9 
9 
9 
9 
9 
9 
9 
9 
9 
9 
9 
9 
9 
9 
9 
9 
9 
9 
9 
9 
9 
9 
9 
9 
9 
9 
9 
9 
9 
9 
9 
9 
9 
9 
9 
9 
9 
9 
9 
9 
9 
9 
9 
9 
9 
9 
9 
9 
9 
9 
9 
9 
9 
9 
9 
9 
9 
9 
9 
9 
9 
9 
9 
9 
9 
9 
9 
9 
9 
9 
9 
9 
9 
9 
9 
9 
9 
9 
9 
9 
9 
9 
9 
9 
9 
9 
9 
9 
9 
9 
9 
9 
9 
9 
9 
9 
9 
9 
9 
9 
9 
9 
9 
9 
9 
9 
9 
9 
9 
9 
9 
9 
9 
9 
9 
9 
9 
9 
9 
9 
9 
9 
9 
9 
9 
9 
9 
9 
9 
9 
9 
9 
9 
9 
9 
9 
9 
9 
9 
9 
9 
9 
9 
9 
9 
9 
9 
9 
9 
9 
9 
9 
9 
9 
9 
9 
9 
9 
9 
9 
9 
9 
9 
9 
9 
9 
9 
9 
9 
9 
9 
9 
9 
9 
9 
9 
9 
9 
9 
9 
9 
9 
9 
9 
9 
9 
9 
9 
9 
9 
9 
9 
9 
9 
9 
9 
9 
9 
9 
9 
9 
9 
9 
9 
9 
9 
9 
9 
9 
9 
9 
9 
9 
9 
9 
9 
9 
9 
9 
9 
9 
9 
9 
9 
9 
9 
9 
9 
9 
9 
9 
9 
9 
9 
9 
9 
9 
9 
9 
9 
9 
9 
9 
9 
9 
9 
9 
9 
9 
9 
9 
9 
9 
9 
9 
9 
9 
9 
9 
9 
9 
9 
9 
9 
9 
9 
9 
9 
9 
9 
9 
9 
9 
9 
9 
9 
9 
9 
9 
9 
9 
9 
9 
9 
9 
9 
9 
9 
9 
9 
9 
9 
9 
9 
9 
9 
9 
9 
9 
9 
9 
9 
9 
9 
9 
9 
9 
9 
9 
9 
9 
9 
9 
9 
9 
9 
9 
9 
9 
9 
9 
9 
9 
9 
9 
9 
9 
9 
9 
9 
9 
9 
9 
9 
9 
9 
9 
9 
9 
9 
9 
9 
9 
9 
9 
9 
9 
9 
9 
9 
9 
9 
9 
9 
9 
9 
9 
9 
9 
9 
9 
9 
9 
9 
9 
9 
9 
9 
9 
9 
9 
9 
9 
9 
9 
9 
9 
9 
9 
9 
9 
9 
9 
9 
9 
9 
9 
9 
9 
9 
9 
9 
9 
9 
9 
9 
9 
9 
9 
9 
9 
9 
9 
9 
9 
9 
9 
9 
9 
9 
9 
9 
9 
9 
9 
9 
9 
9 
9 
9 
9 
9 
9 
9 
9 
9 
9 
9 
9 
9 
9 
9 
9 
9 
9 
9 
9 
9 
9 
9 
9 
9 
9 
9 
9 
9 
9 
9 
9 
9 
9 
9 
9 
9 
9 
9 
9 
9 
9 
9 
9 
9 
9 
9 
9 
9 
9 
9 
9 
9 
9 
9 
9 
9 
9 
9 
9 
9 
9 
9 
9 
9 
9 
9 
9 
9 
9 
9 
9 
9 
9 
9 
9 
9 
9 
9 
9 
9 
9 
9 
9 
9 
9 
9 
9 
9 
9 
9 
9 
9 
9 
9 
9 
9 
9 
9 
9 
9 
9 
9 
9 
9 
9 
9 
9 
9 
9 
9 
9 
9 
9 
9 
9 
9 
9 
9 
9 
9 
9 
9 
9 
9 
9 
9 
9 
9 
9 
9 
9 
9 
9 
9 
9 
9 
9 
9 
9 
9 
9 
9 
9 
9 
9 
9 
9 
9 
9 
9 
9 
9 
9 
9 
9 
9 
9 
9 
9 
9 
9 
9 
9 
9 
9 
9 
9 
9 
9 
9 
9 
9 
9 
9 
9 
9 
9 
9 
9 
9 
9 
9 
9 
9 
9 
9 
9 
9 
9 
9 
9 
9 
9 
9 
9 
9 
9 
9 
9 
9 
9 
9 
9 
9 
9 
9 
9 
9 
9 
9 
9 
9 
9 
9 
9 
9 
9 
9 
9 
9 
9 
9 
9 
9 
9 
9 
9 
9 
9 
9 
9 
9 
9 
9 
9 
9 
9 
9 
9 
9 
9 
9 
9 
9 
9 
9 
9 
9 
9 
9 
9 
9 
9 
9 
9 
9 
9 
9 
9 
9 
9 
9 
9 
9 
9 
9 
9 
9 
9 
9 
9 
9 
9 
9 
9 
9 
9 
9 
9 
9 
9 
9 
9 
9 
9 
9 
9 
9 
9 
9 
9 
9 
9 
9 
9 
9 
9 
9 
9 
9 
9 
9 
9 
9 
9 
9 
9 
9 
9 
9 
9 
9 
9 
9 
9 
9 
9 
9 
9 
9 
9 
9 
9 
9 
9 
9 
9 
9 
9 
9 
9 
9 
9 
9 
9 
9 
9 
9 
9 
9 
9 
9 
9 
9 
9 
9 
9 
9 
9 
9 
9 
9 
9 
9 
9 
9 
9 
9 
9 
9 
9 
9 
9 
9 
9 
9 
9 
9 
9 
9 
9 
9 
9 
9 
9 
9 
9 
9 
9 
9 
9 
9 
9 
9 
9 
9 
9 
9 
9 
9 
9 
9 
9 
9 
9 
9 
9 
9 
9 
9 
9 
9 
9 
9 
9 
9 
9 
9 
9 
9 
9 
9 
9 
9 
9 
9 
9 
9 
9 
9 
9 
9 
9 
9 
9 
9 
9 
9 
9 
9 
9 
9 
9 
9 
9 
9 
9 
9 
9 
9 
9 
9 
9 
9 
9 
9 
9 
9 
9 
9 
9 
9 
9 
9 
9 
9 
9 
9 
9 
9 
9 
9 
9 
9 
9 
9 
9 
9 
9 
9 
9 
9 
9 
9 
9 
9 
9 
9 
9 
9 
9 
9 
9 
9 
9 
9 
9 
9 
9 
9 
9 
9 
9 
9 
9 
9 
9 
9 
9 
9 
9 
9 
9 
9 
9 
9 
9 
9 
9 
9 
9 
9 
9 
9 
9 
9 
9 
9 
9 
9 
9 
9 
9 
9 
9 
9 
9 
9 
9 
9 
9 
9 
9 
9 
9 
9 
9 
9 
9 
9 
9 
9 
9 
9 
9 
9 
9 
9 
9 
9 
9 
9 
9 
9 
9 
9 
9 
9 
9 
9 
9 
9 
9 
9 
9 
9 
9 
9 
9 
9 
9 
9 
9 
9 
9 
9 
9 
9 
9 
9 
9 
9 
9 
9 
9 
9 
9 
9 
9 
9 
9 
9 
9 
9 
9 
9 
9 
9 
9 
9 
9 
9 
9 
9 
9 
9 
9 
9 
9 
9 
9 
9 
9 
9 
9 
9 
9 
9 
9 
9 
9 
9 
9 
9 
9 
9 
9 
9 
9 
9 
9 
9 
9 
9 
9 
9 
9 
9 
9 
9 
9 
9 
9 
9 
9 
9 
9 
9 
9 
9 
9 
9 
9 
9 
9 
9 
9 
9 
9 
9 
9 
9 
9 
9 
9 
9 
9 
9 
9 
9 
9 
9 
9 
9 
9 
9 
9 
9 
9 
9 
9 
9 
9 
9 
9 
9 
9 
9 
9 
9 
9 
9 
9 
9 
9 
9 
9 
9 
9 
9 
9 
9 
9 
9 
9 
9 
9 
9 
9 
9 
9 
9 
9 
9 
9 
9 
9 
9 
9 
9 
9 
9 
9 
9 
9 
9 
9 
9 
9 
9 
9 
9 
9 
9 
9 
9 
9 
9 
9 
9 
9 
9 
9 
9 
9 
9 
9 
9 
9 
9 
9 
9 
9 
9 
9 
9 
9 
9 
9 
9 
9 
9 
9 
9 
9 
9 
9 
9 
9 
9 
9 
9 
9 
9 
9 
9 
9 
9 
9 
9 
9 
9 
9 
9 
9 
9 
9 
9 
9 
9 
9 
9 
9 
9 
9 
9 
9 
9 
9 
9 
9 
9 
9 
9 
9 
9 
9 
9 
9 
9 
9 
9 
9 
9 
9 
9 
9 
9 
9 
9 
9 
9 
9 
9 
9 
9 
9 
9 
9 
9 
9 
9 
9 
9 
9 
9 
9 
9 
9 
9 
9 
9 
9 
9 
9 
9 
9 
9 
9 
9 
9 
9 
9 
9 
9 
9 
9 
9 
9 
9 
9 
9 
9 
9 
9 
9 
9 
9 
9 
9 
9 
9 
9 
9 
9 
9 
9 
9 
9 
9 
9 
9 
9 
9 
9 
9 
9 
9 
9 
9 
9 
9 
9 
9 
9 
9 
9 
9 
9 
9 
9 
9 
9 
9 
9 
9 
9 
9 
9 
9 
9 
9 
9 
9 
9 
9 
9 
9 
9 
9 
9 
9 
9 
9 
9 
9 
9 
9 
9 
9 
9 
9 
9 
9 
9 
9 
9 
9 
9 
9 
9 
9 
9 
9 
9 
9 
9 
9 
9 
9 
9 
9 
9 
9 
9 
9 
9 
9 
9 
9 
9 
9 
9 
9 
9 
9 
9 
9 
9 
9 
9 
9 
9 
9 
9 
9 
9 
9 
9 
9 
9 
9 
9 
9 
9 
9 
9 
9 
9 
9 
9 
9 
9 
9 
9 
9 
9 
9 
9 
9 
9 
9 
9 
9 
9 
9 
9 
9 
9 
9 
9 
9 
9 
9 
9 
9 
9 
9 
9 
9 
9 
9 
9 
9 
9 
9 
9 
9 
9 
9 
9 
9 
9 
9 
9 
9 
9 
9 
9 
9 
9 
9 
9 
9 
9 
9 
9 
9 
9 
9 
9 
9 
9 
9 
9 
9 
9 
9 
9 
9 
9 
9 
9 
9 
9 
9 
9 
9 
9 
9 
9 
9 
9 
9 
9 
9 
9 
9 
9 
9 
9 
9 
9 
9 
9 
9 
9 
9 
9 
9 
9 
9 
9 
9 
9 
9 
9 
9 
9 
9 
9 
9 
9 
9 
9 
9 
9 
9 
9 
9 
9 
9 
9 
9 
9 
9 
9 
9 
9 
9 
9 
9 
9 
9 
9 
9 
9 
9 
9 
9 
9 
9 
9 
9 
9 
9 
9 
9 
9 
9 
9 
9 
9 
9 
9 
9 
9 
9 
9 
9 
9 
9 
9 
9 
9 
9 
9 
9 
9 
9 
9 
9 
9 
9 
9 
9 
9 
9 
9 
9 
9 
9 
9 
9 
9 
9 
9 
9 
9 
9 
9 
9 
9 
9 
9 
9 
9 
9 
9 
9 
9 
9 
9 
9 
9 
9 
9 
9 
9 
9 
9 
9 
9 
9 
9 
9 
9 
9 
9 
9 
9 
9 
9 
9 
9 
9 
9 
9 
9 
9 
9 
9 
9 
9 
9 
9 
9 
9 
9 
9 
9 
9 
9 
9 
9 
9 
9 
9 
9 
9 
9 
9 
9 
9 
9 
9 
9 
9 
9 
9 
9 
9 
9 
9 
9 
9 
9 
9 
9 
9 
9 
9 
9 
9 
9 
9 
9 
9 
9 
9 
9 
9 
9 
9 
9 
9 
9 
9 
9 
9 
9 
9 
9 
9 
9 
9 
9 
9 
9 
9 
9 
9 
9 
9 
9 
9 
9 
9 
9 
9 
9 
9 
9 
9 
9 
9 
9 
9 
9 
9 
9 
9 
9 
9 
9 
9 
9 
9 
9 
9 
9 
9 
9 
9 
9 
9 
9 
9 
9 
9 
9 
9 
9 
9 
9 
9 
9 
9 
9 
9 
9 
9 
9 
9 
9 
9 
9 
9 
9 
9 
9 
9 
9 
9 
9 
9 
9 
9 
9 
9 
9 
9 
9 
9 
9 
9 
9 
9 
9 
9 
9 
9 
9 
9 
9 
9 
9 
9 
9 
9 
9 
9 
9 
9 
9 
9 
9 
9 
9 
9 
9 
9 
9 
9 
9 
9 
9 
9 
9 
9 
9 
9 
9 
9 
9 
9 
9 
9 
9 
9 
9 
9 
9 
9 
9 
9 
9 
9 
9 
9 
9 
9 
9 
9 
9 
9 
9 
9 
9 
9 
9 
9 
9 
9 
9 
9 
9 
9 
9 
9 
9 
9 
9 
9 
9 
9 
9 
9 
9 
9 
9 
9 
9 
9 
9 
9 
9 
9 
9 
9 
9 
9 
9 
9 
9 
9 
9 
9 
9 
9 
9 
9 
9 
9 
9 
9 
9 
9 
9 
9 
9 
9 
9 
9 
9 
9 
9 
9 
9 
9 
9 
9 
9 
9 
9 
9 
9 
9 
9 
9 
9 
9 
9 
9 
9 
9 
9 
9 
9 
9 
9 
9 
9 
9 
9 
9 
9 
9 
9 
9 
9 
9 
9 
9 
9 
9 
9 
9 
9 
9 
9 
9 
9 
9 
9 
9 
9 
9 
9 
9 
9 
9 
9 
9 
9 
9 
9 
9 
9 
9 
9 
9 
9 
9 
9 
9 
9 
9 
9 
9 
9 
9 
9 
9 
9 
9 
9 
9 
9 
9 
9 
9 
9 
9 
9 
9 
9 
9 
9 
9 
9 
9 
9 
9 
9 
9 
9 
9 
9 
9 
9 
9 
9 
9 
9 
9 
9 
9 
9 
9 
9 
9 
9 
9 
9 
9 
9 
9 
9 
9 
9 
9 
9 
9 
9 
9 
9 
9 
9 
9 
9 
9 
9 
9 
9 
9 
9 
9 
9 
9 
9 
9 
9 
9 
9 
9 
9 
9 
9 
9 
9 
9 
9 
9 
9 
9 
9 
9 
9 
9 
9 
9 
9 
9 
9 
9 
9 
9 
9 
9 
9 
9 
9 
9 
9 
9 
9 
9 
9 
9 
9 
9 
9 
9 
9 
9 
9 
9 
9 
9 
9 
9 
9 
9 
9 
9 
9 
9 
9 
9 
9 
9 
9 
9 
9 
9 
9 
9 
9 
9 
9 
9 
9 
9 
9 
9 
9 
9 
9 
9 
9 
9 
9 
9 
9 
9 
9 
9 
9 
9 
9 
9 
9 
9 
9 
9 
9 
9 
9 
9 
9 
9 
9 
9 
9 
9 
9 
9 
9 
9 
9 
9 
9 
9 
9 
9 
9 
9 
9 
9 
9 
9 
9 
9 
9 
9 
9 
9 
9 
9 
9 
9 
9 
9 
9 
9 
9 
9 
9 
9 
9 
9 
9 
9 
9 
9 
9 
9 
9 
9 
9 
9 
9 
9 
9 
9 
9 
9 
9 
9 
9 
9 
9 
9 
9 
9 
9 
9 
9 
9 
9 
9 
9 
9 
9 
9 
9 
9 
9 
9 
9 
9 
9 
9 
9 
9 
9 
9 
9 
9 
9 
9 
9 
9 
9 
9 
9 
9 
9 
9 
9 
9 
9 
9 
9 
9 
9 
9 
9 
9 
9 
9 
9 
9 
9 
9 
9 
9 
9 
9 
9 
9 
9 
9 
9 
9 
9 
9 
9 
9 
9 
9 
9 
9 
9 
9 
9 
9 
9 
9 
9 
9 
9 
9 
9 
9 
9 
9 
9 
9 
9 
9 
9 
9 
9 
9 
9 
9 
9 
9 
9 
9 
9 
9 
9 
9 
9 
9 
9 
9 
9 
9 
9 
9 
9 
9 
9 
9 
9 
9 
9 
9 
9 
9 
9 
9 
9 
9 
9 
9 
9 
9 
9 
9 
9 
9 
9 
9 
9 
9 
9 
9 
9 
9 
9 
9 
9 
9 
9 
9 
9 
9 
9 
9 
9 
9 
9 
9 
9 
9 
9 
9 
9 
9 
9 
9 
9 
9 
9 
9 
9 
9 
9 
9 
9 
9 
9 
9 
9 
9 
9 
9 
9 
9 
9 
CELL_DATA 20000 
FIELD FieldData 2 
density 1 20000 float
0.999904 
0.999906 
0.999903 
0.999896 
0.999888 
0.999881 
0.999873 
0.999866 
0.999857 
0.999849 
0.999839 
0.999830 
0.999819 
0.999809 
0.999797 
0.999785 
0.999773 
0.999759 
0.999746 
0.999731 
0.999716 
0.999700 
0.999688 
0.999671 
0.999629 
0.999545 
0.999473 
0.999425 
0.999389 
0.999364 
0.999375 
0.999397 
0.999331 
0.999166 
0.999001 
0.998908 
0.998857 
0.998824 
0.998820 
0.998871 
0.998974 
0.999055 
0.999077 
0.999039 
0.998975 
0.998971 
0.999051 
0.999174 
0.999264 
0.999318 
0.999357 
0.999396 
0.999435 
0.999472 
0.999507 
0.999541 
0.999573 
0.999604 
0.999632 
0.999662 
0.999700 
0.999746 
0.999792 
0.999832 
0.999857 
0.999868 
0.999875 
0.999882 
0.999888 
0.999890 
0.999886 
0.999880 
0.999881 
0.999891 
0.999906 
0.999926 
0.999940 
0.999950 
0.999956 
0.999960 
0.999962 
0.999965 
0.999967 
0.999971 
0.999976 
0.999980 
0.999982 
0.999983 
0.999982 
0.999982 
0.999985 
0.999988 
0.999990 
0.999991 
0.999990 
0.999991 
0.999992 
0.999994 
0.999995 
0.999996 
0.895679 
0.545198 
0.222325 
0.078592 
0.056259 
0.049486 
0.048075 
0.044499 
0.042503 
0.042145 
0.041127 
0.039497 
0.039293 
0.038667 
0.036850 
0.034355 
0.033361 
0.030372 
0.028308 
0.026118 
0.024753 
0.023101 
0.022061 
0.020061 
0.019515 
0.017806 
0.016842 
0.015769 
0.014751 
0.014542 
0.013704 
0.012000 
0.011560 
0.010921 
0.009367 
0.009214 
0.009886 
0.008306 
0.007284 
0.006348 
0.005300 
0.004867 
0.004390 
0.003753 
0.002544 
0.002153 
0.002145 
0.002182 
0.002140 
0.002055 
0.002470 
0.002751 
0.002446 
0.001659 
0.001222 
0.001102 
0.001077 
0.001050 
0.001024 
0.001004 
0.001000 
0.001000 
0.001000 
0.001000 
0.001000 
0.001000 
0.001000 
0.001013 
0.002134 
0.019576 
0.093396 
0.201255 
0.270958 
0.339146 
0.428789 
0.519242 
0.577349 
0.552373 
0.475031 
0.398210 
0.321250 
0.248012 
0.169171 
0.085570 
0.032052 
0.013792 
0.012724 
0.024612 
0.052409 
0.087390 
0.114387 
0.127399 
0.120408 
0.100294 
0.073524 
0.046366 
0.025529 
0.013657 
0.009123 
0.008332 
0.999908 
0.999909 
0.999907 
0.999900 
0.999893 
0.999886 
0.999878 
0.999871 
0.999863 
0.999855 
0.999846 
0.999836 
0.999826 
0.999816 
0.999805 
0.999793 
0.999781 
0.999768 
0.999754 
0.999740 
0.999725 
0.999710 
0.999695 
0.999676 
0.999629 
0.999556 
0.999490 
0.999448 
0.999413 
0.999390 
0.999404 
0.999426 
0.999355 
0.999182 
0.999029 
0.998948 
0.998907 
0.998875 
0.998866 
0.998903 
0.998991 
0.999073 
0.999106 
0.999078 
0.999025 
0.999018 
0.999092 
0.999206 
0.999292 
0.999343 
0.999381 
0.999419 
0.999457 
0.999492 
0.999527 
0.999560 
0.999591 
0.999620 
0.999647 
0.999676 
0.999712 
0.999756 
0.999799 
0.999837 
0.999861 
0.999872 
0.999879 
0.999885 
0.999891 
0.999893 
0.999889 
0.999885 
0.999886 
0.999895 
0.999907 
0.999922 
0.999935 
0.999946 
0.999954 
0.999960 
0.999963 
0.999966 
0.999968 
0.999971 
0.999976 
0.999980 
0.999983 
0.999983 
0.999983 
0.999983 
0.999985 
0.999988 
0.999990 
0.999991 
0.999991 
0.999992 
0.999993 
0.999984 
0.951132 
0.868744 
0.732013 
0.480682 
0.215586 
0.113501 
0.084673 
0.069099 
0.061466 
0.054401 
0.048144 
0.043515 
0.041796 
0.039389 
0.037198 
0.035619 
0.033689 
0.032487 
0.030902 
0.030397 
0.029410 
0.028038 
0.025772 
0.023967 
0.022729 
0.021042 
0.019713 
0.018311 
0.017457 
0.016694 
0.015043 
0.013942 
0.012699 
0.011247 
0.010764 
0.009980 
0.008446 
0.008115 
0.007826 
0.006959 
0.005877 
0.005078 
0.004447 
0.003948 
0.004087 
0.003602 
0.002888 
0.002467 
0.002365 
0.002422 
0.002258 
0.002500 
0.002851 
0.003227 
0.002975 
0.002311 
0.001771 
0.001684 
0.001571 
0.001550 
0.001298 
0.001097 
0.001017 
0.001004 
0.001002 
0.001001 
0.001000 
0.001000 
0.001004 
0.001167 
0.004636 
0.031880 
0.100828 
0.181601 
0.247378 
0.312320 
0.391494 
0.458216 
0.486834 
0.469997 
0.417148 
0.362245 
0.295258 
0.232760 
0.182430 
0.130528 
0.079975 
0.047954 
0.041072 
0.061814 
0.104410 
0.146995 
0.173223 
0.182529 
0.172917 
0.147079 
0.112512 
0.075438 
0.042938 
0.022206 
0.012667 
0.009448 
0.999910 
0.999911 
0.999909 
0.999902 
0.999895 
0.999888 
0.999881 
0.999873 
0.999865 
0.999857 
0.999848 
0.999839 
0.999829 
0.999819 
0.999808 
0.999796 
0.999784 
0.999772 
0.999758 
0.999744 
0.999729 
0.999714 
0.999698 
0.999676 
0.999629 
0.999558 
0.999498 
0.999458 
0.999423 
0.999401 
0.999419 
0.999444 
0.999367 
0.999182 
0.999030 
0.998963 
0.998931 
0.998902 
0.998885 
0.998905 
0.998977 
0.999071 
0.999121 
0.999112 
0.999066 
0.999053 
0.999115 
0.999223 
0.999307 
0.999355 
0.999393 
0.999430 
0.999467 
0.999502 
0.999536 
0.999568 
0.999598 
0.999627 
0.999654 
0.999682 
0.999717 
0.999760 
0.999802 
0.999839 
0.999863 
0.999873 
0.999880 
0.999887 
0.999892 
0.999895 
0.999893 
0.999887 
0.999888 
0.999896 
0.999906 
0.999918 
0.999929 
0.999939 
0.999950 
0.999958 
0.999963 
0.999966 
0.999968 
0.999971 
0.999975 
0.999980 
0.999983 
0.999984 
0.999983 
0.999984 
0.999985 
0.999987 
0.999990 
0.999991 
0.999992 
0.999993 
0.999985 
0.954031 
0.803265 
0.656031 
0.552986 
0.420787 
0.269694 
0.173968 
0.115718 
0.086841 
0.071726 
0.064864 
0.053590 
0.048085 
0.043592 
0.040077 
0.037339 
0.034705 
0.032769 
0.031185 
0.029653 
0.028516 
0.027798 
0.026899 
0.025035 
0.023892 
0.022599 
0.021204 
0.018951 
0.017597 
0.016922 
0.016315 
0.014886 
0.013684 
0.012727 
0.011456 
0.011026 
0.009887 
0.008241 
0.007226 
0.006874 
0.005852 
0.005285 
0.004827 
0.004452 
0.004622 
0.004696 
0.004449 
0.004203 
0.004251 
0.004159 
0.003625 
0.003615 
0.003974 
0.004585 
0.004932 
0.004775 
0.004195 
0.003751 
0.003568 
0.003627 
0.003329 
0.002682 
0.001907 
0.001462 
0.001274 
0.001151 
0.001053 
0.001022 
0.001045 
0.001291 
0.003107 
0.014985 
0.052163 
0.106832 
0.155214 
0.198125 
0.248396 
0.293298 
0.324791 
0.330969 
0.314422 
0.288283 
0.257307 
0.217354 
0.178305 
0.160423 
0.144131 
0.117135 
0.090538 
0.091023 
0.127561 
0.186249 
0.228453 
0.243247 
0.251364 
0.250053 
0.222717 
0.178908 
0.131441 
0.084141 
0.044881 
0.024059 
0.015530 
0.999909 
0.999910 
0.999908 
0.999901 
0.999893 
0.999886 
0.999879 
0.999872 
0.999864 
0.999855 
0.999847 
0.999837 
0.999827 
0.999817 
0.999806 
0.999795 
0.999782 
0.999770 
0.999756 
0.999742 
0.999727 
0.999712 
0.999696 
0.999672 
0.999623 
0.999554 
0.999495 
0.999455 
0.999421 
0.999399 
0.999416 
0.999440 
0.999359 
0.999167 
0.999011 
0.998953 
0.998928 
0.998903 
0.998882 
0.998890 
0.998954 
0.999054 
0.999123 
0.999131 
0.999098 
0.999072 
0.999120 
0.999221 
0.999305 
0.999353 
0.999391 
0.999428 
0.999464 
0.999499 
0.999532 
0.999564 
0.999595 
0.999624 
0.999651 
0.999679 
0.999715 
0.999757 
0.999800 
0.999838 
0.999862 
0.999872 
0.999879 
0.999886 
0.999892 
0.999895 
0.999893 
0.999887 
0.999887 
0.999894 
0.999904 
0.999914 
0.999924 
0.999933 
0.999943 
0.999953 
0.999960 
0.999964 
0.999967 
0.999970 
0.999975 
0.999980 
0.999983 
0.999984 
0.999984 
0.999984 
0.999984 
0.999986 
0.999989 
0.999991 
0.999993 
0.999994 
0.999980 
0.911585 
0.693989 
0.454332 
0.424987 
0.428281 
0.363639 
0.244779 
0.155750 
0.101928 
0.082246 
0.070713 
0.060337 
0.053334 
0.047972 
0.043316 
0.039894 
0.037903 
0.035038 
0.032769 
0.029943 
0.028077 
0.025883 
0.024902 
0.023892 
0.022913 
0.022427 
0.020843 
0.019180 
0.017781 
0.016642 
0.015663 
0.014775 
0.014274 
0.013598 
0.012440 
0.011972 
0.010984 
0.009477 
0.008425 
0.007595 
0.007018 
0.006546 
0.006312 
0.006307 
0.006509 
0.006533 
0.006304 
0.006290 
0.006815 
0.007108 
0.006655 
0.006407 
0.006732 
0.007172 
0.007549 
0.007912 
0.007840 
0.007546 
0.007464 
0.006887 
0.005965 
0.004917 
0.004677 
0.005004 
0.005268 
0.004377 
0.002983 
0.002389 
0.003278 
0.006922 
0.018128 
0.046841 
0.087361 
0.115957 
0.130891 
0.145709 
0.157920 
0.164387 
0.161236 
0.150111 
0.134530 
0.123471 
0.112162 
0.097467 
0.084306 
0.079426 
0.077348 
0.067741 
0.060272 
0.074816 
0.117583 
0.182669 
0.227133 
0.253727 
0.268751 
0.281497 
0.274716 
0.244326 
0.198689 
0.143330 
0.089598 
0.051694 
0.033026 
0.999907 
0.999909 
0.999906 
0.999899 
0.999892 
0.999885 
0.999878 
0.999870 
0.999862 
0.999854 
0.999845 
0.999835 
0.999825 
0.999815 
0.999804 
0.999792 
0.999780 
0.999767 
0.999754 
0.999740 
0.999725 
0.999710 
0.999694 
0.999669 
0.999620 
0.999550 
0.999491 
0.999451 
0.999417 
0.999393 
0.999399 
0.999419 
0.999342 
0.999156 
0.999001 
0.998946 
0.998927 
0.998904 
0.998883 
0.998888 
0.998949 
0.999052 
0.999127 
0.999145 
0.999117 
0.999085 
0.999122 
0.999220 
0.999303 
0.999351 
0.999388 
0.999424 
0.999460 
0.999495 
0.999529 
0.999561 
0.999591 
0.999620 
0.999647 
0.999675 
0.999710 
0.999753 
0.999797 
0.999836 
0.999860 
0.999871 
0.999878 
0.999884 
0.999890 
0.999894 
0.999892 
0.999885 
0.999885 
0.999892 
0.999902 
0.999913 
0.999921 
0.999929 
0.999937 
0.999946 
0.999954 
0.999960 
0.999964 
0.999967 
0.999973 
0.999978 
0.999981 
0.999982 
0.999982 
0.999982 
0.999983 
0.999985 
0.999988 
0.999990 
0.999993 
0.999995 
0.999988 
0.923092 
0.662980 
0.426786 
0.336576 
0.371337 
0.387055 
0.326444 
0.225646 
0.151314 
0.106667 
0.079426 
0.068383 
0.062368 
0.054301 
0.047902 
0.044498 
0.041398 
0.039191 
0.036143 
0.033549 
0.030341 
0.028162 
0.026185 
0.025219 
0.024232 
0.023425 
0.022925 
0.021922 
0.020818 
0.019637 
0.017854 
0.016306 
0.015607 
0.014893 
0.014084 
0.013639 
0.013505 
0.012252 
0.011284 
0.010380 
0.009891 
0.009758 
0.009621 
0.008978 
0.008982 
0.008772 
0.008278 
0.008246 
0.009259 
0.010087 
0.010128 
0.009928 
0.010098 
0.010441 
0.011072 
0.011761 
0.012684 
0.013213 
0.013507 
0.012781 
0.010981 
0.009642 
0.011145 
0.016416 
0.021355 
0.021945 
0.017439 
0.014798 
0.019169 
0.029936 
0.047995 
0.072053 
0.091450 
0.094488 
0.088573 
0.081325 
0.071516 
0.061153 
0.050878 
0.040243 
0.031243 
0.025691 
0.022226 
0.018872 
0.016253 
0.015017 
0.013275 
0.009870 
0.009611 
0.016553 
0.041412 
0.091045 
0.164478 
0.214045 
0.238517 
0.255824 
0.261926 
0.262716 
0.248455 
0.202128 
0.141011 
0.095197 
0.067745 
0.999907 
0.999908 
0.999905 
0.999899 
0.999891 
0.999884 
0.999877 
0.999869 
0.999861 
0.999853 
0.999844 
0.999834 
0.999824 
0.999814 
0.999803 
0.999791 
0.999779 
0.999766 
0.999753 
0.999739 
0.999724 
0.999709 
0.999693 
0.999669 
0.999620 
0.999550 
0.999492 
0.999452 
0.999419 
0.999388 
0.999382 
0.999390 
0.999327 
0.999155 
0.999008 
0.998956 
0.998939 
0.998917 
0.998897 
0.998901 
0.998961 
0.999062 
0.999136 
0.999157 
0.999134 
0.999102 
0.999132 
0.999225 
0.999306 
0.999353 
0.999390 
0.999426 
0.999461 
0.999495 
0.999528 
0.999560 
0.999590 
0.999619 
0.999645 
0.999673 
0.999706 
0.999747 
0.999792 
0.999833 
0.999858 
0.999870 
0.999877 
0.999883 
0.999890 
0.999893 
0.999889 
0.999883 
0.999883 
0.999891 
0.999901 
0.999912 
0.999920 
0.999927 
0.999933 
0.999941 
0.999948 
0.999953 
0.999958 
0.999963 
0.999969 
0.999975 
0.999978 
0.999979 
0.999979 
0.999980 
0.999982 
0.999984 
0.999987 
0.999989 
0.999992 
0.999994 
0.999994 
0.938211 
0.697047 
0.376614 
0.245606 
0.243416 
0.310083 
0.364307 
0.341124 
0.257483 
0.157620 
0.105822 
0.082227 
0.071443 
0.061337 
0.054632 
0.048759 
0.044091 
0.041608 
0.039297 
0.037266 
0.036401 
0.033161 
0.031155 
0.029418 
0.027601 
0.026835 
0.025903 
0.025533 
0.025368 
0.024328 
0.022482 
0.020632 
0.018878 
0.017832 
0.017215 
0.017149 
0.017143 
0.016512 
0.015806 
0.014996 
0.014389 
0.014448 
0.013593 
0.012660 
0.012012 
0.011737 
0.011666 
0.011467 
0.011959 
0.012814 
0.013725 
0.013973 
0.014500 
0.015019 
0.015084 
0.015717 
0.016187 
0.017692 
0.018339 
0.019454 
0.018367 
0.018609 
0.021071 
0.027899 
0.035933 
0.039585 
0.034507 
0.026874 
0.025080 
0.027980 
0.031890 
0.037260 
0.038358 
0.034335 
0.027961 
0.021011 
0.015373 
0.011033 
0.008102 
0.005153 
0.003316 
0.002487 
0.002099 
0.001833 
0.001655 
0.001548 
0.001380 
0.001187 
0.001171 
0.001735 
0.006511 
0.036247 
0.117465 
0.208041 
0.228028 
0.224042 
0.228621 
0.258113 
0.276627 
0.247092 
0.194338 
0.142792 
0.112864 
0.999906 
0.999908 
0.999905 
0.999898 
0.999891 
0.999883 
0.999876 
0.999869 
0.999861 
0.999852 
0.999843 
0.999834 
0.999824 
0.999813 
0.999802 
0.999791 
0.999779 
0.999766 
0.999753 
0.999739 
0.999724 
0.999709 
0.999694 
0.999670 
0.999621 
0.999552 
0.999494 
0.999455 
0.999422 
0.999389 
0.999373 
0.999375 
0.999320 
0.999162 
0.999025 
0.998977 
0.998959 
0.998934 
0.998915 
0.998920 
0.998978 
0.999076 
0.999148 
0.999171 
0.999157 
0.999133 
0.999160 
0.999239 
0.999313 
0.999358 
0.999394 
0.999429 
0.999464 
0.999497 
0.999530 
0.999561 
0.999590 
0.999618 
0.999645 
0.999671 
0.999700 
0.999738 
0.999783 
0.999825 
0.999854 
0.999869 
0.999876 
0.999883 
0.999888 
0.999889 
0.999885 
0.999879 
0.999881 
0.999889 
0.999900 
0.999910 
0.999919 
0.999926 
0.999932 
0.999938 
0.999944 
0.999949 
0.999955 
0.999960 
0.999965 
0.999970 
0.999973 
0.999975 
0.999977 
0.999979 
0.999981 
0.999983 
0.999986 
0.999988 
0.999991 
0.999993 
0.999994 
0.950356 
0.724307 
0.405659 
0.195026 
0.147756 
0.181474 
0.277783 
0.350133 
0.346993 
0.268068 
0.185029 
0.129954 
0.093281 
0.075349 
0.066228 
0.057174 
0.048439 
0.044621 
0.041442 
0.039347 
0.037870 
0.037720 
0.034198 
0.032546 
0.030970 
0.029441 
0.028509 
0.027058 
0.026346 
0.026561 
0.027613 
0.025852 
0.024074 
0.022727 
0.021887 
0.021142 
0.020341 
0.020193 
0.020260 
0.020771 
0.019329 
0.018570 
0.017698 
0.016035 
0.015480 
0.014690 
0.013763 
0.014043 
0.013644 
0.013526 
0.013938 
0.014544 
0.016267 
0.017184 
0.015434 
0.013508 
0.012408 
0.012776 
0.012795 
0.013101 
0.014229 
0.014570 
0.015872 
0.016978 
0.018147 
0.019673 
0.016193 
0.010294 
0.006575 
0.005086 
0.004715 
0.004647 
0.004456 
0.003766 
0.002917 
0.002204 
0.001710 
0.001442 
0.001253 
0.001110 
0.001034 
0.001013 
0.001008 
0.001005 
0.001003 
0.001003 
0.001001 
0.001000 
0.001000 
0.001042 
0.003602 
0.031023 
0.134347 
0.231750 
0.253081 
0.212593 
0.200680 
0.223957 
0.276705 
0.285634 
0.244555 
0.197619 
0.163059 
0.999906 
0.999907 
0.999904 
0.999898 
0.999890 
0.999883 
0.999876 
0.999868 
0.999860 
0.999851 
0.999842 
0.999833 
0.999823 
0.999813 
0.999802 
0.999790 
0.999778 
0.999766 
0.999752 
0.999739 
0.999724 
0.999709 
0.999694 
0.999670 
0.999622 
0.999554 
0.999496 
0.999458 
0.999426 
0.999394 
0.999375 
0.999375 
0.999330 
0.999189 
0.999055 
0.999004 
0.998986 
0.998957 
0.998936 
0.998941 
0.998997 
0.999092 
0.999161 
0.999189 
0.999189 
0.999185 
0.999204 
0.999265 
0.999322 
0.999364 
0.999398 
0.999433 
0.999466 
0.999499 
0.999531 
0.999562 
0.999591 
0.999618 
0.999644 
0.999669 
0.999696 
0.999730 
0.999772 
0.999814 
0.999848 
0.999866 
0.999876 
0.999882 
0.999886 
0.999885 
0.999877 
0.999874 
0.999879 
0.999888 
0.999898 
0.999909 
0.999918 
0.999925 
0.999931 
0.999936 
0.999942 
0.999948 
0.999954 
0.999959 
0.999962 
0.999966 
0.999969 
0.999972 
0.999975 
0.999978 
0.999980 
0.999983 
0.999985 
0.999988 
0.999990 
0.999993 
0.999994 
0.967049 
0.775423 
0.454273 
0.219827 
0.122366 
0.100901 
0.130981 
0.204329 
0.311958 
0.367752 
0.335183 
0.243555 
0.169771 
0.123065 
0.098771 
0.077635 
0.060264 
0.050517 
0.044771 
0.039840 
0.038174 
0.036079 
0.033946 
0.032415 
0.031678 
0.029881 
0.028280 
0.026916 
0.025395 
0.025468 
0.026215 
0.027058 
0.025597 
0.024597 
0.023698 
0.022329 
0.021281 
0.020409 
0.020731 
0.019848 
0.019112 
0.018049 
0.016745 
0.015335 
0.014593 
0.013188 
0.011950 
0.011890 
0.011184 
0.010084 
0.009472 
0.009542 
0.010589 
0.010889 
0.009356 
0.007546 
0.006098 
0.005428 
0.004955 
0.004754 
0.004739 
0.004649 
0.004229 
0.003456 
0.002852 
0.002648 
0.002243 
0.001546 
0.001178 
0.001072 
0.001047 
0.001046 
0.001040 
0.001026 
0.001015 
0.001008 
0.001004 
0.001002 
0.001002 
0.001000 
0.001000 
0.001000 
0.001000 
0.001000 
0.001000 
0.001000 
0.001000 
0.001000 
0.001003 
0.001519 
0.012179 
0.082289 
0.217065 
0.310417 
0.272353 
0.221109 
0.186471 
0.196844 
0.236579 
0.283668 
0.291645 
0.261911 
0.226106 
0.999905 
0.999906 
0.999904 
0.999897 
0.999889 
0.999882 
0.999875 
0.999867 
0.999859 
0.999851 
0.999842 
0.999832 
0.999822 
0.999812 
0.999801 
0.999790 
0.999778 
0.999765 
0.999752 
0.999738 
0.999724 
0.999709 
0.999694 
0.999671 
0.999623 
0.999555 
0.999499 
0.999462 
0.999431 
0.999399 
0.999381 
0.999384 
0.999358 
0.999236 
0.999100 
0.999034 
0.999005 
0.998980 
0.998959 
0.998963 
0.999015 
0.999103 
0.999173 
0.999205 
0.999219 
0.999230 
0.999253 
0.999292 
0.999335 
0.999370 
0.999404 
0.999437 
0.999469 
0.999502 
0.999533 
0.999562 
0.999591 
0.999618 
0.999644 
0.999668 
0.999693 
0.999723 
0.999762 
0.999804 
0.999841 
0.999864 
0.999875 
0.999881 
0.999885 
0.999881 
0.999872 
0.999869 
0.999876 
0.999886 
0.999897 
0.999908 
0.999916 
0.999923 
0.999929 
0.999935 
0.999941 
0.999947 
0.999953 
0.999957 
0.999960 
0.999963 
0.999967 
0.999970 
0.999974 
0.999977 
0.999979 
0.999982 
0.999984 
0.999987 
0.999989 
0.999992 
0.999994 
0.962473 
0.803089 
0.501609 
0.258742 
0.135780 
0.083030 
0.060719 
0.084637 
0.149590 
0.266951 
0.353138 
0.358143 
0.311386 
0.240704 
0.185208 
0.139834 
0.101896 
0.075719 
0.059888 
0.046693 
0.039906 
0.036662 
0.032936 
0.031315 
0.030350 
0.028756 
0.028118 
0.026541 
0.024948 
0.023293 
0.022797 
0.021971 
0.021531 
0.021314 
0.020384 
0.019346 
0.018176 
0.016934 
0.015589 
0.014661 
0.013554 
0.012892 
0.012021 
0.010969 
0.010437 
0.009151 
0.007965 
0.007441 
0.006542 
0.005549 
0.004760 
0.004496 
0.004656 
0.004596 
0.003668 
0.002886 
0.002379 
0.002063 
0.001921 
0.001852 
0.001631 
0.001338 
0.001198 
0.001084 
0.001030 
0.001017 
0.001011 
0.001003 
0.001000 
0.001000 
0.001000 
0.001000 
0.001000 
0.001000 
0.001000 
0.001000 
0.001000 
0.001000 
0.001000 
0.001000 
0.001000 
0.001000 
0.001000 
0.001000 
0.001000 
0.001000 
0.001000 
0.001000 
0.001076 
0.005141 
0.051648 
0.189144 
0.345628 
0.366937 
0.296695 
0.228510 
0.194481 
0.180378 
0.196286 
0.247370 
0.306398 
0.322922 
0.306332 
0.999904 
0.999906 
0.999903 
0.999896 
0.999888 
0.999881 
0.999874 
0.999866 
0.999858 
0.999850 
0.999841 
0.999831 
0.999822 
0.999811 
0.999800 
0.999789 
0.999777 
0.999765 
0.999752 
0.999738 
0.999724 
0.999710 
0.999695 
0.999672 
0.999625 
0.999558 
0.999502 
0.999466 
0.999436 
0.999405 
0.999385 
0.999390 
0.999385 
0.999294 
0.999144 
0.999046 
0.999013 
0.998996 
0.998983 
0.998984 
0.999023 
0.999104 
0.999175 
0.999216 
0.999238 
0.999259 
0.999282 
0.999316 
0.999354 
0.999386 
0.999412 
0.999441 
0.999473 
0.999504 
0.999534 
0.999563 
0.999591 
0.999618 
0.999643 
0.999667 
0.999691 
0.999717 
0.999752 
0.999793 
0.999832 
0.999859 
0.999873 
0.999880 
0.999883 
0.999877 
0.999868 
0.999867 
0.999874 
0.999885 
0.999896 
0.999906 
0.999915 
0.999922 
0.999928 
0.999933 
0.999939 
0.999946 
0.999952 
0.999956 
0.999959 
0.999962 
0.999966 
0.999969 
0.999972 
0.999975 
0.999978 
0.999981 
0.999983 
0.999986 
0.999988 
0.999991 
0.999992 
0.972189 
0.828444 
0.538661 
0.298608 
0.172853 
0.099500 
0.057224 
0.040887 
0.052259 
0.094394 
0.175601 
0.275598 
0.344676 
0.360123 
0.330490 
0.299277 
0.221182 
0.168969 
0.122373 
0.086793 
0.062801 
0.050619 
0.041779 
0.036015 
0.031435 
0.028512 
0.027805 
0.027209 
0.026247 
0.024706 
0.021819 
0.019737 
0.018885 
0.018711 
0.017974 
0.016929 
0.015293 
0.014259 
0.012918 
0.012092 
0.011176 
0.010870 
0.010135 
0.009382 
0.008752 
0.007815 
0.006448 
0.005195 
0.004078 
0.003194 
0.002713 
0.002474 
0.002630 
0.002308 
0.001887 
0.001625 
0.001502 
0.001388 
0.001322 
0.001258 
0.001144 
0.001049 
0.001016 
0.001005 
0.001001 
0.001001 
0.001001 
0.001000 
0.001000 
0.001000 
0.001000 
0.001000 
0.001000 
0.001000 
0.001000 
0.001000 
0.001000 
0.001000 
0.001000 
0.001000 
0.001000 
0.001000 
0.001000 
0.001000 
0.001000 
0.001000 
0.001000 
0.001002 
0.001371 
0.014029 
0.103279 
0.290132 
0.414157 
0.394956 
0.302223 
0.239529 
0.213189 
0.186589 
0.173833 
0.210979 
0.299737 
0.364231 
0.374490 
0.999903 
0.999905 
0.999902 
0.999895 
0.999887 
0.999880 
0.999873 
0.999865 
0.999857 
0.999849 
0.999840 
0.999830 
0.999821 
0.999810 
0.999800 
0.999788 
0.999776 
0.999764 
0.999751 
0.999738 
0.999724 
0.999710 
0.999695 
0.999672 
0.999628 
0.999563 
0.999507 
0.999470 
0.999441 
0.999411 
0.999385 
0.999385 
0.999390 
0.999332 
0.999188 
0.999061 
0.999015 
0.999010 
0.999006 
0.999003 
0.999029 
0.999093 
0.999174 
0.999225 
0.999252 
0.999274 
0.999302 
0.999344 
0.999392 
0.999424 
0.999437 
0.999451 
0.999476 
0.999506 
0.999536 
0.999564 
0.999591 
0.999618 
0.999642 
0.999666 
0.999688 
0.999713 
0.999743 
0.999782 
0.999821 
0.999853 
0.999870 
0.999878 
0.999878 
0.999871 
0.999862 
0.999863 
0.999872 
0.999883 
0.999895 
0.999905 
0.999913 
0.999920 
0.999926 
0.999932 
0.999937 
0.999944 
0.999950 
0.999955 
0.999959 
0.999962 
0.999965 
0.999968 
0.999971 
0.999974 
0.999977 
0.999979 
0.999982 
0.999984 
0.999987 
0.999990 
0.999991 
0.991705 
0.872726 
0.606539 
0.336039 
0.208519 
0.134997 
0.079553 
0.044474 
0.029061 
0.029361 
0.055287 
0.104046 
0.179190 
0.267530 
0.359123 
0.399617 
0.384908 
0.336230 
0.310949 
0.223754 
0.169721 
0.126104 
0.099759 
0.072357 
0.054572 
0.042334 
0.038694 
0.034462 
0.031637 
0.029755 
0.027281 
0.024350 
0.021962 
0.021600 
0.021353 
0.020243 
0.019300 
0.018161 
0.017615 
0.017138 
0.016777 
0.014693 
0.013537 
0.012787 
0.011689 
0.010560 
0.008700 
0.006879 
0.005439 
0.004357 
0.003757 
0.003439 
0.003466 
0.003097 
0.002568 
0.002363 
0.002441 
0.002205 
0.001942 
0.001769 
0.001427 
0.001239 
0.001146 
0.001090 
0.001073 
0.001075 
0.001047 
0.001014 
0.001002 
0.001000 
0.001000 
0.001000 
0.001000 
0.001000 
0.001000 
0.001000 
0.001000 
0.001000 
0.001000 
0.001000 
0.001000 
0.001000 
0.001000 
0.001000 
0.001000 
0.001000 
0.001000 
0.001005 
0.001867 
0.023554 
0.141329 
0.326599 
0.428071 
0.401593 
0.322625 
0.264929 
0.246253 
0.213078 
0.180093 
0.195816 
0.287867 
0.380940 
0.422647 
0.999902 
0.999904 
0.999901 
0.999894 
0.999886 
0.999879 
0.999872 
0.999864 
0.999856 
0.999848 
0.999839 
0.999829 
0.999820 
0.999809 
0.999799 
0.999787 
0.999776 
0.999763 
0.999751 
0.999738 
0.999724 
0.999710 
0.999695 
0.999675 
0.999637 
0.999576 
0.999518 
0.999476 
0.999446 
0.999418 
0.999390 
0.999379 
0.999390 
0.999365 
0.999239 
0.999098 
0.999028 
0.999025 
0.999028 
0.999026 
0.999041 
0.999097 
0.999179 
0.999237 
0.999266 
0.999287 
0.999319 
0.999376 
0.999447 
0.999485 
0.999482 
0.999478 
0.999491 
0.999515 
0.999539 
0.999565 
0.999592 
0.999617 
0.999641 
0.999665 
0.999687 
0.999709 
0.999736 
0.999771 
0.999810 
0.999845 
0.999867 
0.999875 
0.999872 
0.999861 
0.999855 
0.999859 
0.999869 
0.999881 
0.999893 
0.999903 
0.999911 
0.999917 
0.999924 
0.999929 
0.999935 
0.999942 
0.999948 
0.999954 
0.999958 
0.999961 
0.999964 
0.999967 
0.999970 
0.999973 
0.999975 
0.999978 
0.999980 
0.999983 
0.999986 
0.999989 
0.999990 
0.999979 
0.921563 
0.685411 
0.390138 
0.229394 
0.153090 
0.107570 
0.067693 
0.035642 
0.022749 
0.022020 
0.029942 
0.046167 
0.089650 
0.166014 
0.247698 
0.284163 
0.370025 
0.426956 
0.442209 
0.376123 
0.335713 
0.276460 
0.229701 
0.160535 
0.122828 
0.096251 
0.074378 
0.059867 
0.052891 
0.048795 
0.044112 
0.040649 
0.035768 
0.035039 
0.034490 
0.034369 
0.033914 
0.032474 
0.031620 
0.031702 
0.029517 
0.024770 
0.023159 
0.022778 
0.019837 
0.017926 
0.016757 
0.013893 
0.011681 
0.010910 
0.010317 
0.009433 
0.007687 
0.006501 
0.006363 
0.006734 
0.006820 
0.005952 
0.004958 
0.004030 
0.003195 
0.002662 
0.002163 
0.002038 
0.002021 
0.001807 
0.001369 
0.001151 
0.001058 
0.001028 
0.001017 
0.001009 
0.001004 
0.001001 
0.001001 
0.001000 
0.001000 
0.001000 
0.001000 
0.001000 
0.001000 
0.001000 
0.001000 
0.001000 
0.001000 
0.001000 
0.001011 
0.002564 
0.032942 
0.163982 
0.335061 
0.420292 
0.411331 
0.360903 
0.317912 
0.304492 
0.266326 
0.202067 
0.193070 
0.269104 
0.383162 
0.447633 
0.999901 
0.999903 
0.999900 
0.999893 
0.999885 
0.999878 
0.999871 
0.999863 
0.999855 
0.999846 
0.999838 
0.999828 
0.999818 
0.999808 
0.999798 
0.999786 
0.999775 
0.999763 
0.999750 
0.999737 
0.999724 
0.999710 
0.999696 
0.999679 
0.999649 
0.999596 
0.999532 
0.999484 
0.999452 
0.999425 
0.999398 
0.999381 
0.999391 
0.999390 
0.999307 
0.999158 
0.999058 
0.999036 
0.999045 
0.999050 
0.999063 
0.999114 
0.999195 
0.999253 
0.999281 
0.999300 
0.999333 
0.999401 
0.999488 
0.999536 
0.999537 
0.999524 
0.999529 
0.999542 
0.999556 
0.999573 
0.999593 
0.999616 
0.999640 
0.999663 
0.999685 
0.999706 
0.999729 
0.999759 
0.999797 
0.999835 
0.999862 
0.999871 
0.999864 
0.999852 
0.999848 
0.999855 
0.999866 
0.999878 
0.999891 
0.999901 
0.999908 
0.999915 
0.999921 
0.999927 
0.999933 
0.999939 
0.999945 
0.999951 
0.999956 
0.999960 
0.999962 
0.999965 
0.999968 
0.999971 
0.999974 
0.999976 
0.999979 
0.999982 
0.999985 
0.999988 
0.999989 
0.999988 
0.967754 
0.776901 
0.478924 
0.257376 
0.168664 
0.124452 
0.089325 
0.054078 
0.030783 
0.022247 
0.014904 
0.012126 
0.017282 
0.038516 
0.063077 
0.096814 
0.159289 
0.264316 
0.335006 
0.379909 
0.408705 
0.433495 
0.426047 
0.380614 
0.323556 
0.273677 
0.224369 
0.173394 
0.150363 
0.132423 
0.121228 
0.102277 
0.089179 
0.073929 
0.072738 
0.070076 
0.067222 
0.061566 
0.059272 
0.061983 
0.057583 
0.052506 
0.050782 
0.050439 
0.043641 
0.040441 
0.038586 
0.037363 
0.031938 
0.029406 
0.028844 
0.024428 
0.020443 
0.015481 
0.014028 
0.014818 
0.014935 
0.014821 
0.014041 
0.010996 
0.009322 
0.007700 
0.006158 
0.005459 
0.005414 
0.004656 
0.003760 
0.002911 
0.002076 
0.001648 
0.001367 
0.001153 
0.001060 
0.001036 
0.001022 
0.001009 
0.001002 
0.001000 
0.001000 
0.001000 
0.001000 
0.001000 
0.001000 
0.001000 
0.001000 
0.001000 
0.001018 
0.003401 
0.042927 
0.182586 
0.338932 
0.407742 
0.417360 
0.391798 
0.380644 
0.371706 
0.329620 
0.233452 
0.191999 
0.242435 
0.357208 
0.442720 
0.999900 
0.999902 
0.999899 
0.999892 
0.999884 
0.999877 
0.999869 
0.999862 
0.999854 
0.999845 
0.999836 
0.999827 
0.999817 
0.999807 
0.999796 
0.999785 
0.999774 
0.999762 
0.999750 
0.999737 
0.999724 
0.999710 
0.999696 
0.999682 
0.999658 
0.999609 
0.999543 
0.999491 
0.999458 
0.999432 
0.999406 
0.999385 
0.999388 
0.999398 
0.999360 
0.999230 
0.999107 
0.999051 
0.999057 
0.999068 
0.999087 
0.999137 
0.999214 
0.999270 
0.999295 
0.999313 
0.999345 
0.999411 
0.999501 
0.999562 
0.999576 
0.999577 
0.999582 
0.999588 
0.999590 
0.999595 
0.999606 
0.999623 
0.999644 
0.999664 
0.999683 
0.999702 
0.999724 
0.999751 
0.999785 
0.999823 
0.999854 
0.999864 
0.999855 
0.999843 
0.999843 
0.999851 
0.999862 
0.999875 
0.999888 
0.999898 
0.999906 
0.999912 
0.999918 
0.999924 
0.999930 
0.999935 
0.999942 
0.999948 
0.999953 
0.999956 
0.999959 
0.999962 
0.999965 
0.999969 
0.999972 
0.999974 
0.999977 
0.999980 
0.999984 
0.999987 
0.999988 
0.999988 
0.994635 
0.870733 
0.591434 
0.318427 
0.191000 
0.137657 
0.109546 
0.069205 
0.042794 
0.029206 
0.018799 
0.009141 
0.007184 
0.010208 
0.016372 
0.024450 
0.037717 
0.062165 
0.092617 
0.138864 
0.188217 
0.261569 
0.338360 
0.378913 
0.402935 
0.413514 
0.405964 
0.386383 
0.359572 
0.325293 
0.287059 
0.264707 
0.215176 
0.186063 
0.162289 
0.144714 
0.133247 
0.122285 
0.110742 
0.106838 
0.108781 
0.096932 
0.097348 
0.101738 
0.085564 
0.077343 
0.081553 
0.075027 
0.067261 
0.062664 
0.057499 
0.051656 
0.042588 
0.036035 
0.030930 
0.031051 
0.031310 
0.030831 
0.028510 
0.025508 
0.022084 
0.019090 
0.014426 
0.011906 
0.011036 
0.009957 
0.008708 
0.007699 
0.006170 
0.004730 
0.003433 
0.002130 
0.001532 
0.001434 
0.001387 
0.001230 
0.001072 
0.001010 
0.001002 
0.001001 
0.001001 
0.001000 
0.001000 
0.001000 
0.001000 
0.001000 
0.001024 
0.003878 
0.047835 
0.193491 
0.339307 
0.399253 
0.411213 
0.412936 
0.413803 
0.427025 
0.384649 
0.274385 
0.203877 
0.228683 
0.312666 
0.389409 
0.999899 
0.999901 
0.999898 
0.999891 
0.999883 
0.999875 
0.999868 
0.999860 
0.999852 
0.999844 
0.999835 
0.999826 
0.999816 
0.999806 
0.999795 
0.999784 
0.999773 
0.999761 
0.999749 
0.999737 
0.999724 
0.999710 
0.999697 
0.999683 
0.999661 
0.999615 
0.999549 
0.999496 
0.999464 
0.999439 
0.999415 
0.999391 
0.999382 
0.999397 
0.999389 
0.999299 
0.999159 
0.999078 
0.999065 
0.999084 
0.999109 
0.999160 
0.999233 
0.999286 
0.999310 
0.999327 
0.999354 
0.999409 
0.999491 
0.999560 
0.999594 
0.999607 
0.999617 
0.999626 
0.999629 
0.999631 
0.999633 
0.999645 
0.999661 
0.999676 
0.999691 
0.999709 
0.999731 
0.999755 
0.999784 
0.999816 
0.999845 
0.999852 
0.999842 
0.999834 
0.999837 
0.999847 
0.999859 
0.999872 
0.999884 
0.999895 
0.999902 
0.999909 
0.999915 
0.999921 
0.999927 
0.999932 
0.999938 
0.999943 
0.999948 
0.999952 
0.999955 
0.999959 
0.999963 
0.999966 
0.999969 
0.999972 
0.999975 
0.999979 
0.999983 
0.999986 
0.999988 
0.999989 
0.999986 
0.937250 
0.712405 
0.417512 
0.229945 
0.154065 
0.125060 
0.091231 
0.057745 
0.038432 
0.024578 
0.012899 
0.007064 
0.006943 
0.009504 
0.011429 
0.012477 
0.013109 
0.016005 
0.028060 
0.046812 
0.072326 
0.110193 
0.150904 
0.198428 
0.257324 
0.320604 
0.360370 
0.380684 
0.395162 
0.384227 
0.380520 
0.364590 
0.329623 
0.311751 
0.272454 
0.235445 
0.235494 
0.206585 
0.180874 
0.162568 
0.148263 
0.148103 
0.140981 
0.139058 
0.122878 
0.124506 
0.121088 
0.114005 
0.102053 
0.091108 
0.081257 
0.075101 
0.068198 
0.067672 
0.066805 
0.062575 
0.056638 
0.054299 
0.050158 
0.048520 
0.041088 
0.029484 
0.021074 
0.018797 
0.015877 
0.014193 
0.012561 
0.011029 
0.009739 
0.008367 
0.005477 
0.003708 
0.003414 
0.003365 
0.002773 
0.001753 
0.001201 
0.001055 
0.001042 
0.001034 
0.001014 
0.001002 
0.001000 
0.001000 
0.001000 
0.001016 
0.003269 
0.042242 
0.179310 
0.331913 
0.398486 
0.417783 
0.423545 
0.438846 
0.453511 
0.423750 
0.330748 
0.247425 
0.242893 
0.293077 
0.320901 
0.999898 
0.999899 
0.999896 
0.999889 
0.999881 
0.999874 
0.999866 
0.999859 
0.999851 
0.999842 
0.999833 
0.999824 
0.999814 
0.999804 
0.999794 
0.999783 
0.999772 
0.999760 
0.999748 
0.999736 
0.999723 
0.999711 
0.999697 
0.999684 
0.999663 
0.999619 
0.999556 
0.999503 
0.999470 
0.999446 
0.999423 
0.999401 
0.999383 
0.999387 
0.999384 
0.999329 
0.999207 
0.999112 
0.999082 
0.999098 
0.999127 
0.999178 
0.999247 
0.999299 
0.999324 
0.999340 
0.999360 
0.999402 
0.999469 
0.999544 
0.999592 
0.999616 
0.999630 
0.999642 
0.999652 
0.999659 
0.999666 
0.999676 
0.999689 
0.999701 
0.999715 
0.999736 
0.999758 
0.999778 
0.999794 
0.999817 
0.999839 
0.999842 
0.999829 
0.999825 
0.999832 
0.999843 
0.999855 
0.999869 
0.999882 
0.999891 
0.999899 
0.999905 
0.999911 
0.999917 
0.999923 
0.999928 
0.999933 
0.999938 
0.999942 
0.999947 
0.999951 
0.999955 
0.999959 
0.999963 
0.999966 
0.999969 
0.999973 
0.999976 
0.999981 
0.999984 
0.999987 
0.999990 
0.999993 
0.976056 
0.830130 
0.555859 
0.302996 
0.178172 
0.141859 
0.115377 
0.078852 
0.050917 
0.031804 
0.017206 
0.009489 
0.006853 
0.008036 
0.010605 
0.009818 
0.006911 
0.006853 
0.009668 
0.014218 
0.018585 
0.024662 
0.034643 
0.048193 
0.071876 
0.097140 
0.134370 
0.170148 
0.213884 
0.257110 
0.283167 
0.302500 
0.328024 
0.341904 
0.325043 
0.307163 
0.318620 
0.292517 
0.267054 
0.258269 
0.220731 
0.199127 
0.192780 
0.173112 
0.170324 
0.164200 
0.158572 
0.144880 
0.140358 
0.130684 
0.120029 
0.106987 
0.108755 
0.111131 
0.109911 
0.094250 
0.082168 
0.074140 
0.076564 
0.074714 
0.071231 
0.050142 
0.036998 
0.028837 
0.025797 
0.021835 
0.019036 
0.016329 
0.015087 
0.013539 
0.010914 
0.008441 
0.007501 
0.007343 
0.005728 
0.003825 
0.002056 
0.001559 
0.001444 
0.001447 
0.001241 
0.001103 
0.001034 
0.001012 
0.001004 
0.001015 
0.002404 
0.029606 
0.154685 
0.323333 
0.420668 
0.450860 
0.461886 
0.468640 
0.477085 
0.455083 
0.384116 
0.311809 
0.292320 
0.324160 
0.341553 
0.999896 
0.999898 
0.999895 
0.999888 
0.999880 
0.999872 
0.999865 
0.999857 
0.999849 
0.999841 
0.999832 
0.999822 
0.999813 
0.999803 
0.999793 
0.999782 
0.999771 
0.999759 
0.999748 
0.999736 
0.999723 
0.999711 
0.999698 
0.999685 
0.999666 
0.999629 
0.999570 
0.999515 
0.999478 
0.999454 
0.999432 
0.999411 
0.999391 
0.999379 
0.999375 
0.999340 
0.999253 
0.999160 
0.999113 
0.999111 
0.999136 
0.999182 
0.999249 
0.999305 
0.999336 
0.999353 
0.999369 
0.999398 
0.999451 
0.999523 
0.999582 
0.999616 
0.999632 
0.999645 
0.999659 
0.999671 
0.999682 
0.999696 
0.999712 
0.999729 
0.999751 
0.999779 
0.999800 
0.999810 
0.999815 
0.999827 
0.999845 
0.999841 
0.999826 
0.999820 
0.999828 
0.999839 
0.999852 
0.999866 
0.999879 
0.999888 
0.999895 
0.999901 
0.999907 
0.999913 
0.999918 
0.999923 
0.999928 
0.999932 
0.999937 
0.999942 
0.999947 
0.999951 
0.999956 
0.999960 
0.999963 
0.999967 
0.999970 
0.999974 
0.999978 
0.999982 
0.999985 
0.999990 
0.999992 
0.995203 
0.925382 
0.715436 
0.418449 
0.226460 
0.156854 
0.132597 
0.101001 
0.069092 
0.043598 
0.024873 
0.012831 
0.007457 
0.007047 
0.009283 
0.010303 
0.008867 
0.006745 
0.008293 
0.009754 
0.010311 
0.011004 
0.011135 
0.012356 
0.014820 
0.021168 
0.029672 
0.045520 
0.065819 
0.087061 
0.105320 
0.128551 
0.161866 
0.205375 
0.225632 
0.242421 
0.265203 
0.279370 
0.287289 
0.299910 
0.282542 
0.266946 
0.242264 
0.230244 
0.210676 
0.210732 
0.197659 
0.190211 
0.180876 
0.181736 
0.174878 
0.158331 
0.159028 
0.152457 
0.141894 
0.120736 
0.103440 
0.094645 
0.090370 
0.086991 
0.084794 
0.080347 
0.061761 
0.053999 
0.045209 
0.038105 
0.033223 
0.029488 
0.024228 
0.021282 
0.018527 
0.015437 
0.012769 
0.010868 
0.008659 
0.006125 
0.004092 
0.003005 
0.002683 
0.002720 
0.002511 
0.002212 
0.001965 
0.001629 
0.001281 
0.001174 
0.002405 
0.026085 
0.148943 
0.352459 
0.483422 
0.532177 
0.538788 
0.535633 
0.513199 
0.479853 
0.422572 
0.365231 
0.352654 
0.390850 
0.415276 
0.999895 
0.999896 
0.999893 
0.999886 
0.999878 
0.999871 
0.999863 
0.999855 
0.999847 
0.999839 
0.999830 
0.999821 
0.999811 
0.999801 
0.999791 
0.999781 
0.999770 
0.999758 
0.999747 
0.999735 
0.999723 
0.999711 
0.999698 
0.999686 
0.999671 
0.999642 
0.999592 
0.999531 
0.999488 
0.999461 
0.999441 
0.999421 
0.999402 
0.999385 
0.999377 
0.999358 
0.999307 
0.999220 
0.999156 
0.999132 
0.999139 
0.999175 
0.999235 
0.999303 
0.999345 
0.999365 
0.999381 
0.999400 
0.999439 
0.999500 
0.999568 
0.999612 
0.999634 
0.999646 
0.999659 
0.999674 
0.999690 
0.999709 
0.999730 
0.999752 
0.999781 
0.999808 
0.999828 
0.999834 
0.999837 
0.999849 
0.999863 
0.999857 
0.999833 
0.999822 
0.999826 
0.999836 
0.999849 
0.999863 
0.999875 
0.999884 
0.999890 
0.999897 
0.999902 
0.999908 
0.999912 
0.999917 
0.999922 
0.999927 
0.999932 
0.999937 
0.999942 
0.999947 
0.999952 
0.999956 
0.999960 
0.999964 
0.999968 
0.999972 
0.999976 
0.999979 
0.999982 
0.999986 
0.999990 
0.999984 
0.979750 
0.848005 
0.577222 
0.320558 
0.192315 
0.142850 
0.115656 
0.092148 
0.062903 
0.037727 
0.020210 
0.010518 
0.007600 
0.008507 
0.009698 
0.008464 
0.007929 
0.008064 
0.010609 
0.011619 
0.010808 
0.009440 
0.008305 
0.007120 
0.006790 
0.009264 
0.012612 
0.017877 
0.023744 
0.030541 
0.038959 
0.052423 
0.072399 
0.094821 
0.120314 
0.135408 
0.154568 
0.193762 
0.226614 
0.225042 
0.228470 
0.257922 
0.249053 
0.263149 
0.261694 
0.265706 
0.247668 
0.241940 
0.245196 
0.221830 
0.217999 
0.207075 
0.212307 
0.184326 
0.177078 
0.156992 
0.139271 
0.116552 
0.104464 
0.102537 
0.109484 
0.099809 
0.091768 
0.080661 
0.069233 
0.059201 
0.054115 
0.047445 
0.040224 
0.035613 
0.030022 
0.023570 
0.019003 
0.015080 
0.012175 
0.010427 
0.008244 
0.007136 
0.006538 
0.006021 
0.007647 
0.009668 
0.008465 
0.005001 
0.002950 
0.005991 
0.039524 
0.192736 
0.434680 
0.589853 
0.639807 
0.650650 
0.636507 
0.589607 
0.515018 
0.450976 
0.393441 
0.401212 
0.462376 
0.511222 
0.999893 
0.999895 
0.999892 
0.999884 
0.999876 
0.999869 
0.999861 
0.999853 
0.999845 
0.999837 
0.999828 
0.999819 
0.999809 
0.999800 
0.999790 
0.999779 
0.999768 
0.999757 
0.999746 
0.999734 
0.999723 
0.999711 
0.999699 
0.999687 
0.999674 
0.999652 
0.999606 
0.999544 
0.999496 
0.999469 
0.999449 
0.999431 
0.999413 
0.999397 
0.999386 
0.999375 
0.999339 
0.999273 
0.999208 
0.999166 
0.999156 
0.999173 
0.999225 
0.999296 
0.999348 
0.999376 
0.999392 
0.999408 
0.999434 
0.999482 
0.999546 
0.999598 
0.999631 
0.999649 
0.999665 
0.999684 
0.999706 
0.999729 
0.999752 
0.999773 
0.999795 
0.999817 
0.999833 
0.999842 
0.999849 
0.999865 
0.999878 
0.999868 
0.999842 
0.999827 
0.999827 
0.999836 
0.999849 
0.999862 
0.999871 
0.999879 
0.999885 
0.999891 
0.999896 
0.999900 
0.999905 
0.999910 
0.999915 
0.999921 
0.999926 
0.999932 
0.999937 
0.999942 
0.999947 
0.999952 
0.999957 
0.999961 
0.999965 
0.999969 
0.999973 
0.999976 
0.999979 
0.999982 
0.999987 
0.999990 
0.997964 
0.936974 
0.745678 
0.470689 
0.276234 
0.175724 
0.133715 
0.105251 
0.078239 
0.054794 
0.034866 
0.019007 
0.011001 
0.008810 
0.009227 
0.009057 
0.007701 
0.007546 
0.009289 
0.011496 
0.012413 
0.011577 
0.009961 
0.007742 
0.006075 
0.005497 
0.006239 
0.007073 
0.008897 
0.011023 
0.014118 
0.016657 
0.021739 
0.031468 
0.040988 
0.046216 
0.054384 
0.074046 
0.095622 
0.101567 
0.126175 
0.149516 
0.170501 
0.186670 
0.220372 
0.232476 
0.254550 
0.261892 
0.255564 
0.233635 
0.239030 
0.247041 
0.246821 
0.230847 
0.248411 
0.225877 
0.216269 
0.197544 
0.165536 
0.163028 
0.164385 
0.152430 
0.151205 
0.139448 
0.123066 
0.109309 
0.104540 
0.098337 
0.085340 
0.079995 
0.069413 
0.062079 
0.054525 
0.047072 
0.043482 
0.041830 
0.038335 
0.033551 
0.026087 
0.024315 
0.030718 
0.041712 
0.034229 
0.018623 
0.012076 
0.022760 
0.087483 
0.290320 
0.529111 
0.658554 
0.707539 
0.745123 
0.747067 
0.686944 
0.571824 
0.468519 
0.414330 
0.443986 
0.543297 
0.594181 
0.999891 
0.999893 
0.999890 
0.999883 
0.999874 
0.999867 
0.999859 
0.999851 
0.999843 
0.999835 
0.999826 
0.999817 
0.999808 
0.999798 
0.999788 
0.999778 
0.999767 
0.999756 
0.999745 
0.999734 
0.999722 
0.999711 
0.999699 
0.999687 
0.999676 
0.999656 
0.999615 
0.999554 
0.999504 
0.999476 
0.999458 
0.999440 
0.999424 
0.999409 
0.999396 
0.999385 
0.999363 
0.999320 
0.999263 
0.999218 
0.999191 
0.999192 
0.999225 
0.999284 
0.999337 
0.999372 
0.999394 
0.999411 
0.999431 
0.999467 
0.999520 
0.999580 
0.999625 
0.999658 
0.999684 
0.999708 
0.999732 
0.999753 
0.999770 
0.999784 
0.999798 
0.999813 
0.999829 
0.999841 
0.999853 
0.999870 
0.999878 
0.999863 
0.999838 
0.999828 
0.999831 
0.999842 
0.999855 
0.999865 
0.999871 
0.999874 
0.999878 
0.999882 
0.999886 
0.999891 
0.999897 
0.999903 
0.999909 
0.999915 
0.999920 
0.999926 
0.999931 
0.999937 
0.999942 
0.999948 
0.999953 
0.999958 
0.999963 
0.999967 
0.999972 
0.999974 
0.999976 
0.999979 
0.999984 
0.999988 
0.999990 
0.984709 
0.877825 
0.657915 
0.406161 
0.246362 
0.163964 
0.120540 
0.090156 
0.070905 
0.052928 
0.033863 
0.019273 
0.012182 
0.009828 
0.009453 
0.008216 
0.006677 
0.007213 
0.008792 
0.010513 
0.011862 
0.011966 
0.010354 
0.007468 
0.005981 
0.005503 
0.005417 
0.006121 
0.007118 
0.008035 
0.008167 
0.009468 
0.012976 
0.015822 
0.016830 
0.018105 
0.023371 
0.029178 
0.034626 
0.044978 
0.058437 
0.064095 
0.073357 
0.087787 
0.109847 
0.138699 
0.168801 
0.182496 
0.189725 
0.205523 
0.224649 
0.219952 
0.228972 
0.240835 
0.264204 
0.257011 
0.267462 
0.261830 
0.261615 
0.253573 
0.246516 
0.239762 
0.256741 
0.232550 
0.221960 
0.203329 
0.197141 
0.185618 
0.173839 
0.172421 
0.165557 
0.161776 
0.149780 
0.145097 
0.157883 
0.157569 
0.143792 
0.123887 
0.100204 
0.118066 
0.130612 
0.099518 
0.054496 
0.041697 
0.072187 
0.186138 
0.392932 
0.574678 
0.647936 
0.705974 
0.782261 
0.826079 
0.768781 
0.634232 
0.506021 
0.441217 
0.499986 
0.621239 
0.690997 
0.999889 
0.999891 
0.999888 
0.999881 
0.999872 
0.999865 
0.999857 
0.999849 
0.999841 
0.999833 
0.999824 
0.999815 
0.999806 
0.999796 
0.999786 
0.999776 
0.999766 
0.999755 
0.999744 
0.999733 
0.999722 
0.999711 
0.999700 
0.999688 
0.999677 
0.999660 
0.999626 
0.999569 
0.999518 
0.999485 
0.999466 
0.999450 
0.999435 
0.999421 
0.999408 
0.999397 
0.999384 
0.999358 
0.999318 
0.999270 
0.999237 
0.999226 
0.999238 
0.999270 
0.999311 
0.999349 
0.999380 
0.999408 
0.999434 
0.999465 
0.999513 
0.999569 
0.999628 
0.999674 
0.999712 
0.999737 
0.999755 
0.999768 
0.999779 
0.999787 
0.999795 
0.999809 
0.999825 
0.999840 
0.999858 
0.999872 
0.999869 
0.999846 
0.999827 
0.999823 
0.999831 
0.999846 
0.999863 
0.999873 
0.999872 
0.999870 
0.999870 
0.999873 
0.999878 
0.999883 
0.999890 
0.999897 
0.999903 
0.999909 
0.999914 
0.999919 
0.999925 
0.999931 
0.999937 
0.999943 
0.999948 
0.999954 
0.999959 
0.999965 
0.999969 
0.999973 
0.999975 
0.999977 
0.999981 
0.999985 
0.999988 
0.999988 
0.956142 
0.804337 
0.571371 
0.369079 
0.240648 
0.153602 
0.104191 
0.080509 
0.066808 
0.050662 
0.032439 
0.019255 
0.012965 
0.010525 
0.008683 
0.007317 
0.006365 
0.007218 
0.008839 
0.010859 
0.011570 
0.011716 
0.010149 
0.007724 
0.006569 
0.005884 
0.005878 
0.006362 
0.007031 
0.007472 
0.008363 
0.009298 
0.010444 
0.010937 
0.010336 
0.010979 
0.011896 
0.013404 
0.018393 
0.021052 
0.020623 
0.022743 
0.028472 
0.036655 
0.048736 
0.066109 
0.075615 
0.088784 
0.109437 
0.130519 
0.140603 
0.148083 
0.166700 
0.174292 
0.203595 
0.230699 
0.249474 
0.275886 
0.298658 
0.301673 
0.329880 
0.335526 
0.349271 
0.347200 
0.340524 
0.338378 
0.314149 
0.317934 
0.308676 
0.312184 
0.317306 
0.305593 
0.316465 
0.325585 
0.335336 
0.332588 
0.306768 
0.294110 
0.311838 
0.318207 
0.254463 
0.167400 
0.135752 
0.187765 
0.330954 
0.518777 
0.627629 
0.657488 
0.720807 
0.808649 
0.852539 
0.812061 
0.698100 
0.564973 
0.498185 
0.561788 
0.683314 
0.721984 
0.999887 
0.999889 
0.999886 
0.999878 
0.999870 
0.999862 
0.999855 
0.999847 
0.999839 
0.999830 
0.999822 
0.999813 
0.999803 
0.999794 
0.999784 
0.999774 
0.999764 
0.999754 
0.999743 
0.999732 
0.999722 
0.999711 
0.999700 
0.999689 
0.999678 
0.999666 
0.999639 
0.999594 
0.999538 
0.999498 
0.999474 
0.999459 
0.999445 
0.999432 
0.999420 
0.999410 
0.999401 
0.999387 
0.999358 
0.999315 
0.999281 
0.999263 
0.999261 
0.999275 
0.999297 
0.999328 
0.999368 
0.999411 
0.999450 
0.999488 
0.999529 
0.999582 
0.999632 
0.999681 
0.999717 
0.999744 
0.999762 
0.999773 
0.999779 
0.999785 
0.999793 
0.999804 
0.999822 
0.999843 
0.999861 
0.999865 
0.999852 
0.999827 
0.999814 
0.999818 
0.999833 
0.999852 
0.999870 
0.999879 
0.999877 
0.999870 
0.999866 
0.999867 
0.999872 
0.999878 
0.999885 
0.999891 
0.999897 
0.999903 
0.999907 
0.999911 
0.999917 
0.999924 
0.999931 
0.999937 
0.999944 
0.999950 
0.999956 
0.999962 
0.999967 
0.999970 
0.999972 
0.999976 
0.999979 
0.999982 
0.999984 
0.999987 
0.990788 
0.911555 
0.741654 
0.528418 
0.355037 
0.225750 
0.137748 
0.091997 
0.067967 
0.057516 
0.049669 
0.033252 
0.021502 
0.014141 
0.010298 
0.008122 
0.006649 
0.006433 
0.007533 
0.009333 
0.010833 
0.011998 
0.011683 
0.009806 
0.007705 
0.006369 
0.005837 
0.005887 
0.006487 
0.007181 
0.008257 
0.008661 
0.009408 
0.010285 
0.010115 
0.008958 
0.008391 
0.009390 
0.010890 
0.011459 
0.010852 
0.011203 
0.013914 
0.015480 
0.016943 
0.019640 
0.025239 
0.030801 
0.037850 
0.048112 
0.059660 
0.072982 
0.076121 
0.087759 
0.101105 
0.116857 
0.139840 
0.165108 
0.184380 
0.213637 
0.229791 
0.255953 
0.277274 
0.313111 
0.346875 
0.357642 
0.373825 
0.383714 
0.400023 
0.392716 
0.387508 
0.390578 
0.399711 
0.424039 
0.427597 
0.433831 
0.439852 
0.459017 
0.473366 
0.492877 
0.456797 
0.390641 
0.343854 
0.390234 
0.537860 
0.703006 
0.772153 
0.774021 
0.802089 
0.844740 
0.856493 
0.826433 
0.757340 
0.642241 
0.561298 
0.607428 
0.711385 
0.732546 
0.999885 
0.999887 
0.999884 
0.999876 
0.999868 
0.999860 
0.999852 
0.999845 
0.999836 
0.999828 
0.999819 
0.999810 
0.999801 
0.999792 
0.999782 
0.999772 
0.999762 
0.999752 
0.999742 
0.999732 
0.999721 
0.999711 
0.999700 
0.999690 
0.999680 
0.999669 
0.999652 
0.999616 
0.999562 
0.999515 
0.999484 
0.999468 
0.999455 
0.999443 
0.999432 
0.999422 
0.999414 
0.999406 
0.999389 
0.999359 
0.999325 
0.999302 
0.999292 
0.999299 
0.999316 
0.999337 
0.999369 
0.999419 
0.999463 
0.999499 
0.999535 
0.999570 
0.999606 
0.999642 
0.999679 
0.999711 
0.999739 
0.999760 
0.999775 
0.999784 
0.999788 
0.999798 
0.999822 
0.999848 
0.999859 
0.999849 
0.999826 
0.999813 
0.999812 
0.999825 
0.999847 
0.999870 
0.999884 
0.999886 
0.999881 
0.999874 
0.999867 
0.999865 
0.999868 
0.999873 
0.999878 
0.999883 
0.999887 
0.999892 
0.999896 
0.999901 
0.999907 
0.999915 
0.999923 
0.999931 
0.999938 
0.999944 
0.999951 
0.999957 
0.999963 
0.999967 
0.999970 
0.999974 
0.999977 
0.999979 
0.999981 
0.999983 
0.999983 
0.977659 
0.876601 
0.710848 
0.509179 
0.337716 
0.214226 
0.128775 
0.082280 
0.060778 
0.052890 
0.045206 
0.035288 
0.023369 
0.014925 
0.010408 
0.007490 
0.006028 
0.006111 
0.007448 
0.009121 
0.011047 
0.011642 
0.010952 
0.009279 
0.007366 
0.006278 
0.005849 
0.005625 
0.006701 
0.007223 
0.007672 
0.009196 
0.010498 
0.010328 
0.009597 
0.008871 
0.008524 
0.009428 
0.010031 
0.009869 
0.010521 
0.010878 
0.008984 
0.006791 
0.007758 
0.010327 
0.013300 
0.015044 
0.018319 
0.024773 
0.029582 
0.031767 
0.033703 
0.039174 
0.044083 
0.048228 
0.054168 
0.061154 
0.071329 
0.086793 
0.099191 
0.117641 
0.149423 
0.176013 
0.201161 
0.218762 
0.254733 
0.292019 
0.304079 
0.320438 
0.326629 
0.345862 
0.360335 
0.368131 
0.366349 
0.378078 
0.383940 
0.402886 
0.402312 
0.452986 
0.472574 
0.460730 
0.489415 
0.619968 
0.799400 
0.906799 
0.911940 
0.907383 
0.903167 
0.885905 
0.861229 
0.823580 
0.716761 
0.616294 
0.644821 
0.741130 
0.761818 
0.999882 
0.999884 
0.999881 
0.999874 
0.999865 
0.999857 
0.999850 
0.999842 
0.999834 
0.999825 
0.999817 
0.999808 
0.999799 
0.999790 
0.999780 
0.999771 
0.999761 
0.999751 
0.999741 
0.999731 
0.999721 
0.999711 
0.999701 
0.999691 
0.999681 
0.999671 
0.999660 
0.999634 
0.999590 
0.999536 
0.999498 
0.999477 
0.999464 
0.999453 
0.999443 
0.999434 
0.999427 
0.999421 
0.999413 
0.999396 
0.999372 
0.999342 
0.999329 
0.999337 
0.999356 
0.999364 
0.999378 
0.999401 
0.999432 
0.999460 
0.999490 
0.999516 
0.999542 
0.999571 
0.999604 
0.999641 
0.999683 
0.999720 
0.999749 
0.999765 
0.999775 
0.999794 
0.999824 
0.999850 
0.999851 
0.999831 
0.999817 
0.999818 
0.999831 
0.999850 
0.999876 
0.999895 
0.999898 
0.999889 
0.999882 
0.999876 
0.999867 
0.999861 
0.999860 
0.999863 
0.999866 
0.999868 
0.999871 
0.999876 
0.999881 
0.999888 
0.999896 
0.999905 
0.999915 
0.999924 
0.999932 
0.999939 
0.999946 
0.999953 
0.999959 
0.999964 
0.999968 
0.999973 
0.999976 
0.999978 
0.999980 
0.999982 
0.999983 
0.999980 
0.968939 
0.854864 
0.678173 
0.494278 
0.336467 
0.215593 
0.124480 
0.077247 
0.056680 
0.048930 
0.042788 
0.033541 
0.022926 
0.016218 
0.010947 
0.007796 
0.005871 
0.005968 
0.007020 
0.008951 
0.010635 
0.011752 
0.010869 
0.009392 
0.007808 
0.006454 
0.005922 
0.005993 
0.006518 
0.007060 
0.007872 
0.009256 
0.009629 
0.009498 
0.009033 
0.008558 
0.008967 
0.010484 
0.011510 
0.011027 
0.009563 
0.006539 
0.004482 
0.004912 
0.007150 
0.008968 
0.009786 
0.010831 
0.013203 
0.015649 
0.016065 
0.017222 
0.018370 
0.018609 
0.019485 
0.019507 
0.018890 
0.020084 
0.022612 
0.025572 
0.032458 
0.040624 
0.048658 
0.054161 
0.063771 
0.082581 
0.108099 
0.128299 
0.137954 
0.152611 
0.157292 
0.174855 
0.187103 
0.190702 
0.193518 
0.199999 
0.193695 
0.198126 
0.229244 
0.280976 
0.298467 
0.317077 
0.418460 
0.648526 
0.873640 
0.968340 
0.972661 
0.959047 
0.933292 
0.906611 
0.863139 
0.754650 
0.662504 
0.694502 
0.799413 
0.847639 
0.999880 
0.999882 
0.999879 
0.999871 
0.999863 
0.999855 
0.999847 
0.999839 
0.999831 
0.999823 
0.999814 
0.999805 
0.999796 
0.999787 
0.999778 
0.999769 
0.999759 
0.999749 
0.999740 
0.999730 
0.999720 
0.999711 
0.999701 
0.999691 
0.999682 
0.999673 
0.999664 
0.999647 
0.999613 
0.999561 
0.999515 
0.999487 
0.999474 
0.999463 
0.999454 
0.999446 
0.999439 
0.999433 
0.999429 
0.999423 
0.999408 
0.999388 
0.999372 
0.999380 
0.999397 
0.999401 
0.999393 
0.999392 
0.999399 
0.999416 
0.999438 
0.999461 
0.999485 
0.999512 
0.999540 
0.999571 
0.999607 
0.999647 
0.999687 
0.999716 
0.999745 
0.999777 
0.999820 
0.999840 
0.999841 
0.999830 
0.999833 
0.999850 
0.999867 
0.999884 
0.999898 
0.999906 
0.999895 
0.999884 
0.999878 
0.999871 
0.999860 
0.999850 
0.999846 
0.999847 
0.999849 
0.999850 
0.999853 
0.999858 
0.999865 
0.999873 
0.999883 
0.999894 
0.999905 
0.999915 
0.999925 
0.999933 
0.999941 
0.999948 
0.999955 
0.999960 
0.999966 
0.999971 
0.999975 
0.999978 
0.999980 
0.999982 
0.999984 
0.999983 
0.997365 
0.950345 
0.829261 
0.657419 
0.492971 
0.336910 
0.217635 
0.124039 
0.076060 
0.054383 
0.044390 
0.037728 
0.030113 
0.024139 
0.018894 
0.012639 
0.007988 
0.005472 
0.006134 
0.006990 
0.009249 
0.011261 
0.011593 
0.010048 
0.008536 
0.007206 
0.006692 
0.006317 
0.005988 
0.005818 
0.006769 
0.007135 
0.008475 
0.009131 
0.009196 
0.008257 
0.007932 
0.009819 
0.011134 
0.010413 
0.008515 
0.006325 
0.005236 
0.005312 
0.005970 
0.006623 
0.007430 
0.008227 
0.009816 
0.011183 
0.012441 
0.013315 
0.014006 
0.014128 
0.014236 
0.013693 
0.012274 
0.010598 
0.009361 
0.009701 
0.011708 
0.013702 
0.013491 
0.013742 
0.015248 
0.019211 
0.025523 
0.031126 
0.036701 
0.038661 
0.039638 
0.043493 
0.048337 
0.052399 
0.057842 
0.065709 
0.069976 
0.062837 
0.068145 
0.079583 
0.090655 
0.101369 
0.175394 
0.410318 
0.754159 
0.954135 
0.993658 
0.988443 
0.967649 
0.932896 
0.860876 
0.781540 
0.710783 
0.768997 
0.870833 
0.931378 
0.999877 
0.999879 
0.999876 
0.999868 
0.999860 
0.999852 
0.999844 
0.999836 
0.999828 
0.999820 
0.999811 
0.999803 
0.999794 
0.999785 
0.999776 
0.999766 
0.999757 
0.999748 
0.999738 
0.999729 
0.999720 
0.999710 
0.999701 
0.999692 
0.999683 
0.999674 
0.999666 
0.999656 
0.999632 
0.999589 
0.999537 
0.999501 
0.999483 
0.999473 
0.999464 
0.999456 
0.999450 
0.999445 
0.999441 
0.999438 
0.999433 
0.999424 
0.999416 
0.999421 
0.999437 
0.999446 
0.999440 
0.999419 
0.999403 
0.999404 
0.999420 
0.999438 
0.999458 
0.999481 
0.999502 
0.999523 
0.999548 
0.999578 
0.999612 
0.999649 
0.999693 
0.999751 
0.999793 
0.999816 
0.999830 
0.999847 
0.999864 
0.999881 
0.999895 
0.999904 
0.999908 
0.999896 
0.999882 
0.999872 
0.999866 
0.999857 
0.999843 
0.999832 
0.999829 
0.999830 
0.999831 
0.999832 
0.999835 
0.999839 
0.999846 
0.999855 
0.999867 
0.999879 
0.999892 
0.999905 
0.999917 
0.999927 
0.999935 
0.999943 
0.999950 
0.999957 
0.999963 
0.999969 
0.999973 
0.999976 
0.999978 
0.999981 
0.999983 
0.999984 
0.999981 
0.989102 
0.935287 
0.818173 
0.650934 
0.484542 
0.331465 
0.214834 
0.130441 
0.079493 
0.052533 
0.038676 
0.032633 
0.029180 
0.025602 
0.020980 
0.013014 
0.007264 
0.005634 
0.005998 
0.007453 
0.009645 
0.010412 
0.009810 
0.009116 
0.008177 
0.007287 
0.006405 
0.005626 
0.005709 
0.005968 
0.006946 
0.007757 
0.008973 
0.009076 
0.008022 
0.007506 
0.008708 
0.009524 
0.008603 
0.007880 
0.007356 
0.006617 
0.005958 
0.004943 
0.004993 
0.005507 
0.006520 
0.007615 
0.009148 
0.010817 
0.011994 
0.013030 
0.013855 
0.014184 
0.014070 
0.012617 
0.010965 
0.009404 
0.009194 
0.010218 
0.009998 
0.008343 
0.007425 
0.007577 
0.008445 
0.009929 
0.011437 
0.012463 
0.012491 
0.011707 
0.011835 
0.013046 
0.013762 
0.016577 
0.020123 
0.019991 
0.016713 
0.013981 
0.016012 
0.018323 
0.024055 
0.074038 
0.292342 
0.689653 
0.939732 
0.995649 
0.995654 
0.987218 
0.951897 
0.899005 
0.822623 
0.799154 
0.845902 
0.927937 
0.972336 
0.999874 
0.999877 
0.999873 
0.999865 
0.999857 
0.999849 
0.999841 
0.999833 
0.999825 
0.999817 
0.999808 
0.999800 
0.999791 
0.999782 
0.999773 
0.999764 
0.999755 
0.999746 
0.999737 
0.999728 
0.999719 
0.999710 
0.999701 
0.999693 
0.999684 
0.999676 
0.999668 
0.999660 
0.999645 
0.999612 
0.999564 
0.999522 
0.999495 
0.999482 
0.999474 
0.999467 
0.999461 
0.999456 
0.999452 
0.999449 
0.999448 
0.999446 
0.999444 
0.999450 
0.999474 
0.999504 
0.999518 
0.999494 
0.999451 
0.999424 
0.999425 
0.999439 
0.999455 
0.999473 
0.999490 
0.999506 
0.999524 
0.999547 
0.999574 
0.999609 
0.999657 
0.999710 
0.999756 
0.999790 
0.999823 
0.999858 
0.999883 
0.999897 
0.999908 
0.999912 
0.999903 
0.999883 
0.999868 
0.999858 
0.999850 
0.999836 
0.999821 
0.999814 
0.999813 
0.999814 
0.999814 
0.999815 
0.999816 
0.999818 
0.999824 
0.999834 
0.999847 
0.999862 
0.999878 
0.999893 
0.999908 
0.999920 
0.999930 
0.999939 
0.999947 
0.999953 
0.999959 
0.999965 
0.999969 
0.999972 
0.999975 
0.999978 
0.999981 
0.999982 
0.999981 
0.999979 
0.987261 
0.929335 
0.812155 
0.644790 
0.493791 
0.335357 
0.223352 
0.138103 
0.084001 
0.053187 
0.036010 
0.028941 
0.029346 
0.028540 
0.020301 
0.011881 
0.007114 
0.005380 
0.005579 
0.007392 
0.009475 
0.010430 
0.009922 
0.008976 
0.007766 
0.006671 
0.005850 
0.005811 
0.006110 
0.006326 
0.007127 
0.008036 
0.008838 
0.008389 
0.007728 
0.007980 
0.008264 
0.008214 
0.008021 
0.008088 
0.007590 
0.006309 
0.005110 
0.004463 
0.004836 
0.004933 
0.005848 
0.006913 
0.007975 
0.009218 
0.011121 
0.012778 
0.013779 
0.013441 
0.012780 
0.012370 
0.011790 
0.011591 
0.011810 
0.010890 
0.009019 
0.008140 
0.007948 
0.008344 
0.009012 
0.009572 
0.009993 
0.009692 
0.009022 
0.008779 
0.008298 
0.008445 
0.009287 
0.009967 
0.008855 
0.006663 
0.006008 
0.006116 
0.005948 
0.010148 
0.055146 
0.297023 
0.711588 
0.952356 
0.995338 
0.995547 
0.995519 
0.981746 
0.949562 
0.913978 
0.897834 
0.920375 
0.962784 
0.983653 
0.999871 
0.999874 
0.999870 
0.999862 
0.999854 
0.999846 
0.999838 
0.999830 
0.999822 
0.999814 
0.999805 
0.999797 
0.999788 
0.999779 
0.999771 
0.999762 
0.999753 
0.999744 
0.999736 
0.999727 
0.999718 
0.999710 
0.999701 
0.999693 
0.999685 
0.999677 
0.999670 
0.999663 
0.999654 
0.999633 
0.999598 
0.999553 
0.999518 
0.999495 
0.999483 
0.999476 
0.999471 
0.999466 
0.999462 
0.999460 
0.999458 
0.999458 
0.999458 
0.999468 
0.999498 
0.999559 
0.999600 
0.999589 
0.999525 
0.999474 
0.999454 
0.999460 
0.999473 
0.999486 
0.999501 
0.999515 
0.999532 
0.999553 
0.999580 
0.999612 
0.999651 
0.999696 
0.999731 
0.999763 
0.999805 
0.999845 
0.999875 
0.999899 
0.999913 
0.999912 
0.999890 
0.999866 
0.999851 
0.999842 
0.999829 
0.999816 
0.999804 
0.999801 
0.999802 
0.999801 
0.999798 
0.999796 
0.999794 
0.999792 
0.999795 
0.999805 
0.999821 
0.999841 
0.999861 
0.999880 
0.999898 
0.999913 
0.999926 
0.999936 
0.999944 
0.999951 
0.999956 
0.999961 
0.999964 
0.999967 
0.999971 
0.999975 
0.999979 
0.999980 
0.999979 
0.999978 
0.999975 
0.987615 
0.924268 
0.810143 
0.640662 
0.488706 
0.339133 
0.230816 
0.150927 
0.093712 
0.056589 
0.036691 
0.030311 
0.029489 
0.026087 
0.017573 
0.011464 
0.007342 
0.005585 
0.006250 
0.008014 
0.009408 
0.010065 
0.009491 
0.008286 
0.007419 
0.006491 
0.006230 
0.005722 
0.005796 
0.005618 
0.007118 
0.008223 
0.008148 
0.007951 
0.007779 
0.007799 
0.007908 
0.008587 
0.008337 
0.007541 
0.006745 
0.005682 
0.005255 
0.004620 
0.004285 
0.004247 
0.005077 
0.005297 
0.006550 
0.008701 
0.011558 
0.012710 
0.012386 
0.012086 
0.012364 
0.012426 
0.012169 
0.012223 
0.012060 
0.011088 
0.010303 
0.009918 
0.009793 
0.010123 
0.010350 
0.010346 
0.010129 
0.009868 
0.009396 
0.008705 
0.008245 
0.008791 
0.008534 
0.007179 
0.006305 
0.006093 
0.005439 
0.004341 
0.010549 
0.081911 
0.383154 
0.788633 
0.973663 
0.995088 
0.974904 
0.954462 
0.970095 
0.985318 
0.973758 
0.965661 
0.972416 
0.982669 
0.992154 
0.999868 
0.999870 
0.999867 
0.999859 
0.999850 
0.999842 
0.999834 
0.999827 
0.999819 
0.999810 
0.999802 
0.999794 
0.999785 
0.999777 
0.999768 
0.999760 
0.999751 
0.999742 
0.999734 
0.999726 
0.999717 
0.999709 
0.999701 
0.999694 
0.999686 
0.999679 
0.999672 
0.999665 
0.999659 
0.999649 
0.999627 
0.999594 
0.999552 
0.999518 
0.999496 
0.999486 
0.999480 
0.999476 
0.999472 
0.999469 
0.999468 
0.999467 
0.999467 
0.999473 
0.999502 
0.999562 
0.999630 
0.999641 
0.999599 
0.999537 
0.999505 
0.999494 
0.999501 
0.999512 
0.999524 
0.999536 
0.999552 
0.999578 
0.999608 
0.999638 
0.999671 
0.999697 
0.999718 
0.999741 
0.999768 
0.999804 
0.999849 
0.999886 
0.999905 
0.999896 
0.999867 
0.999841 
0.999828 
0.999819 
0.999810 
0.999799 
0.999794 
0.999794 
0.999794 
0.999788 
0.999780 
0.999773 
0.999764 
0.999756 
0.999755 
0.999767 
0.999788 
0.999815 
0.999841 
0.999866 
0.999888 
0.999907 
0.999922 
0.999934 
0.999943 
0.999949 
0.999953 
0.999956 
0.999960 
0.999964 
0.999968 
0.999972 
0.999976 
0.999977 
0.999976 
0.999975 
0.999973 
0.999967 
0.981021 
0.919406 
0.813304 
0.651178 
0.493140 
0.345141 
0.243467 
0.166728 
0.104221 
0.063431 
0.041143 
0.030216 
0.024555 
0.021351 
0.018384 
0.012107 
0.007355 
0.005592 
0.006152 
0.007364 
0.008320 
0.009409 
0.009321 
0.008463 
0.007393 
0.006382 
0.006141 
0.005633 
0.005630 
0.006354 
0.007274 
0.007922 
0.007856 
0.007441 
0.007293 
0.007695 
0.008261 
0.008076 
0.007505 
0.006888 
0.006338 
0.005607 
0.005090 
0.004426 
0.004348 
0.004071 
0.004131 
0.005008 
0.007105 
0.009765 
0.011374 
0.011533 
0.011418 
0.011990 
0.012015 
0.011478 
0.011736 
0.012242 
0.012849 
0.012620 
0.011556 
0.011057 
0.010903 
0.010655 
0.010305 
0.010231 
0.010175 
0.009620 
0.008744 
0.008433 
0.008622 
0.008164 
0.007305 
0.007500 
0.007483 
0.005345 
0.004974 
0.021803 
0.162275 
0.549086 
0.886676 
0.989375 
0.974578 
0.902890 
0.839676 
0.854275 
0.943250 
0.991832 
0.992004 
0.990875 
0.993957 
0.996700 
0.999865 
0.999867 
0.999864 
0.999856 
0.999847 
0.999839 
0.999831 
0.999823 
0.999815 
0.999807 
0.999799 
0.999790 
0.999782 
0.999774 
0.999765 
0.999757 
0.999749 
0.999741 
0.999732 
0.999724 
0.999717 
0.999709 
0.999701 
0.999694 
0.999687 
0.999680 
0.999674 
0.999667 
0.999661 
0.999656 
0.999646 
0.999625 
0.999593 
0.999552 
0.999520 
0.999498 
0.999489 
0.999485 
0.999481 
0.999479 
0.999477 
0.999476 
0.999476 
0.999477 
0.999493 
0.999540 
0.999605 
0.999640 
0.999625 
0.999589 
0.999550 
0.999526 
0.999521 
0.999528 
0.999538 
0.999551 
0.999575 
0.999606 
0.999640 
0.999666 
0.999686 
0.999702 
0.999712 
0.999723 
0.999739 
0.999771 
0.999814 
0.999854 
0.999868 
0.999852 
0.999828 
0.999808 
0.999801 
0.999797 
0.999792 
0.999789 
0.999787 
0.999791 
0.999789 
0.999776 
0.999761 
0.999747 
0.999728 
0.999705 
0.999696 
0.999710 
0.999742 
0.999781 
0.999818 
0.999850 
0.999878 
0.999901 
0.999918 
0.999932 
0.999941 
0.999947 
0.999950 
0.999953 
0.999956 
0.999961 
0.999965 
0.999970 
0.999973 
0.999975 
0.999974 
0.999971 
0.999969 
0.999968 
0.999963 
0.982784 
0.927611 
0.827394 
0.661663 
0.491977 
0.352409 
0.251568 
0.178676 
0.118231 
0.072419 
0.042325 
0.027303 
0.022404 
0.020628 
0.016870 
0.011405 
0.007860 
0.006387 
0.005920 
0.007195 
0.008289 
0.009567 
0.009267 
0.007882 
0.006880 
0.006841 
0.006489 
0.005836 
0.005751 
0.006471 
0.006947 
0.007612 
0.007547 
0.006947 
0.007142 
0.007594 
0.008110 
0.007808 
0.007260 
0.006190 
0.005749 
0.005271 
0.004880 
0.004186 
0.003865 
0.003297 
0.003756 
0.004855 
0.006165 
0.008332 
0.010080 
0.011450 
0.012191 
0.012357 
0.011645 
0.011288 
0.011879 
0.012533 
0.012946 
0.012617 
0.012064 
0.011755 
0.011124 
0.010570 
0.010259 
0.010017 
0.009368 
0.008721 
0.008450 
0.007925 
0.006944 
0.006869 
0.007632 
0.007206 
0.004899 
0.007541 
0.055568 
0.316609 
0.736098 
0.966134 
0.995123 
0.945783 
0.823629 
0.667316 
0.673061 
0.797320 
0.950369 
0.996022 
0.996728 
0.997350 
0.997450 
0.999861 
0.999863 
0.999860 
0.999852 
0.999843 
0.999835 
0.999827 
0.999819 
0.999811 
0.999803 
0.999795 
0.999787 
0.999779 
0.999771 
0.999762 
0.999754 
0.999746 
0.999739 
0.999731 
0.999723 
0.999716 
0.999708 
0.999701 
0.999694 
0.999688 
0.999681 
0.999675 
0.999669 
0.999664 
0.999659 
0.999654 
0.999645 
0.999625 
0.999593 
0.999553 
0.999524 
0.999505 
0.999495 
0.999490 
0.999487 
0.999485 
0.999484 
0.999484 
0.999484 
0.999491 
0.999520 
0.999574 
0.999617 
0.999630 
0.999614 
0.999583 
0.999549 
0.999530 
0.999531 
0.999543 
0.999565 
0.999597 
0.999634 
0.999662 
0.999680 
0.999691 
0.999700 
0.999707 
0.999714 
0.999726 
0.999750 
0.999785 
0.999806 
0.999806 
0.999796 
0.999788 
0.999786 
0.999785 
0.999786 
0.999786 
0.999785 
0.999788 
0.999793 
0.999791 
0.999772 
0.999747 
0.999720 
0.999680 
0.999630 
0.999603 
0.999623 
0.999676 
0.999737 
0.999791 
0.999833 
0.999866 
0.999893 
0.999914 
0.999929 
0.999938 
0.999943 
0.999946 
0.999950 
0.999954 
0.999958 
0.999962 
0.999967 
0.999972 
0.999974 
0.999973 
0.999969 
0.999968 
0.999968 
0.999967 
0.999962 
0.987832 
0.938700 
0.830407 
0.666869 
0.498616 
0.364040 
0.260770 
0.195589 
0.130290 
0.077877 
0.044568 
0.028358 
0.021905 
0.019107 
0.015351 
0.012555 
0.010027 
0.008111 
0.006695 
0.006832 
0.007939 
0.008981 
0.008534 
0.007274 
0.006802 
0.006574 
0.005838 
0.005575 
0.005467 
0.006444 
0.007000 
0.007259 
0.007132 
0.006894 
0.007365 
0.007697 
0.008067 
0.007424 
0.006749 
0.005819 
0.005155 
0.004804 
0.004658 
0.004025 
0.003793 
0.003500 
0.003129 
0.003337 
0.004907 
0.007872 
0.010351 
0.011764 
0.012315 
0.012093 
0.011568 
0.011618 
0.012109 
0.012464 
0.012541 
0.012487 
0.012202 
0.011390 
0.010907 
0.010624 
0.009956 
0.009110 
0.008580 
0.008479 
0.007347 
0.005990 
0.005716 
0.006978 
0.006270 
0.005368 
0.016814 
0.124750 
0.496706 
0.875752 
0.995028 
0.992211 
0.947270 
0.793658 
0.582691 
0.479239 
0.596405 
0.804021 
0.959383 
0.997598 
0.997912 
0.998029 
0.999857 
0.999860 
0.999857 
0.999848 
0.999839 
0.999831 
0.999823 
0.999815 
0.999807 
0.999799 
0.999791 
0.999783 
0.999775 
0.999767 
0.999759 
0.999752 
0.999744 
0.999736 
0.999729 
0.999722 
0.999715 
0.999708 
0.999701 
0.999695 
0.999688 
0.999683 
0.999677 
0.999671 
0.999666 
0.999661 
0.999657 
0.999653 
0.999645 
0.999625 
0.999596 
0.999563 
0.999538 
0.999519 
0.999508 
0.999501 
0.999495 
0.999492 
0.999491 
0.999491 
0.999494 
0.999512 
0.999550 
0.999597 
0.999625 
0.999628 
0.999606 
0.999570 
0.999544 
0.999537 
0.999554 
0.999586 
0.999622 
0.999648 
0.999667 
0.999680 
0.999688 
0.999694 
0.999701 
0.999708 
0.999718 
0.999733 
0.999751 
0.999760 
0.999758 
0.999760 
0.999773 
0.999788 
0.999798 
0.999804 
0.999803 
0.999801 
0.999804 
0.999811 
0.999807 
0.999778 
0.999736 
0.999682 
0.999601 
0.999480 
0.999412 
0.999466 
0.999582 
0.999683 
0.999760 
0.999814 
0.999855 
0.999885 
0.999908 
0.999925 
0.999934 
0.999938 
0.999942 
0.999947 
0.999952 
0.999955 
0.999959 
0.999964 
0.999969 
0.999971 
0.999969 
0.999967 
0.999966 
0.999967 
0.999968 
0.999969 
0.999965 
0.988749 
0.943229 
0.842726 
0.685852 
0.503937 
0.370944 
0.276636 
0.208165 
0.142016 
0.087864 
0.052457 
0.032468 
0.022321 
0.018620 
0.016363 
0.013658 
0.011271 
0.007950 
0.005856 
0.006321 
0.008050 
0.008356 
0.007506 
0.006463 
0.006111 
0.005783 
0.005509 
0.005657 
0.005905 
0.006138 
0.006506 
0.006839 
0.007110 
0.007203 
0.007359 
0.007756 
0.007747 
0.007198 
0.006453 
0.005488 
0.004669 
0.004733 
0.004960 
0.004701 
0.004289 
0.003309 
0.002695 
0.003287 
0.005557 
0.007818 
0.009414 
0.010611 
0.011479 
0.012110 
0.012277 
0.012150 
0.012245 
0.012437 
0.012309 
0.011562 
0.011071 
0.011181 
0.011232 
0.010400 
0.009338 
0.009015 
0.008657 
0.007528 
0.006078 
0.006318 
0.006539 
0.005907 
0.009449 
0.047185 
0.262673 
0.675544 
0.950946 
0.990732 
0.980632 
0.965013 
0.827555 
0.560147 
0.363517 
0.380084 
0.597603 
0.847073 
0.979632 
0.998354 
0.998477 
0.999853 
0.999856 
0.999853 
0.999844 
0.999835 
0.999827 
0.999819 
0.999811 
0.999803 
0.999795 
0.999787 
0.999779 
0.999772 
0.999764 
0.999756 
0.999749 
0.999741 
0.999734 
0.999727 
0.999720 
0.999714 
0.999707 
0.999701 
0.999695 
0.999689 
0.999684 
0.999678 
0.999673 
0.999668 
0.999664 
0.999660 
0.999656 
0.999652 
0.999645 
0.999629 
0.999609 
0.999587 
0.999563 
0.999546 
0.999532 
0.999519 
0.999509 
0.999504 
0.999499 
0.999497 
0.999506 
0.999534 
0.999579 
0.999617 
0.999633 
0.999623 
0.999599 
0.999569 
0.999559 
0.999575 
0.999610 
0.999634 
0.999645 
0.999654 
0.999668 
0.999681 
0.999689 
0.999695 
0.999702 
0.999708 
0.999717 
0.999728 
0.999732 
0.999735 
0.999751 
0.999789 
0.999822 
0.999844 
0.999854 
0.999849 
0.999840 
0.999838 
0.999843 
0.999831 
0.999790 
0.999718 
0.999619 
0.999372 
0.998268 
0.997474 
0.998352 
0.999410 
0.999618 
0.999729 
0.999797 
0.999843 
0.999878 
0.999902 
0.999919 
0.999928 
0.999933 
0.999938 
0.999944 
0.999949 
0.999951 
0.999954 
0.999959 
0.999964 
0.999966 
0.999965 
0.999964 
0.999963 
0.999964 
0.999965 
0.999968 
0.999970 
0.999964 
0.992975 
0.954098 
0.851373 
0.691291 
0.517734 
0.395320 
0.294539 
0.221758 
0.159235 
0.101619 
0.059566 
0.035811 
0.022994 
0.016085 
0.014956 
0.012491 
0.009179 
0.006754 
0.006469 
0.007614 
0.008394 
0.007603 
0.006534 
0.006069 
0.005676 
0.005383 
0.005383 
0.005448 
0.005615 
0.005892 
0.006232 
0.006760 
0.006823 
0.006809 
0.006851 
0.007390 
0.007599 
0.007139 
0.005816 
0.004820 
0.004511 
0.004507 
0.004686 
0.004653 
0.004173 
0.003342 
0.003438 
0.004419 
0.005770 
0.007177 
0.008673 
0.010718 
0.011953 
0.012732 
0.012714 
0.012591 
0.012541 
0.011999 
0.011072 
0.010892 
0.011435 
0.011844 
0.011067 
0.010056 
0.009423 
0.009110 
0.008309 
0.007611 
0.007204 
0.006609 
0.006896 
0.022282 
0.129694 
0.467946 
0.838554 
0.982981 
0.972001 
0.957803 
0.958847 
0.874778 
0.581590 
0.303863 
0.252236 
0.405489 
0.717545 
0.940670 
0.998676 
0.998807 
0.999849 
0.999851 
0.999848 
0.999840 
0.999830 
0.999822 
0.999814 
0.999807 
0.999799 
0.999791 
0.999783 
0.999775 
0.999768 
0.999760 
0.999753 
0.999746 
0.999739 
0.999732 
0.999725 
0.999719 
0.999712 
0.999706 
0.999701 
0.999695 
0.999690 
0.999684 
0.999680 
0.999675 
0.999671 
0.999666 
0.999662 
0.999659 
0.999655 
0.999652 
0.999647 
0.999639 
0.999626 
0.999612 
0.999598 
0.999582 
0.999562 
0.999547 
0.999533 
0.999521 
0.999512 
0.999513 
0.999530 
0.999566 
0.999609 
0.999632 
0.999636 
0.999627 
0.999617 
0.999606 
0.999615 
0.999629 
0.999639 
0.999636 
0.999641 
0.999659 
0.999674 
0.999683 
0.999689 
0.999695 
0.999701 
0.999708 
0.999714 
0.999723 
0.999740 
0.999774 
0.999822 
0.999870 
0.999903 
0.999913 
0.999902 
0.999881 
0.999873 
0.999875 
0.999859 
0.999801 
0.999702 
0.999472 
0.996433 
0.982772 
0.971961 
0.980856 
0.995482 
0.999519 
0.999698 
0.999781 
0.999833 
0.999869 
0.999894 
0.999911 
0.999921 
0.999927 
0.999934 
0.999941 
0.999944 
0.999946 
0.999949 
0.999954 
0.999960 
0.999962 
0.999963 
0.999963 
0.999962 
0.999961 
0.999961 
0.999963 
0.999965 
0.999964 
0.999956 
0.995276 
0.959549 
0.859913 
0.715890 
0.540812 
0.411553 
0.312666 
0.240157 
0.171855 
0.112017 
0.066615 
0.040957 
0.025166 
0.016675 
0.012578 
0.010468 
0.008106 
0.007391 
0.007069 
0.007446 
0.007350 
0.006763 
0.006206 
0.005743 
0.005210 
0.005111 
0.005271 
0.005390 
0.005483 
0.005765 
0.006398 
0.006471 
0.006259 
0.006423 
0.007078 
0.007448 
0.007722 
0.007021 
0.005833 
0.004846 
0.004176 
0.003672 
0.004260 
0.004381 
0.004262 
0.003879 
0.004360 
0.005007 
0.006055 
0.007625 
0.009655 
0.011036 
0.011418 
0.011876 
0.012635 
0.012774 
0.012073 
0.011458 
0.011420 
0.011718 
0.011844 
0.011360 
0.010634 
0.009974 
0.009422 
0.009054 
0.008676 
0.008039 
0.006601 
0.009701 
0.050199 
0.271538 
0.681038 
0.949596 
0.982249 
0.947761 
0.915944 
0.935426 
0.888390 
0.617038 
0.301902 
0.199786 
0.308036 
0.619296 
0.906056 
0.998893 
0.999043 
0.999844 
0.999847 
0.999844 
0.999835 
0.999826 
0.999817 
0.999810 
0.999802 
0.999794 
0.999786 
0.999779 
0.999771 
0.999764 
0.999757 
0.999750 
0.999743 
0.999736 
0.999729 
0.999723 
0.999717 
0.999711 
0.999706 
0.999700 
0.999695 
0.999690 
0.999685 
0.999681 
0.999676 
0.999672 
0.999669 
0.999665 
0.999662 
0.999659 
0.999656 
0.999653 
0.999650 
0.999646 
0.999640 
0.999634 
0.999624 
0.999611 
0.999597 
0.999583 
0.999563 
0.999551 
0.999546 
0.999554 
0.999579 
0.999612 
0.999633 
0.999649 
0.999676 
0.999696 
0.999701 
0.999687 
0.999677 
0.999660 
0.999646 
0.999645 
0.999658 
0.999670 
0.999676 
0.999682 
0.999688 
0.999693 
0.999701 
0.999715 
0.999741 
0.999776 
0.999821 
0.999876 
0.999917 
0.999943 
0.999949 
0.999932 
0.999906 
0.999897 
0.999899 
0.999882 
0.999818 
0.999699 
0.997472 
0.972014 
0.912590 
0.872672 
0.895427 
0.953587 
0.990986 
0.999649 
0.999764 
0.999822 
0.999859 
0.999884 
0.999902 
0.999914 
0.999923 
0.999931 
0.999936 
0.999938 
0.999941 
0.999945 
0.999950 
0.999955 
0.999959 
0.999962 
0.999962 
0.999960 
0.999958 
0.999957 
0.999958 
0.999959 
0.999958 
0.999955 
0.999948 
0.997023 
0.968099 
0.874767 
0.730425 
0.559243 
0.433022 
0.336099 
0.256217 
0.184837 
0.129346 
0.082004 
0.050612 
0.029165 
0.017019 
0.010953 
0.009380 
0.007498 
0.006748 
0.006685 
0.006832 
0.006435 
0.005870 
0.005442 
0.005257 
0.005196 
0.005097 
0.005345 
0.005394 
0.005370 
0.005804 
0.006184 
0.005875 
0.005970 
0.006877 
0.007879 
0.008159 
0.007915 
0.007077 
0.005785 
0.004535 
0.003817 
0.003787 
0.004104 
0.004189 
0.004285 
0.004257 
0.004551 
0.004868 
0.006163 
0.007687 
0.008781 
0.009190 
0.010049 
0.011399 
0.012280 
0.012266 
0.012294 
0.012558 
0.012235 
0.011643 
0.011493 
0.011191 
0.010575 
0.009968 
0.009594 
0.009152 
0.008111 
0.007253 
0.017097 
0.098839 
0.420633 
0.822975 
0.988921 
0.979043 
0.931878 
0.889471 
0.894883 
0.852247 
0.626769 
0.324314 
0.197916 
0.266641 
0.551757 
0.865802 
0.990853 
0.999223 
0.999839 
0.999842 
0.999839 
0.999830 
0.999821 
0.999812 
0.999805 
0.999797 
0.999789 
0.999782 
0.999774 
0.999767 
0.999760 
0.999753 
0.999746 
0.999739 
0.999733 
0.999727 
0.999721 
0.999715 
0.999710 
0.999705 
0.999700 
0.999695 
0.999690 
0.999686 
0.999682 
0.999678 
0.999674 
0.999671 
0.999667 
0.999664 
0.999661 
0.999659 
0.999656 
0.999654 
0.999651 
0.999649 
0.999647 
0.999644 
0.999638 
0.999633 
0.999623 
0.999611 
0.999602 
0.999599 
0.999601 
0.999609 
0.999622 
0.999640 
0.999678 
0.999742 
0.999809 
0.999826 
0.999808 
0.999765 
0.999724 
0.999685 
0.999661 
0.999659 
0.999665 
0.999670 
0.999675 
0.999680 
0.999690 
0.999710 
0.999744 
0.999788 
0.999841 
0.999885 
0.999922 
0.999947 
0.999959 
0.999959 
0.999942 
0.999919 
0.999911 
0.999917 
0.999903 
0.999847 
0.999563 
0.986561 
0.906444 
0.769261 
0.673882 
0.708892 
0.823257 
0.932627 
0.986719 
0.999725 
0.999809 
0.999850 
0.999876 
0.999895 
0.999909 
0.999919 
0.999927 
0.999930 
0.999932 
0.999935 
0.999939 
0.999945 
0.999951 
0.999956 
0.999959 
0.999959 
0.999956 
0.999954 
0.999953 
0.999953 
0.999954 
0.999953 
0.999952 
0.999949 
0.999939 
0.999633 
0.972165 
0.883811 
0.752874 
0.593356 
0.458458 
0.355005 
0.275654 
0.202101 
0.147051 
0.098894 
0.058365 
0.032376 
0.018445 
0.012220 
0.008068 
0.006510 
0.006950 
0.007249 
0.006649 
0.005569 
0.005332 
0.005029 
0.004932 
0.005159 
0.005328 
0.005118 
0.004947 
0.005115 
0.005647 
0.005366 
0.005765 
0.006649 
0.007362 
0.007525 
0.007632 
0.007293 
0.006654 
0.005551 
0.004598 
0.003737 
0.003473 
0.003572 
0.004003 
0.004369 
0.004413 
0.004492 
0.004879 
0.006146 
0.007098 
0.007303 
0.008414 
0.009839 
0.011111 
0.011738 
0.012209 
0.012566 
0.012012 
0.011719 
0.011819 
0.011567 
0.011022 
0.010410 
0.010066 
0.009423 
0.008376 
0.010621 
0.035916 
0.185752 
0.564436 
0.899539 
0.993226 
0.984444 
0.942825 
0.885029 
0.816238 
0.727745 
0.543680 
0.317697 
0.195091 
0.238259 
0.475433 
0.800961 
0.969840 
0.999354 
0.999834 
0.999837 
0.999834 
0.999825 
0.999815 
0.999807 
0.999799 
0.999792 
0.999784 
0.999777 
0.999770 
0.999763 
0.999756 
0.999749 
0.999742 
0.999736 
0.999730 
0.999724 
0.999719 
0.999713 
0.999708 
0.999704 
0.999699 
0.999695 
0.999690 
0.999686 
0.999683 
0.999679 
0.999676 
0.999673 
0.999670 
0.999667 
0.999664 
0.999661 
0.999659 
0.999657 
0.999655 
0.999653 
0.999651 
0.999649 
0.999647 
0.999646 
0.999642 
0.999637 
0.999634 
0.999633 
0.999628 
0.999620 
0.999618 
0.999644 
0.999715 
0.999812 
0.999877 
0.999900 
0.999884 
0.999849 
0.999799 
0.999732 
0.999683 
0.999660 
0.999659 
0.999664 
0.999672 
0.999683 
0.999707 
0.999747 
0.999797 
0.999853 
0.999898 
0.999929 
0.999949 
0.999959 
0.999962 
0.999959 
0.999945 
0.999928 
0.999924 
0.999927 
0.999921 
0.999876 
0.999302 
0.965868 
0.827405 
0.609112 
0.467111 
0.477599 
0.610198 
0.790375 
0.925796 
0.988117 
0.999783 
0.999842 
0.999872 
0.999892 
0.999906 
0.999918 
0.999923 
0.999924 
0.999925 
0.999928 
0.999933 
0.999938 
0.999943 
0.999948 
0.999952 
0.999951 
0.999950 
0.999949 
0.999949 
0.999949 
0.999949 
0.999950 
0.999949 
0.999948 
0.999943 
0.999931 
0.999625 
0.979133 
0.899708 
0.770966 
0.614177 
0.485167 
0.378219 
0.294007 
0.220324 
0.163467 
0.113638 
0.071019 
0.039319 
0.021214 
0.011503 
0.007413 
0.006702 
0.007269 
0.006989 
0.006388 
0.005581 
0.005104 
0.004812 
0.004814 
0.005128 
0.005177 
0.004760 
0.005206 
0.005616 
0.005527 
0.005343 
0.005872 
0.006406 
0.006511 
0.006971 
0.007228 
0.007250 
0.006816 
0.005698 
0.004335 
0.003554 
0.003314 
0.003511 
0.003905 
0.004390 
0.004663 
0.005027 
0.005786 
0.006393 
0.007016 
0.007584 
0.008447 
0.009640 
0.010507 
0.011007 
0.011398 
0.011497 
0.011656 
0.011746 
0.011499 
0.011028 
0.010765 
0.010454 
0.009784 
0.009841 
0.019124 
0.081809 
0.332872 
0.724347 
0.954579 
0.995230 
0.992879 
0.971397 
0.883541 
0.710629 
0.524260 
0.387792 
0.248986 
0.165409 
0.191806 
0.384374 
0.716744 
0.943449 
0.999429 
0.999828 
0.999832 
0.999828 
0.999819 
0.999810 
0.999802 
0.999794 
0.999786 
0.999779 
0.999772 
0.999765 
0.999758 
0.999751 
0.999745 
0.999739 
0.999733 
0.999727 
0.999722 
0.999716 
0.999712 
0.999707 
0.999702 
0.999698 
0.999694 
0.999690 
0.999687 
0.999684 
0.999680 
0.999677 
0.999674 
0.999672 
0.999669 
0.999667 
0.999664 
0.999662 
0.999660 
0.999658 
0.999656 
0.999654 
0.999652 
0.999650 
0.999648 
0.999647 
0.999645 
0.999644 
0.999639 
0.999622 
0.999600 
0.999593 
0.999643 
0.999733 
0.999823 
0.999858 
0.999857 
0.999847 
0.999831 
0.999796 
0.999743 
0.999684 
0.999657 
0.999655 
0.999668 
0.999686 
0.999713 
0.999751 
0.999804 
0.999852 
0.999894 
0.999925 
0.999944 
0.999952 
0.999959 
0.999961 
0.999957 
0.999946 
0.999934 
0.999930 
0.999931 
0.999928 
0.999901 
0.999129 
0.952345 
0.774388 
0.502864 
0.334583 
0.301730 
0.393176 
0.577800 
0.798245 
0.943433 
0.995495 
0.999833 
0.999874 
0.999896 
0.999908 
0.999915 
0.999919 
0.999917 
0.999917 
0.999920 
0.999924 
0.999929 
0.999934 
0.999939 
0.999942 
0.999942 
0.999942 
0.999942 
0.999943 
0.999944 
0.999945 
0.999946 
0.999948 
0.999949 
0.999948 
0.999945 
0.999938 
0.999895 
0.980123 
0.911084 
0.799243 
0.661260 
0.520343 
0.399575 
0.309281 
0.240296 
0.185386 
0.131107 
0.084696 
0.045332 
0.022157 
0.010291 
0.007105 
0.006049 
0.006696 
0.006900 
0.006322 
0.005164 
0.004556 
0.004523 
0.004633 
0.004680 
0.004899 
0.005523 
0.006108 
0.005713 
0.005382 
0.005517 
0.005497 
0.006094 
0.007022 
0.007382 
0.007235 
0.007421 
0.006784 
0.005547 
0.004451 
0.003548 
0.003149 
0.003433 
0.003846 
0.004400 
0.004722 
0.005446 
0.005959 
0.006560 
0.007028 
0.007407 
0.008350 
0.009328 
0.009792 
0.010123 
0.010668 
0.011092 
0.011237 
0.011027 
0.011020 
0.011010 
0.010577 
0.009841 
0.012097 
0.033279 
0.153901 
0.488518 
0.856019 
0.988835 
0.997188 
0.997361 
0.980509 
0.841029 
0.584364 
0.361605 
0.256918 
0.178163 
0.120886 
0.130871 
0.278631 
0.619821 
0.912447 
0.999488 
0.999822 
0.999826 
0.999823 
0.999814 
0.999804 
0.999796 
0.999788 
0.999781 
0.999773 
0.999766 
0.999760 
0.999753 
0.999747 
0.999740 
0.999735 
0.999729 
0.999724 
0.999719 
0.999714 
0.999709 
0.999705 
0.999701 
0.999697 
0.999694 
0.999690 
0.999687 
0.999684 
0.999681 
0.999679 
0.999676 
0.999673 
0.999671 
0.999669 
0.999667 
0.999664 
0.999662 
0.999660 
0.999658 
0.999656 
0.999654 
0.999653 
0.999651 
0.999649 
0.999647 
0.999644 
0.999629 
0.999599 
0.999567 
0.999574 
0.999628 
0.999722 
0.999773 
0.999764 
0.999741 
0.999732 
0.999730 
0.999719 
0.999691 
0.999663 
0.999649 
0.999658 
0.999684 
0.999722 
0.999763 
0.999809 
0.999846 
0.999877 
0.999901 
0.999920 
0.999931 
0.999940 
0.999949 
0.999956 
0.999953 
0.999943 
0.999935 
0.999931 
0.999931 
0.999929 
0.999917 
0.999032 
0.949312 
0.739383 
0.449615 
0.263278 
0.204225 
0.234351 
0.371540 
0.618651 
0.860821 
0.979509 
0.999807 
0.999882 
0.999905 
0.999911 
0.999912 
0.999913 
0.999910 
0.999908 
0.999910 
0.999915 
0.999921 
0.999927 
0.999931 
0.999933 
0.999934 
0.999935 
0.999936 
0.999937 
0.999939 
0.999940 
0.999941 
0.999944 
0.999948 
0.999953 
0.999955 
0.999956 
0.999947 
0.999905 
0.986282 
0.931104 
0.828934 
0.683769 
0.551938 
0.427483 
0.333872 
0.261904 
0.207766 
0.150300 
0.099445 
0.053029 
0.025104 
0.011351 
0.007590 
0.006009 
0.006281 
0.006181 
0.005600 
0.005003 
0.004626 
0.004329 
0.004314 
0.004340 
0.005319 
0.005924 
0.005583 
0.005040 
0.004959 
0.005146 
0.005841 
0.006844 
0.006968 
0.006878 
0.006966 
0.006972 
0.006729 
0.005764 
0.004206 
0.003510 
0.003091 
0.003464 
0.003711 
0.004270 
0.004906 
0.005354 
0.006185 
0.006618 
0.006695 
0.007477 
0.008481 
0.008925 
0.009358 
0.009858 
0.010231 
0.010468 
0.010679 
0.011108 
0.011062 
0.010211 
0.009901 
0.016808 
0.059992 
0.237748 
0.609982 
0.911651 
0.997455 
0.997582 
0.997589 
0.941940 
0.745936 
0.448650 
0.246312 
0.166209 
0.120623 
0.076447 
0.075670 
0.180020 
0.516214 
0.871330 
0.998098 
0.999816 
0.999820 
0.999817 
0.999807 
0.999798 
0.999790 
0.999782 
0.999775 
0.999768 
0.999761 
0.999754 
0.999748 
0.999742 
0.999736 
0.999731 
0.999725 
0.999720 
0.999716 
0.999711 
0.999707 
0.999703 
0.999700 
0.999696 
0.999693 
0.999690 
0.999687 
0.999685 
0.999682 
0.999680 
0.999677 
0.999675 
0.999673 
0.999671 
0.999669 
0.999667 
0.999665 
0.999663 
0.999661 
0.999659 
0.999657 
0.999655 
0.999653 
0.999651 
0.999649 
0.999640 
0.999613 
0.999574 
0.999553 
0.999568 
0.999623 
0.999676 
0.999695 
0.999679 
0.999658 
0.999653 
0.999652 
0.999651 
0.999647 
0.999639 
0.999643 
0.999665 
0.999707 
0.999759 
0.999810 
0.999845 
0.999867 
0.999879 
0.999890 
0.999901 
0.999905 
0.999913 
0.999931 
0.999943 
0.999945 
0.999937 
0.999932 
0.999930 
0.999929 
0.999929 
0.999925 
0.999174 
0.935998 
0.691325 
0.389718 
0.221777 
0.154958 
0.143621 
0.221127 
0.437394 
0.748995 
0.949509 
0.999600 
0.999889 
0.999916 
0.999915 
0.999909 
0.999906 
0.999903 
0.999899 
0.999901 
0.999907 
0.999914 
0.999920 
0.999924 
0.999926 
0.999927 
0.999928 
0.999930 
0.999931 
0.999933 
0.999934 
0.999935 
0.999938 
0.999944 
0.999952 
0.999961 
0.999968 
0.999966 
0.999958 
0.999928 
0.988993 
0.939186 
0.851358 
0.732312 
0.591394 
0.460358 
0.351987 
0.281835 
0.233223 
0.180592 
0.120194 
0.065481 
0.032549 
0.014713 
0.008148 
0.005735 
0.005335 
0.005798 
0.005739 
0.005222 
0.004843 
0.004071 
0.003708 
0.004027 
0.004946 
0.004856 
0.004746 
0.004525 
0.004732 
0.005407 
0.006096 
0.006418 
0.005929 
0.006237 
0.006655 
0.007291 
0.006944 
0.005430 
0.004246 
0.003552 
0.003469 
0.003548 
0.004042 
0.004493 
0.005359 
0.005894 
0.006330 
0.006430 
0.007278 
0.007915 
0.008224 
0.008481 
0.008973 
0.009462 
0.009830 
0.010293 
0.010773 
0.010989 
0.009936 
0.012455 
0.033098 
0.133356 
0.387680 
0.735646 
0.946187 
0.997843 
0.997764 
0.977759 
0.859515 
0.606212 
0.299165 
0.134693 
0.076131 
0.055820 
0.034899 
0.035915 
0.111219 
0.426518 
0.825892 
0.990763 
0.999810 
0.999813 
0.999810 
0.999801 
0.999791 
0.999783 
0.999776 
0.999768 
0.999762 
0.999755 
0.999749 
0.999742 
0.999737 
0.999731 
0.999726 
0.999721 
0.999717 
0.999713 
0.999709 
0.999705 
0.999702 
0.999698 
0.999695 
0.999693 
0.999690 
0.999687 
0.999685 
0.999683 
0.999681 
0.999679 
0.999677 
0.999675 
0.999673 
0.999671 
0.999669 
0.999667 
0.999665 
0.999663 
0.999661 
0.999659 
0.999657 
0.999655 
0.999653 
0.999649 
0.999631 
0.999596 
0.999560 
0.999557 
0.999587 
0.999622 
0.999646 
0.999649 
0.999638 
0.999632 
0.999630 
0.999630 
0.999629 
0.999629 
0.999630 
0.999645 
0.999677 
0.999730 
0.999786 
0.999837 
0.999864 
0.999875 
0.999879 
0.999886 
0.999887 
0.999887 
0.999894 
0.999913 
0.999931 
0.999935 
0.999932 
0.999929 
0.999928 
0.999928 
0.999928 
0.999926 
0.998861 
0.907829 
0.618156 
0.312059 
0.178990 
0.124537 
0.095380 
0.125953 
0.287481 
0.612268 
0.896168 
0.994901 
0.999891 
0.999922 
0.999917 
0.999905 
0.999898 
0.999893 
0.999889 
0.999891 
0.999898 
0.999906 
0.999913 
0.999917 
0.999918 
0.999919 
0.999921 
0.999923 
0.999924 
0.999926 
0.999927 
0.999929 
0.999930 
0.999935 
0.999944 
0.999958 
0.999968 
0.999971 
0.999970 
0.999967 
0.999943 
0.988118 
0.958605 
0.897160 
0.789485 
0.638155 
0.492892 
0.381382 
0.308853 
0.253503 
0.201013 
0.139437 
0.084744 
0.044202 
0.018124 
0.008212 
0.005908 
0.005390 
0.005170 
0.005117 
0.004831 
0.004268 
0.003262 
0.003410 
0.004120 
0.004627 
0.004874 
0.005175 
0.005297 
0.005203 
0.005595 
0.005927 
0.006083 
0.005957 
0.006356 
0.007218 
0.007279 
0.006745 
0.005321 
0.004109 
0.003627 
0.003593 
0.003536 
0.004055 
0.004403 
0.005429 
0.006133 
0.006547 
0.007231 
0.007564 
0.007537 
0.007788 
0.008236 
0.008797 
0.009101 
0.009399 
0.010039 
0.010285 
0.010622 
0.020368 
0.080167 
0.289398 
0.622138 
0.878877 
0.984101 
0.997982 
0.992090 
0.929506 
0.748686 
0.427027 
0.162008 
0.043458 
0.016495 
0.010844 
0.009046 
0.013744 
0.072760 
0.362208 
0.783778 
0.975604 
0.999803 
0.999806 
0.999803 
0.999794 
0.999784 
0.999776 
0.999769 
0.999762 
0.999755 
0.999749 
0.999743 
0.999737 
0.999732 
0.999727 
0.999722 
0.999717 
0.999713 
0.999709 
0.999706 
0.999703 
0.999700 
0.999697 
0.999694 
0.999692 
0.999690 
0.999687 
0.999685 
0.999683 
0.999682 
0.999680 
0.999678 
0.999676 
0.999674 
0.999673 
0.999671 
0.999669 
0.999667 
0.999665 
0.999663 
0.999661 
0.999659 
0.999657 
0.999655 
0.999645 
0.999618 
0.999577 
0.999556 
0.999571 
0.999608 
0.999630 
0.999635 
0.999633 
0.999631 
0.999629 
0.999627 
0.999625 
0.999624 
0.999623 
0.999627 
0.999646 
0.999690 
0.999748 
0.999811 
0.999856 
0.999882 
0.999891 
0.999894 
0.999894 
0.999892 
0.999889 
0.999895 
0.999911 
0.999923 
0.999928 
0.999927 
0.999927 
0.999927 
0.999927 
0.999925 
0.999624 
0.996157 
0.873890 
0.538169 
0.236440 
0.130976 
0.093546 
0.061556 
0.066608 
0.166301 
0.449808 
0.799954 
0.975903 
0.999889 
0.999920 
0.999913 
0.999893 
0.999880 
0.999874 
0.999873 
0.999877 
0.999886 
0.999896 
0.999905 
0.999909 
0.999911 
0.999912 
0.999913 
0.999915 
0.999917 
0.999918 
0.999920 
0.999921 
0.999923 
0.999925 
0.999931 
0.999942 
0.999953 
0.999958 
0.999963 
0.999969 
0.999959 
0.999942 
0.998638 
0.982251 
0.930638 
0.832510 
0.691625 
0.550043 
0.426375 
0.334217 
0.271049 
0.215592 
0.160488 
0.100547 
0.053364 
0.023663 
0.011461 
0.006797 
0.004515 
0.003621 
0.004343 
0.004324 
0.003834 
0.003408 
0.003689 
0.004228 
0.004698 
0.005381 
0.005657 
0.005317 
0.005001 
0.005591 
0.005950 
0.005882 
0.006162 
0.006281 
0.006670 
0.006986 
0.006598 
0.005400 
0.004461 
0.003873 
0.003401 
0.003369 
0.003843 
0.004634 
0.005379 
0.006296 
0.006769 
0.007157 
0.007481 
0.007795 
0.008342 
0.008571 
0.008598 
0.008447 
0.008753 
0.008760 
0.011180 
0.034198 
0.168246 
0.501557 
0.831993 
0.973459 
0.998208 
0.997886 
0.967571 
0.850426 
0.599787 
0.282342 
0.068585 
0.009021 
0.001967 
0.001489 
0.001840 
0.005550 
0.053842 
0.326982 
0.752900 
0.960179 
0.999795 
0.999799 
0.999796 
0.999787 
0.999777 
0.999769 
0.999762 
0.999755 
0.999748 
0.999742 
0.999737 
0.999731 
0.999726 
0.999721 
0.999717 
0.999713 
0.999710 
0.999706 
0.999703 
0.999700 
0.999698 
0.999695 
0.999693 
0.999691 
0.999689 
0.999687 
0.999685 
0.999684 
0.999682 
0.999681 
0.999679 
0.999677 
0.999676 
0.999674 
0.999672 
0.999671 
0.999669 
0.999667 
0.999665 
0.999663 
0.999661 
0.999658 
0.999654 
0.999637 
0.999601 
0.999565 
0.999562 
0.999592 
0.999622 
0.999635 
0.999634 
0.999631 
0.999628 
0.999626 
0.999623 
0.999621 
0.999619 
0.999617 
0.999621 
0.999639 
0.999685 
0.999749 
0.999817 
0.999870 
0.999905 
0.999918 
0.999920 
0.999915 
0.999910 
0.999908 
0.999910 
0.999915 
0.999919 
0.999920 
0.999922 
0.999924 
0.999925 
0.999925 
0.999924 
0.999334 
0.984120 
0.826848 
0.462345 
0.173212 
0.085792 
0.057709 
0.032029 
0.028301 
0.076819 
0.283077 
0.666358 
0.938880 
0.999869 
0.999904 
0.999895 
0.999871 
0.999851 
0.999846 
0.999850 
0.999860 
0.999872 
0.999884 
0.999894 
0.999900 
0.999902 
0.999903 
0.999904 
0.999906 
0.999908 
0.999910 
0.999912 
0.999914 
0.999915 
0.999916 
0.999918 
0.999923 
0.999929 
0.999936 
0.999948 
0.999961 
0.999958 
0.999939 
0.999930 
0.999835 
0.991578 
0.955549 
0.879612 
0.760863 
0.605462 
0.471361 
0.373360 
0.302146 
0.238061 
0.180245 
0.120200 
0.071519 
0.038062 
0.014842 
0.005458 
0.003273 
0.003404 
0.004306 
0.004237 
0.003933 
0.003789 
0.003440 
0.003759 
0.004503 
0.004999 
0.005093 
0.004998 
0.005604 
0.005779 
0.005843 
0.005758 
0.005381 
0.005473 
0.006825 
0.007564 
0.007270 
0.006191 
0.004616 
0.003939 
0.003520 
0.003381 
0.003985 
0.004830 
0.005225 
0.005676 
0.006453 
0.007486 
0.008401 
0.008658 
0.008612 
0.008344 
0.008167 
0.007738 
0.007537 
0.014037 
0.065864 
0.285068 
0.681769 
0.942580 
0.998419 
0.998127 
0.969912 
0.873758 
0.704852 
0.433678 
0.161669 
0.027605 
0.002356 
0.001019 
0.001007 
0.001101 
0.003582 
0.049259 
0.319849 
0.745200 
0.956367 
0.999787 
0.999791 
0.999788 
0.999779 
0.999769 
0.999761 
0.999754 
0.999748 
0.999741 
0.999736 
0.999730 
0.999725 
0.999721 
0.999716 
0.999712 
0.999709 
0.999706 
0.999703 
0.999700 
0.999698 
0.999695 
0.999693 
0.999692 
0.999690 
0.999688 
0.999687 
0.999685 
0.999684 
0.999683 
0.999681 
0.999680 
0.999679 
0.999677 
0.999676 
0.999674 
0.999672 
0.999671 
0.999669 
0.999667 
0.999665 
0.999662 
0.999660 
0.999652 
0.999627 
0.999586 
0.999565 
0.999577 
0.999611 
0.999632 
0.999636 
0.999632 
0.999629 
0.999626 
0.999622 
0.999619 
0.999616 
0.999613 
0.999611 
0.999610 
0.999623 
0.999660 
0.999725 
0.999799 
0.999862 
0.999910 
0.999932 
0.999935 
0.999929 
0.999923 
0.999919 
0.999917 
0.999914 
0.999910 
0.999909 
0.999913 
0.999919 
0.999924 
0.999927 
0.999927 
0.999561 
0.966151 
0.763504 
0.373115 
0.118698 
0.044290 
0.025333 
0.011277 
0.007870 
0.026157 
0.148846 
0.510427 
0.878493 
0.999743 
0.999849 
0.999859 
0.999834 
0.999815 
0.999813 
0.999825 
0.999839 
0.999854 
0.999868 
0.999879 
0.999886 
0.999889 
0.999890 
0.999892 
0.999895 
0.999898 
0.999901 
0.999903 
0.999906 
0.999907 
0.999908 
0.999908 
0.999908 
0.999910 
0.999914 
0.999926 
0.999942 
0.999943 
0.999928 
0.999916 
0.999915 
0.999911 
0.994833 
0.975902 
0.919196 
0.809217 
0.666944 
0.537844 
0.436643 
0.347097 
0.275174 
0.207599 
0.151741 
0.095615 
0.046266 
0.014642 
0.005061 
0.003012 
0.003270 
0.003842 
0.004246 
0.004082 
0.003791 
0.003549 
0.003349 
0.004130 
0.004573 
0.005330 
0.005943 
0.006179 
0.005978 
0.006021 
0.005487 
0.005411 
0.006004 
0.006985 
0.007423 
0.007155 
0.005944 
0.004800 
0.004346 
0.003685 
0.003667 
0.004029 
0.004571 
0.004667 
0.005409 
0.007183 
0.008296 
0.008260 
0.008150 
0.008290 
0.008279 
0.007327 
0.009444 
0.031293 
0.148545 
0.479421 
0.828833 
0.983616 
0.998368 
0.976745 
0.874272 
0.702944 
0.478415 
0.253870 
0.079302 
0.010169 
0.001280 
0.001001 
0.001001 
0.001063 
0.003676 
0.052527 
0.334326 
0.759175 
0.964703 
0.999779 
0.999783 
0.999780 
0.999771 
0.999761 
0.999753 
0.999746 
0.999740 
0.999734 
0.999729 
0.999724 
0.999719 
0.999715 
0.999711 
0.999707 
0.999704 
0.999702 
0.999699 
0.999697 
0.999695 
0.999693 
0.999692 
0.999690 
0.999689 
0.999687 
0.999686 
0.999685 
0.999684 
0.999683 
0.999682 
0.999681 
0.999680 
0.999678 
0.999677 
0.999675 
0.999674 
0.999672 
0.999670 
0.999668 
0.999666 
0.999664 
0.999661 
0.999651 
0.999622 
0.999588 
0.999580 
0.999604 
0.999627 
0.999637 
0.999635 
0.999631 
0.999627 
0.999623 
0.999619 
0.999615 
0.999611 
0.999608 
0.999604 
0.999601 
0.999606 
0.999631 
0.999684 
0.999753 
0.999832 
0.999892 
0.999922 
0.999928 
0.999923 
0.999917 
0.999914 
0.999912 
0.999907 
0.999900 
0.999899 
0.999906 
0.999919 
0.999928 
0.999933 
0.999932 
0.999375 
0.942482 
0.680313 
0.288867 
0.068209 
0.017872 
0.006925 
0.002783 
0.001854 
0.006316 
0.062148 
0.339961 
0.761426 
0.978788 
0.999672 
0.999782 
0.999785 
0.999776 
0.999782 
0.999798 
0.999816 
0.999835 
0.999851 
0.999864 
0.999871 
0.999874 
0.999876 
0.999879 
0.999883 
0.999887 
0.999891 
0.999894 
0.999897 
0.999899 
0.999900 
0.999899 
0.999898 
0.999897 
0.999897 
0.999903 
0.999912 
0.999916 
0.999909 
0.999899 
0.999898 
0.999902 
0.999904 
0.999854 
0.987431 
0.938994 
0.849476 
0.734222 
0.612537 
0.505225 
0.401213 
0.313788 
0.238799 
0.180623 
0.111660 
0.052754 
0.017710 
0.006216 
0.003089 
0.002985 
0.003528 
0.004401 
0.004417 
0.003890 
0.003743 
0.003392 
0.004018 
0.004645 
0.005610 
0.006090 
0.006251 
0.006558 
0.006293 
0.005600 
0.005566 
0.005284 
0.006249 
0.006544 
0.006282 
0.006117 
0.005605 
0.004501 
0.003682 
0.003812 
0.003899 
0.004316 
0.004900 
0.006218 
0.007320 
0.007442 
0.007659 
0.008630 
0.008459 
0.008457 
0.018182 
0.088220 
0.339647 
0.708015 
0.948778 
0.998597 
0.992811 
0.915665 
0.725930 
0.472924 
0.271686 
0.119084 
0.028865 
0.003808 
0.001062 
0.001002 
0.001010 
0.001175 
0.004753 
0.059688 
0.355548 
0.779632 
0.973072 
0.999770 
0.999774 
0.999772 
0.999762 
0.999752 
0.999745 
0.999738 
0.999732 
0.999726 
0.999721 
0.999717 
0.999712 
0.999709 
0.999705 
0.999702 
0.999700 
0.999697 
0.999695 
0.999694 
0.999692 
0.999691 
0.999689 
0.999688 
0.999687 
0.999687 
0.999686 
0.999685 
0.999684 
0.999683 
0.999682 
0.999681 
0.999680 
0.999679 
0.999678 
0.999677 
0.999675 
0.999673 
0.999671 
0.999669 
0.999667 
0.999665 
0.999662 
0.999652 
0.999627 
0.999601 
0.999606 
0.999625 
0.999638 
0.999638 
0.999634 
0.999629 
0.999625 
0.999620 
0.999616 
0.999611 
0.999606 
0.999602 
0.999598 
0.999594 
0.999593 
0.999603 
0.999637 
0.999710 
0.999798 
0.999872 
0.999902 
0.999903 
0.999895 
0.999890 
0.999886 
0.999889 
0.999897 
0.999899 
0.999898 
0.999900 
0.999912 
0.999928 
0.999937 
0.999933 
0.998875 
0.919066 
0.608589 
0.207117 
0.036149 
0.005331 
0.001997 
0.001196 
0.001066 
0.001638 
0.018961 
0.171435 
0.571086 
0.906272 
0.999278 
0.999648 
0.999716 
0.999733 
0.999751 
0.999774 
0.999797 
0.999821 
0.999841 
0.999853 
0.999856 
0.999858 
0.999860 
0.999865 
0.999870 
0.999875 
0.999880 
0.999884 
0.999888 
0.999890 
0.999891 
0.999889 
0.999888 
0.999887 
0.999885 
0.999884 
0.999887 
0.999889 
0.999886 
0.999883 
0.999882 
0.999889 
0.999892 
0.999874 
0.999802 
0.991813 
0.957343 
0.890050 
0.799505 
0.688585 
0.582270 
0.462082 
0.363592 
0.285376 
0.217627 
0.138662 
0.069157 
0.025674 
0.009098 
0.003910 
0.002833 
0.003082 
0.004242 
0.004604 
0.004051 
0.003980 
0.003715 
0.003607 
0.004351 
0.004902 
0.005790 
0.006529 
0.006969 
0.006700 
0.006045 
0.005585 
0.005429 
0.006199 
0.006169 
0.006167 
0.006116 
0.005322 
0.004212 
0.003943 
0.004210 
0.004279 
0.004162 
0.004800 
0.005927 
0.006955 
0.008091 
0.008871 
0.008860 
0.013483 
0.049734 
0.216735 
0.577293 
0.894345 
0.996940 
0.998243 
0.951216 
0.781611 
0.512982 
0.269419 
0.120231 
0.039652 
0.008537 
0.001476 
0.001014 
0.001011 
0.001128 
0.001834 
0.007599 
0.071737 
0.380068 
0.799604 
0.977215 
0.999760 
0.999765 
0.999762 
0.999753 
0.999743 
0.999736 
0.999729 
0.999724 
0.999718 
0.999714 
0.999709 
0.999706 
0.999702 
0.999699 
0.999697 
0.999695 
0.999693 
0.999691 
0.999690 
0.999689 
0.999688 
0.999687 
0.999687 
0.999686 
0.999685 
0.999685 
0.999684 
0.999684 
0.999683 
0.999682 
0.999682 
0.999681 
0.999680 
0.999679 
0.999677 
0.999676 
0.999674 
0.999673 
0.999671 
0.999668 
0.999666 
0.999663 
0.999655 
0.999637 
0.999620 
0.999626 
0.999639 
0.999642 
0.999637 
0.999632 
0.999627 
0.999622 
0.999617 
0.999612 
0.999607 
0.999601 
0.999596 
0.999591 
0.999587 
0.999582 
0.999582 
0.999606 
0.999673 
0.999780 
0.999855 
0.999867 
0.999847 
0.999830 
0.999818 
0.999814 
0.999828 
0.999852 
0.999871 
0.999865 
0.999859 
0.999875 
0.999905 
0.999925 
0.999926 
0.999229 
0.904868 
0.553220 
0.161253 
0.019188 
0.002110 
0.001103 
0.001032 
0.001007 
0.001044 
0.004202 
0.063267 
0.353745 
0.766956 
0.978598 
0.999454 
0.999604 
0.999661 
0.999700 
0.999738 
0.999774 
0.999806 
0.999831 
0.999840 
0.999839 
0.999839 
0.999842 
0.999849 
0.999855 
0.999862 
0.999868 
0.999873 
0.999877 
0.999879 
0.999880 
0.999878 
0.999877 
0.999876 
0.999874 
0.999872 
0.999870 
0.999870 
0.999870 
0.999868 
0.999871 
0.999880 
0.999886 
0.999881 
0.999868 
0.999840 
0.995312 
0.975857 
0.932757 
0.870384 
0.786532 
0.680114 
0.556686 
0.450285 
0.363200 
0.269985 
0.182516 
0.103132 
0.049520 
0.015376 
0.005277 
0.003279 
0.003155 
0.003900 
0.004497 
0.004800 
0.004412 
0.003761 
0.003400 
0.004028 
0.004479 
0.005743 
0.006708 
0.007301 
0.007013 
0.006401 
0.006360 
0.006438 
0.006365 
0.005917 
0.005718 
0.005468 
0.004939 
0.004709 
0.004752 
0.004716 
0.004155 
0.003776 
0.004548 
0.006235 
0.007940 
0.007878 
0.010748 
0.034765 
0.144618 
0.445439 
0.798285 
0.976263 
0.998523 
0.957544 
0.792471 
0.527534 
0.258846 
0.104659 
0.034582 
0.009166 
0.001867 
0.001042 
0.001004 
0.001053 
0.001634 
0.003537 
0.012740 
0.087167 
0.405965 
0.817519 
0.983965 
0.999760 
0.999762 
0.999755 
0.999743 
0.999734 
0.999726 
0.999720 
0.999715 
0.999710 
0.999706 
0.999702 
0.999699 
0.999696 
0.999693 
0.999691 
0.999690 
0.999688 
0.999687 
0.999686 
0.999686 
0.999685 
0.999685 
0.999685 
0.999684 
0.999684 
0.999684 
0.999684 
0.999683 
0.999683 
0.999683 
0.999682 
0.999681 
0.999680 
0.999679 
0.999678 
0.999677 
0.999675 
0.999674 
0.999672 
0.999669 
0.999667 
0.999664 
0.999659 
0.999648 
0.999640 
0.999640 
0.999644 
0.999641 
0.999636 
0.999631 
0.999626 
0.999620 
0.999614 
0.999608 
0.999602 
0.999596 
0.999590 
0.999585 
0.999579 
0.999574 
0.999569 
0.999582 
0.999640 
0.999739 
0.999797 
0.999788 
0.999741 
0.999715 
0.999701 
0.999694 
0.999702 
0.999746 
0.999777 
0.999783 
0.999778 
0.999807 
0.999862 
0.999901 
0.999913 
0.999801 
0.896229 
0.533877 
0.142903 
0.014639 
0.001420 
0.001014 
0.001004 
0.001002 
0.001002 
0.001330 
0.017269 
0.175579 
0.592144 
0.922632 
0.999212 
0.999426 
0.999520 
0.999591 
0.999658 
0.999716 
0.999766 
0.999802 
0.999816 
0.999815 
0.999814 
0.999821 
0.999830 
0.999839 
0.999848 
0.999855 
0.999860 
0.999864 
0.999867 
0.999867 
0.999866 
0.999864 
0.999863 
0.999862 
0.999861 
0.999858 
0.999857 
0.999857 
0.999859 
0.999864 
0.999870 
0.999873 
0.999874 
0.999877 
0.999880 
0.999876 
0.999861 
0.991985 
0.972953 
0.938453 
0.879701 
0.794075 
0.692338 
0.572436 
0.466979 
0.359362 
0.270991 
0.167525 
0.077969 
0.028792 
0.010254 
0.005317 
0.003521 
0.003553 
0.004460 
0.005210 
0.004513 
0.004084 
0.003998 
0.004045 
0.004595 
0.005426 
0.006556 
0.007041 
0.006820 
0.006676 
0.006991 
0.006790 
0.006227 
0.005560 
0.005347 
0.005066 
0.004834 
0.005191 
0.005370 
0.004408 
0.003355 
0.003760 
0.005660 
0.006282 
0.007570 
0.022921 
0.103808 
0.365888 
0.712910 
0.946845 
0.998766 
0.969972 
0.808389 
0.516534 
0.224157 
0.074896 
0.020454 
0.005920 
0.001688 
0.001048 
0.001001 
0.001002 
0.001072 
0.001829 
0.004309 
0.015259 
0.093848 
0.412640 
0.815029 
0.985634 
0.999785 
0.999780 
0.999761 
0.999738 
0.999723 
0.999716 
0.999711 
0.999706 
0.999701 
0.999697 
0.999694 
0.999691 
0.999689 
0.999687 
0.999686 
0.999685 
0.999684 
0.999683 
0.999683 
0.999682 
0.999682 
0.999682 
0.999682 
0.999683 
0.999683 
0.999683 
0.999683 
0.999683 
0.999683 
0.999682 
0.999682 
0.999682 
0.999681 
0.999680 
0.999679 
0.999678 
0.999676 
0.999674 
0.999672 
0.999670 
0.999667 
0.999665 
0.999661 
0.999656 
0.999651 
0.999648 
0.999645 
0.999640 
0.999635 
0.999630 
0.999624 
0.999618 
0.999611 
0.999605 
0.999598 
0.999591 
0.999585 
0.999578 
0.999572 
0.999565 
0.999560 
0.999560 
0.999594 
0.999651 
0.999694 
0.999664 
0.999624 
0.999596 
0.999578 
0.999563 
0.999574 
0.999613 
0.999669 
0.999705 
0.999729 
0.999769 
0.999828 
0.999878 
0.999900 
0.999903 
0.908620 
0.580155 
0.180562 
0.022752 
0.001821 
0.001013 
0.001001 
0.001000 
0.001000 
0.001019 
0.004430 
0.078895 
0.424165 
0.840868 
0.994778 
0.999198 
0.999302 
0.999400 
0.999507 
0.999606 
0.999687 
0.999747 
0.999775 
0.999782 
0.999786 
0.999797 
0.999810 
0.999822 
0.999832 
0.999840 
0.999846 
0.999850 
0.999853 
0.999853 
0.999851 
0.999850 
0.999850 
0.999849 
0.999848 
0.999846 
0.999844 
0.999845 
0.999851 
0.999858 
0.999861 
0.999856 
0.999855 
0.999862 
0.999863 
0.999854 
0.999833 
0.999808 
0.999787 
0.996096 
0.980794 
0.949472 
0.896496 
0.817354 
0.711530 
0.606346 
0.504099 
0.380702 
0.240729 
0.130023 
0.065387 
0.023258 
0.008142 
0.003903 
0.003049 
0.003905 
0.004779 
0.005197 
0.004738 
0.004506 
0.003953 
0.004344 
0.005353 
0.006146 
0.006502 
0.006259 
0.006117 
0.006318 
0.006745 
0.006724 
0.006189 
0.005375 
0.005136 
0.005024 
0.005185 
0.004837 
0.004062 
0.004140 
0.004567 
0.004906 
0.012997 
0.067864 
0.303225 
0.653226 
0.925881 
0.996634 
0.981713 
0.859787 
0.569401 
0.235740 
0.060232 
0.010625 
0.002424 
0.001216 
0.001024 
0.001001 
0.001000 
0.001001 
0.001024 
0.001313 
0.002743 
0.012173 
0.084227 
0.382057 
0.780184 
0.968012 
0.999835 
0.999821 
0.999786 
0.999747 
0.999718 
0.999706 
0.999701 
0.999696 
0.999692 
0.999689 
0.999686 
0.999684 
0.999682 
0.999681 
0.999680 
0.999679 
0.999679 
0.999679 
0.999679 
0.999679 
0.999679 
0.999680 
0.999680 
0.999681 
0.999681 
0.999682 
0.999682 
0.999682 
0.999682 
0.999682 
0.999682 
0.999682 
0.999681 
0.999680 
0.999679 
0.999678 
0.999677 
0.999675 
0.999673 
0.999671 
0.999668 
0.999665 
0.999662 
0.999658 
0.999654 
0.999650 
0.999645 
0.999640 
0.999634 
0.999628 
0.999622 
0.999615 
0.999608 
0.999601 
0.999594 
0.999586 
0.999579 
0.999571 
0.999564 
0.999557 
0.999551 
0.999545 
0.999551 
0.999574 
0.999584 
0.999567 
0.999535 
0.999508 
0.999487 
0.999474 
0.999486 
0.999553 
0.999635 
0.999712 
0.999749 
0.999778 
0.999817 
0.999857 
0.999885 
0.999896 
0.952922 
0.705287 
0.308711 
0.061995 
0.005395 
0.001090 
0.001001 
0.001000 
0.001000 
0.001002 
0.001831 
0.036711 
0.297751 
0.741298 
0.972287 
0.998944 
0.998989 
0.999086 
0.999256 
0.999435 
0.999573 
0.999667 
0.999719 
0.999740 
0.999753 
0.999768 
0.999786 
0.999802 
0.999814 
0.999823 
0.999830 
0.999836 
0.999839 
0.999838 
0.999835 
0.999834 
0.999834 
0.999834 
0.999833 
0.999831 
0.999829 
0.999830 
0.999838 
0.999848 
0.999851 
0.999844 
0.999840 
0.999839 
0.999831 
0.999809 
0.999782 
0.999752 
0.999730 
0.999715 
0.999700 
0.998940 
0.985994 
0.956760 
0.909029 
0.843766 
0.757227 
0.643652 
0.496290 
0.373471 
0.243046 
0.128798 
0.052501 
0.016747 
0.006775 
0.004238 
0.003792 
0.004260 
0.005216 
0.005116 
0.004637 
0.004488 
0.004656 
0.005313 
0.005671 
0.005564 
0.005031 
0.005025 
0.006267 
0.007251 
0.007613 
0.007202 
0.006142 
0.004874 
0.004978 
0.005301 
0.005208 
0.004337 
0.003499 
0.005719 
0.034344 
0.209517 
0.575277 
0.902394 
0.996781 
0.974351 
0.872764 
0.642086 
0.318747 
0.084480 
0.011957 
0.001716 
0.001043 
0.001003 
0.001000 
0.001000 
0.001000 
0.001000 
0.001005 
0.001052 
0.001571 
0.007554 
0.070760 
0.346970 
0.743836 
0.945951 
0.999871 
0.999858 
0.999826 
0.999773 
0.999729 
0.999701 
0.999690 
0.999686 
0.999682 
0.999680 
0.999677 
0.999676 
0.999675 
0.999674 
0.999674 
0.999673 
0.999674 
0.999674 
0.999675 
0.999675 
0.999676 
0.999677 
0.999678 
0.999679 
0.999679 
0.999680 
0.999681 
0.999681 
0.999681 
0.999682 
0.999682 
0.999682 
0.999681 
0.999681 
0.999680 
0.999679 
0.999677 
0.999676 
0.999674 
0.999671 
0.999669 
0.999666 
0.999662 
0.999659 
0.999654 
0.999650 
0.999645 
0.999639 
0.999633 
0.999627 
0.999620 
0.999613 
0.999606 
0.999598 
0.999589 
0.999581 
0.999573 
0.999564 
0.999556 
0.999548 
0.999541 
0.999535 
0.999528 
0.999525 
0.999520 
0.999503 
0.999476 
0.999449 
0.999427 
0.999437 
0.999489 
0.999565 
0.999669 
0.999749 
0.999786 
0.999792 
0.999812 
0.999845 
0.999872 
0.999881 
0.989768 
0.855734 
0.518299 
0.160288 
0.020207 
0.001574 
0.001004 
0.001000 
0.001000 
0.001001 
0.001362 
0.022007 
0.213041 
0.646621 
0.935867 
0.998648 
0.998422 
0.998345 
0.998673 
0.999131 
0.999415 
0.999565 
0.999647 
0.999688 
0.999712 
0.999734 
0.999755 
0.999776 
0.999791 
0.999802 
0.999812 
0.999820 
0.999824 
0.999821 
0.999818 
0.999817 
0.999818 
0.999817 
0.999816 
0.999815 
0.999812 
0.999812 
0.999820 
0.999836 
0.999845 
0.999841 
0.999830 
0.999820 
0.999798 
0.999773 
0.999745 
0.999718 
0.999699 
0.999689 
0.999673 
0.999609 
0.998725 
0.995317 
0.986560 
0.967897 
0.934425 
0.864147 
0.772189 
0.673852 
0.574191 
0.413522 
0.250911 
0.127072 
0.058501 
0.021956 
0.009693 
0.004675 
0.003542 
0.004065 
0.004957 
0.005239 
0.005195 
0.005179 
0.005256 
0.005185 
0.004750 
0.004690 
0.005541 
0.006675 
0.007718 
0.008206 
0.007112 
0.005644 
0.004974 
0.006295 
0.006151 
0.004064 
0.003949 
0.018156 
0.117782 
0.440796 
0.826558 
0.993202 
0.963348 
0.831560 
0.620404 
0.369581 
0.146439 
0.032514 
0.004442 
0.001242 
0.001010 
0.001001 
0.001000 
0.001000 
0.001000 
0.001001 
0.001003 
0.001011 
0.001144 
0.005261 
0.064999 
0.347664 
0.749377 
0.948954 
0.999881 
0.999877 
0.999856 
0.999815 
0.999759 
0.999714 
0.999685 
0.999675 
0.999672 
0.999670 
0.999669 
0.999668 
0.999667 
0.999667 
0.999667 
0.999668 
0.999668 
0.999669 
0.999670 
0.999672 
0.999673 
0.999674 
0.999675 
0.999676 
0.999677 
0.999678 
0.999679 
0.999680 
0.999681 
0.999681 
0.999681 
0.999681 
0.999681 
0.999681 
0.999680 
0.999679 
0.999677 
0.999676 
0.999674 
0.999672 
0.999669 
0.999666 
0.999663 
0.999659 
0.999654 
0.999650 
0.999644 
0.999639 
0.999633 
0.999626 
0.999619 
0.999611 
0.999603 
0.999594 
0.999585 
0.999576 
0.999567 
0.999558 
0.999548 
0.999540 
0.999531 
0.999517 
0.999501 
0.999489 
0.999475 
0.999454 
0.999437 
0.999422 
0.999438 
0.999477 
0.999540 
0.999624 
0.999708 
0.999778 
0.999802 
0.999812 
0.999825 
0.999848 
0.999865 
0.999865 
0.999845 
0.957008 
0.725653 
0.329723 
0.061050 
0.004189 
0.001027 
0.001000 
0.001000 
0.001002 
0.001335 
0.017587 
0.175037 
0.582666 
0.906729 
0.996039 
0.993275 
0.985887 
0.986990 
0.995025 
0.999114 
0.999429 
0.999555 
0.999621 
0.999659 
0.999689 
0.999717 
0.999744 
0.999764 
0.999779 
0.999792 
0.999803 
0.999805 
0.999801 
0.999799 
0.999801 
0.999802 
0.999800 
0.999798 
0.999797 
0.999795 
0.999796 
0.999806 
0.999827 
0.999845 
0.999840 
0.999822 
0.999798 
0.999773 
0.999750 
0.999725 
0.999695 
0.999673 
0.999669 
0.999664 
0.999628 
0.999330 
0.998317 
0.997706 
0.996993 
0.995352 
0.976262 
0.937210 
0.903487 
0.855673 
0.772570 
0.635325 
0.479436 
0.311703 
0.171303 
0.066214 
0.022979 
0.008952 
0.004594 
0.003632 
0.004101 
0.005107 
0.005364 
0.005816 
0.005656 
0.005457 
0.004962 
0.005102 
0.005529 
0.006531 
0.007363 
0.007369 
0.006483 
0.006656 
0.007315 
0.005792 
0.004952 
0.014762 
0.085684 
0.347964 
0.723680 
0.959062 
0.961026 
0.800266 
0.541662 
0.298079 
0.151378 
0.068678 
0.025086 
0.008058 
0.002820 
0.001489 
0.001106 
0.001012 
0.001000 
0.001000 
0.001001 
0.001005 
0.001003 
0.001044 
0.004102 
0.065381 
0.370104 
0.781598 
0.973152 
0.999878 
0.999880 
0.999874 
0.999848 
0.999805 
0.999746 
0.999700 
0.999671 
0.999662 
0.999660 
0.999659 
0.999659 
0.999659 
0.999660 
0.999660 
0.999662 
0.999663 
0.999664 
0.999666 
0.999667 
0.999669 
0.999671 
0.999672 
0.999674 
0.999675 
0.999677 
0.999678 
0.999679 
0.999680 
0.999680 
0.999681 
0.999681 
0.999681 
0.999680 
0.999680 
0.999679 
0.999678 
0.999676 
0.999674 
0.999672 
0.999669 
0.999666 
0.999663 
0.999659 
0.999654 
0.999650 
0.999644 
0.999638 
0.999632 
0.999625 
0.999617 
0.999609 
0.999600 
0.999591 
0.999581 
0.999571 
0.999561 
0.999551 
0.999541 
0.999526 
0.999504 
0.999476 
0.999449 
0.999432 
0.999429 
0.999429 
0.999441 
0.999470 
0.999510 
0.999567 
0.999622 
0.999680 
0.999745 
0.999800 
0.999825 
0.999836 
0.999849 
0.999861 
0.999863 
0.999848 
0.999833 
0.994621 
0.878769 
0.533109 
0.156988 
0.016103 
0.001297 
0.001001 
0.001000 
0.001002 
0.001395 
0.017175 
0.162549 
0.551607 
0.889666 
0.986158 
0.966706 
0.931017 
0.927309 
0.960544 
0.990757 
0.999194 
0.999436 
0.999532 
0.999589 
0.999629 
0.999666 
0.999702 
0.999731 
0.999753 
0.999770 
0.999781 
0.999781 
0.999778 
0.999781 
0.999787 
0.999789 
0.999786 
0.999782 
0.999781 
0.999782 
0.999786 
0.999798 
0.999815 
0.999831 
0.999820 
0.999799 
0.999771 
0.999743 
0.999723 
0.999702 
0.999668 
0.999639 
0.999630 
0.999633 
0.999627 
0.999575 
0.999292 
0.999109 
0.999369 
0.999769 
0.999900 
0.993692 
0.986106 
0.981082 
0.963502 
0.918365 
0.850536 
0.738584 
0.556310 
0.353727 
0.181762 
0.072858 
0.026532 
0.009540 
0.004921 
0.003917 
0.004685 
0.005402 
0.006060 
0.005935 
0.005579 
0.004791 
0.004972 
0.005484 
0.006608 
0.006987 
0.007830 
0.008129 
0.007156 
0.006845 
0.015461 
0.070092 
0.301267 
0.659542 
0.931673 
0.977532 
0.820730 
0.511802 
0.219223 
0.084687 
0.044428 
0.035979 
0.032063 
0.025004 
0.016559 
0.008681 
0.004157 
0.001728 
0.001120 
0.001031 
0.001018 
0.001008 
0.001003 
0.001025 
0.003649 
0.062116 
0.365168 
0.776150 
0.972611 
0.999875 
0.999877 
0.999876 
0.999868 
0.999841 
0.999796 
0.999736 
0.999688 
0.999658 
0.999650 
0.999650 
0.999650 
0.999651 
0.999652 
0.999654 
0.999655 
0.999657 
0.999659 
0.999661 
0.999663 
0.999665 
0.999667 
0.999669 
0.999671 
0.999673 
0.999675 
0.999676 
0.999677 
0.999678 
0.999679 
0.999680 
0.999680 
0.999680 
0.999680 
0.999680 
0.999679 
0.999678 
0.999676 
0.999674 
0.999672 
0.999670 
0.999666 
0.999663 
0.999659 
0.999655 
0.999649 
0.999644 
0.999638 
0.999631 
0.999624 
0.999616 
0.999607 
0.999595 
0.999580 
0.999566 
0.999554 
0.999543 
0.999531 
0.999515 
0.999487 
0.999452 
0.999408 
0.999369 
0.999368 
0.999389 
0.999431 
0.999488 
0.999555 
0.999601 
0.999629 
0.999660 
0.999711 
0.999776 
0.999822 
0.999847 
0.999861 
0.999872 
0.999876 
0.999865 
0.999846 
0.999829 
0.999828 
0.962459 
0.732990 
0.323470 
0.054411 
0.003119 
0.001008 
0.001000 
0.001002 
0.001396 
0.017019 
0.160304 
0.542708 
0.880759 
0.966808 
0.901051 
0.801140 
0.777453 
0.853134 
0.948234 
0.993727 
0.999255 
0.999410 
0.999487 
0.999543 
0.999593 
0.999644 
0.999688 
0.999722 
0.999745 
0.999756 
0.999753 
0.999754 
0.999762 
0.999776 
0.999781 
0.999778 
0.999772 
0.999771 
0.999774 
0.999781 
0.999788 
0.999795 
0.999794 
0.999788 
0.999771 
0.999742 
0.999711 
0.999689 
0.999668 
0.999639 
0.999610 
0.999595 
0.999589 
0.999581 
0.999557 
0.999518 
0.999490 
0.999575 
0.999742 
0.999879 
0.999920 
0.999911 
0.999724 
0.998771 
0.997632 
0.989530 
0.968887 
0.908294 
0.775017 
0.593553 
0.395559 
0.214933 
0.085061 
0.032015 
0.012642 
0.006377 
0.004627 
0.005064 
0.005765 
0.005970 
0.005388 
0.005316 
0.005659 
0.005960 
0.007213 
0.008166 
0.008110 
0.007663 
0.017296 
0.068052 
0.277154 
0.604752 
0.904241 
0.989282 
0.895195 
0.582269 
0.221494 
0.051252 
0.012129 
0.009671 
0.016787 
0.029206 
0.036759 
0.036064 
0.029400 
0.019657 
0.009752 
0.004624 
0.002723 
0.001808 
0.001355 
0.001148 
0.001197 
0.004148 
0.057415 
0.324507 
0.730283 
0.943319 
0.999872 
0.999874 
0.999873 
0.999872 
0.999864 
0.999836 
0.999790 
0.999726 
0.999677 
0.999647 
0.999640 
0.999641 
0.999642 
0.999644 
0.999646 
0.999649 
0.999651 
0.999654 
0.999656 
0.999659 
0.999661 
0.999664 
0.999666 
0.999668 
0.999671 
0.999672 
0.999674 
0.999676 
0.999677 
0.999678 
0.999679 
0.999679 
0.999680 
0.999680 
0.999682 
0.999684 
0.999681 
0.999676 
0.999674 
0.999672 
0.999670 
0.999667 
0.999663 
0.999659 
0.999655 
0.999649 
0.999644 
0.999637 
0.999630 
0.999623 
0.999614 
0.999602 
0.999578 
0.999546 
0.999519 
0.999501 
0.999485 
0.999468 
0.999445 
0.999413 
0.999370 
0.999334 
0.999305 
0.999310 
0.999364 
0.999448 
0.999543 
0.999601 
0.999616 
0.999616 
0.999645 
0.999713 
0.999791 
0.999842 
0.999866 
0.999879 
0.999887 
0.999887 
0.999874 
0.999853 
0.999848 
0.999849 
0.993687 
0.879386 
0.519301 
0.129991 
0.008575 
0.001045 
0.001000 
0.001001 
0.001324 
0.016221 
0.161254 
0.549948 
0.884544 
0.939333 
0.798201 
0.616680 
0.557115 
0.658941 
0.837413 
0.963213 
0.998302 
0.999228 
0.999330 
0.999403 
0.999476 
0.999555 
0.999629 
0.999683 
0.999717 
0.999729 
0.999728 
0.999730 
0.999742 
0.999760 
0.999773 
0.999774 
0.999769 
0.999766 
0.999769 
0.999774 
0.999776 
0.999770 
0.999761 
0.999755 
0.999744 
0.999719 
0.999683 
0.999657 
0.999637 
0.999614 
0.999589 
0.999572 
0.999560 
0.999542 
0.999525 
0.999505 
0.999495 
0.999550 
0.999680 
0.999815 
0.999862 
0.999863 
0.999866 
0.999887 
0.999900 
0.999902 
0.999911 
0.999924 
0.988266 
0.932690 
0.820902 
0.643459 
0.435076 
0.245072 
0.109846 
0.041533 
0.015754 
0.008110 
0.006488 
0.005446 
0.005036 
0.005321 
0.005900 
0.006670 
0.007241 
0.007661 
0.007353 
0.013537 
0.055847 
0.253093 
0.587630 
0.889462 
0.983564 
0.955476 
0.719259 
0.322958 
0.064879 
0.006568 
0.001695 
0.002161 
0.005757 
0.011599 
0.018911 
0.023686 
0.027527 
0.028220 
0.026693 
0.020834 
0.015500 
0.010091 
0.006680 
0.004906 
0.003595 
0.008403 
0.059644 
0.306190 
0.694598 
0.927432 
0.999869 
0.999871 
0.999871 
0.999869 
0.999868 
0.999861 
0.999832 
0.999783 
0.999717 
0.999667 
0.999637 
0.999631 
0.999634 
0.999636 
0.999639 
0.999642 
0.999645 
0.999648 
0.999651 
0.999654 
0.999657 
0.999660 
0.999663 
0.999665 
0.999668 
0.999670 
0.999672 
0.999674 
0.999675 
0.999677 
0.999678 
0.999678 
0.999682 
0.999691 
0.999703 
0.999708 
0.999699 
0.999682 
0.999674 
0.999672 
0.999670 
0.999667 
0.999663 
0.999659 
0.999655 
0.999649 
0.999644 
0.999637 
0.999630 
0.999622 
0.999613 
0.999596 
0.999555 
0.999495 
0.999448 
0.999419 
0.999397 
0.999375 
0.999347 
0.999316 
0.999290 
0.999272 
0.999254 
0.999271 
0.999344 
0.999461 
0.999552 
0.999566 
0.999541 
0.999539 
0.999607 
0.999720 
0.999812 
0.999859 
0.999881 
0.999891 
0.999893 
0.999887 
0.999872 
0.999856 
0.999847 
0.999815 
0.999523 
0.955524 
0.676418 
0.216328 
0.016910 
0.001118 
0.001000 
0.001000 
0.001222 
0.014912 
0.162642 
0.565191 
0.889496 
0.899803 
0.677912 
0.432095 
0.341270 
0.426359 
0.657361 
0.882841 
0.986641 
0.998950 
0.999076 
0.999154 
0.999267 
0.999407 
0.999537 
0.999628 
0.999684 
0.999707 
0.999714 
0.999716 
0.999726 
0.999741 
0.999757 
0.999763 
0.999762 
0.999759 
0.999759 
0.999760 
0.999755 
0.999744 
0.999727 
0.999722 
0.999713 
0.999687 
0.999654 
0.999629 
0.999611 
0.999592 
0.999572 
0.999554 
0.999536 
0.999513 
0.999494 
0.999479 
0.999469 
0.999476 
0.999574 
0.999698 
0.999786 
0.999798 
0.999798 
0.999837 
0.999881 
0.999911 
0.999924 
0.999929 
0.999932 
0.999933 
0.999877 
0.956247 
0.846394 
0.684549 
0.480415 
0.274354 
0.128092 
0.057710 
0.025239 
0.010872 
0.005492 
0.004377 
0.004842 
0.006460 
0.008194 
0.009095 
0.013306 
0.041173 
0.175168 
0.512049 
0.865304 
0.992138 
0.964702 
0.802610 
0.456388 
0.126788 
0.013316 
0.001340 
0.001018 
0.001112 
0.001527 
0.002417 
0.003492 
0.004968 
0.007231 
0.014131 
0.022328 
0.027868 
0.028140 
0.025484 
0.025892 
0.024445 
0.017384 
0.020558 
0.079874 
0.324183 
0.706410 
0.933595 
0.999854 
0.999863 
0.999868 
0.999867 
0.999866 
0.999865 
0.999858 
0.999829 
0.999778 
0.999710 
0.999659 
0.999629 
0.999624 
0.999628 
0.999631 
0.999635 
0.999638 
0.999642 
0.999646 
0.999649 
0.999653 
0.999656 
0.999659 
0.999662 
0.999665 
0.999667 
0.999670 
0.999672 
0.999674 
0.999675 
0.999679 
0.999689 
0.999706 
0.999729 
0.999754 
0.999765 
0.999737 
0.999701 
0.999677 
0.999672 
0.999670 
0.999667 
0.999663 
0.999659 
0.999655 
0.999649 
0.999644 
0.999637 
0.999630 
0.999621 
0.999610 
0.999584 
0.999532 
0.999459 
0.999400 
0.999364 
0.999337 
0.999309 
0.999280 
0.999250 
0.999230 
0.999225 
0.999227 
0.999243 
0.999314 
0.999440 
0.999500 
0.999454 
0.999411 
0.999465 
0.999599 
0.999744 
0.999839 
0.999878 
0.999891 
0.999895 
0.999889 
0.999872 
0.999852 
0.999845 
0.999817 
0.999707 
0.999324 
0.985266 
0.767865 
0.281885 
0.024312 
0.001187 
0.001000 
0.001000 
0.001137 
0.013006 
0.160178 
0.566564 
0.880945 
0.843286 
0.557894 
0.284305 
0.181108 
0.231721 
0.447697 
0.762585 
0.957731 
0.998558 
0.998652 
0.998617 
0.998758 
0.999075 
0.999368 
0.999543 
0.999641 
0.999692 
0.999716 
0.999724 
0.999726 
0.999731 
0.999740 
0.999746 
0.999746 
0.999743 
0.999739 
0.999730 
0.999717 
0.999699 
0.999683 
0.999675 
0.999667 
0.999648 
0.999621 
0.999600 
0.999586 
0.999571 
0.999555 
0.999538 
0.999518 
0.999493 
0.999469 
0.999447 
0.999412 
0.999394 
0.999458 
0.999599 
0.999727 
0.999758 
0.999766 
0.999786 
0.999852 
0.999893 
0.999909 
0.999906 
0.999914 
0.999936 
0.999953 
0.999956 
0.999931 
0.968469 
0.871353 
0.707443 
0.519657 
0.336763 
0.184835 
0.070492 
0.023496 
0.008127 
0.004622 
0.005238 
0.009396 
0.019220 
0.050816 
0.156310 
0.429811 
0.773888 
0.975589 
0.968556 
0.821439 
0.525162 
0.201543 
0.033673 
0.002699 
0.001024 
0.001002 
0.001006 
0.001020 
0.001043 
0.001083 
0.001136 
0.001377 
0.002592 
0.006833 
0.014048 
0.021862 
0.028838 
0.038951 
0.047217 
0.042115 
0.047530 
0.120304 
0.384447 
0.752308 
0.953711 
0.999813 
0.999840 
0.999856 
0.999851 
0.999846 
0.999845 
0.999845 
0.999838 
0.999808 
0.999756 
0.999691 
0.999652 
0.999631 
0.999623 
0.999623 
0.999627 
0.999632 
0.999636 
0.999640 
0.999644 
0.999648 
0.999652 
0.999655 
0.999659 
0.999662 
0.999665 
0.999667 
0.999670 
0.999675 
0.999686 
0.999703 
0.999728 
0.999759 
0.999794 
0.999822 
0.999823 
0.999787 
0.999727 
0.999686 
0.999672 
0.999670 
0.999667 
0.999663 
0.999659 
0.999655 
0.999649 
0.999644 
0.999637 
0.999629 
0.999619 
0.999597 
0.999559 
0.999502 
0.999434 
0.999381 
0.999346 
0.999317 
0.999282 
0.999243 
0.999210 
0.999197 
0.999207 
0.999237 
0.999245 
0.999267 
0.999340 
0.999370 
0.999308 
0.999300 
0.999415 
0.999602 
0.999757 
0.999847 
0.999883 
0.999892 
0.999889 
0.999877 
0.999850 
0.999826 
0.999815 
0.999764 
0.999562 
0.999111 
0.995421 
0.809362 
0.315545 
0.028518 
0.001224 
0.001000 
0.001000 
0.001085 
0.010738 
0.147893 
0.549546 
0.862392 
0.777445 
0.446208 
0.176463 
0.083791 
0.106242 
0.273788 
0.623705 
0.914806 
0.998116 
0.997203 
0.992470 
0.988785 
0.992353 
0.997766 
0.999393 
0.999588 
0.999679 
0.999722 
0.999744 
0.999742 
0.999729 
0.999722 
0.999723 
0.999722 
0.999715 
0.999703 
0.999685 
0.999661 
0.999642 
0.999629 
0.999621 
0.999617 
0.999603 
0.999585 
0.999571 
0.999561 
0.999550 
0.999539 
0.999527 
0.999510 
0.999483 
0.999451 
0.999424 
0.999387 
0.999363 
0.999420 
0.999561 
0.999695 
0.999757 
0.999751 
0.999769 
0.999822 
0.999866 
0.999881 
0.999883 
0.999896 
0.999928 
0.999951 
0.999953 
0.999949 
0.999939 
0.999912 
0.972300 
0.897648 
0.781610 
0.592089 
0.361538 
0.168538 
0.056288 
0.017971 
0.010255 
0.017958 
0.050214 
0.161923 
0.412697 
0.731037 
0.946580 
0.989450 
0.870827 
0.580638 
0.245774 
0.057780 
0.006694 
0.001255 
0.001012 
0.001004 
0.001002 
0.001001 
0.001001 
0.001002 
0.001002 
0.001004 
0.001053 
0.001555 
0.004228 
0.011344 
0.017939 
0.024479 
0.036519 
0.046550 
0.071187 
0.169925 
0.453023 
0.794193 
0.969031 
0.999753 
0.999795 
0.999807 
0.999793 
0.999774 
0.999769 
0.999770 
0.999771 
0.999765 
0.999739 
0.999709 
0.999677 
0.999654 
0.999635 
0.999627 
0.999624 
0.999625 
0.999629 
0.999634 
0.999639 
0.999643 
0.999647 
0.999651 
0.999655 
0.999662 
0.999671 
0.999677 
0.999683 
0.999698 
0.999724 
0.999756 
0.999793 
0.999824 
0.999848 
0.999864 
0.999860 
0.999824 
0.999757 
0.999702 
0.999675 
0.999669 
0.999667 
0.999663 
0.999659 
0.999655 
0.999650 
0.999644 
0.999637 
0.999630 
0.999614 
0.999577 
0.999520 
0.999462 
0.999412 
0.999373 
0.999341 
0.999304 
0.999251 
0.999199 
0.999168 
0.999160 
0.999190 
0.999240 
0.999235 
0.999169 
0.999151 
0.999167 
0.999161 
0.999216 
0.999400 
0.999595 
0.999740 
0.999829 
0.999873 
0.999884 
0.999879 
0.999863 
0.999834 
0.999801 
0.999788 
0.999690 
0.999435 
0.998962 
0.997336 
0.822248 
0.326745 
0.029892 
0.001232 
0.001000 
0.001000 
0.001045 
0.007389 
0.119267 
0.509391 
0.840872 
0.714031 
0.346021 
0.101710 
0.032897 
0.040234 
0.149446 
0.480962 
0.845613 
0.987817 
0.987607 
0.961264 
0.939086 
0.947318 
0.976923 
0.995618 
0.999493 
0.999655 
0.999718 
0.999747 
0.999745 
0.999716 
0.999697 
0.999695 
0.999688 
0.999669 
0.999647 
0.999618 
0.999593 
0.999577 
0.999570 
0.999569 
0.999565 
0.999558 
0.999548 
0.999540 
0.999535 
0.999530 
0.999525 
0.999520 
0.999508 
0.999483 
0.999453 
0.999428 
0.999402 
0.999390 
0.999441 
0.999565 
0.999673 
0.999729 
0.999739 
0.999755 
0.999784 
0.999822 
0.999840 
0.999855 
0.999875 
0.999905 
0.999915 
0.999908 
0.999900 
0.999903 
0.999907 
0.999905 
0.999894 
0.993333 
0.930114 
0.779281 
0.553324 
0.313587 
0.136892 
0.072307 
0.076428 
0.151632 
0.343141 
0.666850 
0.917417 
0.996691 
0.932373 
0.677987 
0.312908 
0.082786 
0.012730 
0.001810 
0.001044 
0.001009 
0.001008 
0.001006 
0.001003 
0.001001 
0.001003 
0.001004 
0.001002 
0.001001 
0.001060 
0.002236 
0.006201 
0.007598 
0.006598 
0.009677 
0.024051 
0.064651 
0.185273 
0.465960 
0.800474 
0.963887 
0.999718 
0.999735 
0.999728 
0.999696 
0.999664 
0.999650 
0.999652 
0.999654 
0.999658 
0.999661 
0.999665 
0.999674 
0.999666 
0.999649 
0.999641 
0.999640 
0.999637 
0.999638 
0.999643 
0.999648 
0.999652 
0.999657 
0.999661 
0.999668 
0.999685 
0.999707 
0.999724 
0.999735 
0.999755 
0.999790 
0.999822 
0.999847 
0.999863 
0.999872 
0.999875 
0.999872 
0.999847 
0.999792 
0.999725 
0.999683 
0.999669 
0.999666 
0.999663 
0.999659 
0.999655 
0.999650 
0.999644 
0.999637 
0.999630 
0.999612 
0.999567 
0.999500 
0.999439 
0.999398 
0.999368 
0.999335 
0.999281 
0.999206 
0.999138 
0.999108 
0.999106 
0.999133 
0.999175 
0.999150 
0.999007 
0.998943 
0.998981 
0.999043 
0.999165 
0.999364 
0.999573 
0.999710 
0.999800 
0.999852 
0.999871 
0.999872 
0.999863 
0.999841 
0.999814 
0.999775 
0.999629 
0.999328 
0.998880 
0.997202 
0.823596 
0.328198 
0.030049 
0.001232 
0.001000 
0.001000 
0.001010 
0.003727 
0.078006 
0.442237 
0.806048 
0.658474 
0.264749 
0.054838 
0.010615 
0.012099 
0.071445 
0.339752 
0.751224 
0.960269 
0.960469 
0.883437 
0.811763 
0.818802 
0.891899 
0.965834 
0.996148 
0.999592 
0.999689 
0.999729 
0.999728 
0.999692 
0.999662 
0.999660 
0.999648 
0.999610 
0.999570 
0.999538 
0.999512 
0.999503 
0.999507 
0.999513 
0.999514 
0.999510 
0.999508 
0.999506 
0.999508 
0.999509 
0.999512 
0.999514 
0.999507 
0.999483 
0.999456 
0.999443 
0.999426 
0.999424 
0.999475 
0.999558 
0.999606 
0.999643 
0.999668 
0.999706 
0.999721 
0.999725 
0.999754 
0.999788 
0.999815 
0.999830 
0.999840 
0.999830 
0.999823 
0.999834 
0.999857 
0.999877 
0.999893 
0.999900 
0.999884 
0.987474 
0.908026 
0.719972 
0.504516 
0.362163 
0.337635 
0.412023 
0.617847 
0.834120 
0.921432 
0.870283 
0.699470 
0.386170 
0.110301 
0.016155 
0.002262 
0.001104 
0.001013 
0.001005 
0.001008 
0.001018 
0.001009 
0.001006 
0.001007 
0.001017 
0.001005 
0.001003 
0.001060 
0.002052 
0.004424 
0.003301 
0.001634 
0.001963 
0.008505 
0.046905 
0.169002 
0.442942 
0.764364 
0.949012 
0.999729 
0.999698 
0.999674 
0.999643 
0.999613 
0.999593 
0.999590 
0.999588 
0.999582 
0.999586 
0.999605 
0.999623 
0.999633 
0.999639 
0.999661 
0.999675 
0.999690 
0.999695 
0.999699 
0.999703 
0.999707 
0.999711 
0.999714 
0.999723 
0.999745 
0.999779 
0.999800 
0.999811 
0.999826 
0.999845 
0.999861 
0.999871 
0.999875 
0.999875 
0.999875 
0.999875 
0.999863 
0.999823 
0.999758 
0.999705 
0.999675 
0.999666 
0.999663 
0.999660 
0.999655 
0.999650 
0.999644 
0.999638 
0.999630 
0.999615 
0.999576 
0.999507 
0.999442 
0.999398 
0.999368 
0.999328 
0.999261 
0.999166 
0.999084 
0.999047 
0.999029 
0.999027 
0.999037 
0.998974 
0.998849 
0.998778 
0.998877 
0.998999 
0.999127 
0.999324 
0.999538 
0.999674 
0.999756 
0.999812 
0.999849 
0.999869 
0.999876 
0.999869 
0.999857 
0.999805 
0.999608 
0.999254 
0.998738 
0.996686 
0.818522 
0.323400 
0.029535 
0.001232 
0.001000 
0.001000 
0.001000 
0.001814 
0.046090 
0.375267 
0.772162 
0.627734 
0.218975 
0.032074 
0.003333 
0.003223 
0.030995 
0.229807 
0.654954 
0.929082 
0.921041 
0.770944 
0.628444 
0.606553 
0.715518 
0.867022 
0.969307 
0.998552 
0.999651 
0.999705 
0.999705 
0.999672 
0.999636 
0.999627 
0.999600 
0.999547 
0.999489 
0.999449 
0.999429 
0.999425 
0.999437 
0.999451 
0.999457 
0.999460 
0.999465 
0.999470 
0.999478 
0.999488 
0.999499 
0.999504 
0.999496 
0.999470 
0.999449 
0.999444 
0.999447 
0.999466 
0.999506 
0.999531 
0.999508 
0.999487 
0.999560 
0.999634 
0.999649 
0.999606 
0.999591 
0.999636 
0.999660 
0.999681 
0.999702 
0.999739 
0.999760 
0.999774 
0.999814 
0.999855 
0.999889 
0.999885 
0.999844 
0.999774 
0.999642 
0.963753 
0.864174 
0.766838 
0.737965 
0.777735 
0.852293 
0.853419 
0.695946 
0.497890 
0.304378 
0.115816 
0.018556 
0.002116 
0.001062 
0.001020 
0.001006 
0.001004 
0.001009 
0.001019 
0.001022 
0.001007 
0.001005 
0.001006 
0.001002 
0.001002 
0.001052 
0.001634 
0.002476 
0.001650 
0.001076 
0.001202 
0.005908 
0.044755 
0.161810 
0.404077 
0.718033 
0.925528 
0.999770 
0.999731 
0.999709 
0.999702 
0.999675 
0.999655 
0.999642 
0.999623 
0.999591 
0.999563 
0.999562 
0.999577 
0.999589 
0.999609 
0.999646 
0.999703 
0.999742 
0.999771 
0.999786 
0.999793 
0.999795 
0.999797 
0.999799 
0.999804 
0.999819 
0.999840 
0.999855 
0.999859 
0.999863 
0.999870 
0.999873 
0.999874 
0.999874 
0.999874 
0.999875 
0.999875 
0.999872 
0.999849 
0.999804 
0.999744 
0.999700 
0.999672 
0.999663 
0.999660 
0.999655 
0.999651 
0.999645 
0.999639 
0.999631 
0.999620 
0.999591 
0.999534 
0.999463 
0.999407 
0.999369 
0.999329 
0.999260 
0.999156 
0.999054 
0.998979 
0.998931 
0.998887 
0.998846 
0.998761 
0.998640 
0.998638 
0.998786 
0.998954 
0.999082 
0.999260 
0.999478 
0.999628 
0.999694 
0.999751 
0.999819 
0.999863 
0.999883 
0.999890 
0.999890 
0.999835 
0.999602 
0.999160 
0.998522 
0.991445 
0.773010 
0.282866 
0.024917 
0.001217 
0.001000 
0.001000 
0.001000 
0.001308 
0.032870 
0.333566 
0.767399 
0.654385 
0.229041 
0.027202 
0.001841 
0.001364 
0.012828 
0.150658 
0.565041 
0.903089 
0.888436 
0.670632 
0.457016 
0.389765 
0.480511 
0.686196 
0.881445 
0.981119 
0.999568 
0.999686 
0.999698 
0.999671 
0.999629 
0.999575 
0.999528 
0.999452 
0.999393 
0.999353 
0.999336 
0.999338 
0.999356 
0.999379 
0.999394 
0.999407 
0.999419 
0.999432 
0.999445 
0.999464 
0.999479 
0.999485 
0.999471 
0.999445 
0.999428 
0.999443 
0.999480 
0.999518 
0.999545 
0.999509 
0.999406 
0.999356 
0.999436 
0.999579 
0.999609 
0.999496 
0.999443 
0.999414 
0.999438 
0.999455 
0.999548 
0.999633 
0.999690 
0.999719 
0.999756 
0.999818 
0.999856 
0.999858 
0.999807 
0.999748 
0.999677 
0.997212 
0.982649 
0.966993 
0.956809 
0.961894 
0.928043 
0.699921 
0.357596 
0.140652 
0.051866 
0.012844 
0.001994 
0.001018 
0.001002 
0.001005 
0.001005 
0.001004 
0.001006 
0.001025 
0.001022 
0.001009 
0.001002 
0.001001 
0.001000 
0.001000 
0.001008 
0.001082 
0.001161 
0.001059 
0.001018 
0.001297 
0.008666 
0.054921 
0.169589 
0.374159 
0.665853 
0.896677 
0.999830 
0.999807 
0.999802 
0.999802 
0.999793 
0.999778 
0.999764 
0.999730 
0.999658 
0.999600 
0.999567 
0.999558 
0.999561 
0.999577 
0.999614 
0.999665 
0.999728 
0.999777 
0.999815 
0.999842 
0.999852 
0.999853 
0.999855 
0.999855 
0.999859 
0.999866 
0.999870 
0.999871 
0.999871 
0.999872 
0.999873 
0.999873 
0.999874 
0.999874 
0.999874 
0.999874 
0.999874 
0.999868 
0.999843 
0.999800 
0.999742 
0.999697 
0.999669 
0.999660 
0.999656 
0.999651 
0.999646 
0.999639 
0.999632 
0.999624 
0.999605 
0.999561 
0.999493 
0.999428 
0.999377 
0.999337 
0.999276 
0.999174 
0.999049 
0.998942 
0.998852 
0.998766 
0.998655 
0.998506 
0.998391 
0.998407 
0.998588 
0.998829 
0.998989 
0.999176 
0.999390 
0.999550 
0.999636 
0.999702 
0.999775 
0.999827 
0.999865 
0.999891 
0.999899 
0.999837 
0.999556 
0.999037 
0.998209 
0.950114 
0.637810 
0.189361 
0.013401 
0.001101 
0.001000 
0.001000 
0.001000 
0.001217 
0.026554 
0.299765 
0.764685 
0.733463 
0.299740 
0.039313 
0.001954 
0.001061 
0.004939 
0.091356 
0.472076 
0.872237 
0.877932 
0.611322 
0.339604 
0.229270 
0.272820 
0.450600 
0.715952 
0.919041 
0.993684 
0.999637 
0.999663 
0.999676 
0.999619 
0.999514 
0.999390 
0.999302 
0.999245 
0.999223 
0.999219 
0.999231 
0.999260 
0.999293 
0.999324 
0.999350 
0.999373 
0.999392 
0.999414 
0.999438 
0.999458 
0.999457 
0.999446 
0.999427 
0.999421 
0.999451 
0.999515 
0.999566 
0.999566 
0.999484 
0.999348 
0.999281 
0.999386 
0.999574 
0.999621 
0.999521 
0.999375 
0.999313 
0.999285 
0.999327 
0.999431 
0.999564 
0.999630 
0.999647 
0.999684 
0.999741 
0.999797 
0.999818 
0.999823 
0.999813 
0.999798 
0.999769 
0.997366 
0.995260 
0.997442 
0.998238 
0.892444 
0.543437 
0.165877 
0.026939 
0.004038 
0.001302 
0.001011 
0.001000 
0.001001 
0.001003 
0.001003 
0.001002 
0.001004 
0.001011 
0.001021 
0.001007 
0.001002 
0.001001 
0.001001 
0.001001 
0.001004 
0.001014 
0.001013 
0.001003 
0.001012 
0.001675 
0.012988 
0.069300 
0.178770 
0.355010 
0.638520 
0.877388 
0.999863 
0.999857 
0.999859 
0.999863 
0.999858 
0.999854 
0.999850 
0.999819 
0.999758 
0.999681 
0.999627 
0.999586 
0.999560 
0.999558 
0.999575 
0.999609 
0.999652 
0.999703 
0.999772 
0.999830 
0.999861 
0.999866 
0.999868 
0.999868 
0.999869 
0.999869 
0.999869 
0.999870 
0.999871 
0.999871 
0.999872 
0.999873 
0.999873 
0.999873 
0.999874 
0.999874 
0.999874 
0.999874 
0.999868 
0.999842 
0.999799 
0.999740 
0.999695 
0.999666 
0.999656 
0.999652 
0.999646 
0.999640 
0.999633 
0.999626 
0.999614 
0.999585 
0.999534 
0.999465 
0.999404 
0.999350 
0.999293 
0.999198 
0.999067 
0.998937 
0.998824 
0.998701 
0.998526 
0.998299 
0.998109 
0.998080 
0.998262 
0.998555 
0.998844 
0.999061 
0.999263 
0.999429 
0.999544 
0.999632 
0.999695 
0.999746 
0.999800 
0.999861 
0.999889 
0.999816 
0.999508 
0.998903 
0.997824 
0.878165 
0.474729 
0.088609 
0.004466 
0.001011 
0.001000 
0.001000 
0.001000 
0.001144 
0.018091 
0.223163 
0.679423 
0.798766 
0.401907 
0.064958 
0.003114 
0.001018 
0.002109 
0.051231 
0.384265 
0.834893 
0.886883 
0.588848 
0.270336 
0.133285 
0.131860 
0.242345 
0.495317 
0.800963 
0.970432 
0.999476 
0.999545 
0.999612 
0.999582 
0.999422 
0.999231 
0.999092 
0.999040 
0.999042 
0.999063 
0.999098 
0.999147 
0.999202 
0.999251 
0.999293 
0.999328 
0.999358 
0.999391 
0.999425 
0.999444 
0.999449 
0.999452 
0.999452 
0.999457 
0.999486 
0.999540 
0.999575 
0.999556 
0.999456 
0.999321 
0.999270 
0.999405 
0.999609 
0.999682 
0.999596 
0.999477 
0.999387 
0.999327 
0.999373 
0.999465 
0.999566 
0.999621 
0.999635 
0.999668 
0.999713 
0.999753 
0.999794 
0.999850 
0.999889 
0.999905 
0.999903 
0.999894 
0.999885 
0.999874 
0.996122 
0.878807 
0.514893 
0.136669 
0.014776 
0.001588 
0.001017 
0.001001 
0.001000 
0.001001 
0.001002 
0.001002 
0.001002 
0.001002 
0.001004 
0.001005 
0.001004 
0.001004 
0.001005 
0.001007 
0.001020 
0.001070 
0.001135 
0.001081 
0.001019 
0.001043 
0.002204 
0.017452 
0.081219 
0.197774 
0.371198 
0.649336 
0.885239 
0.999865 
0.999868 
0.999869 
0.999869 
0.999870 
0.999871 
0.999872 
0.999863 
0.999831 
0.999787 
0.999731 
0.999656 
0.999594 
0.999558 
0.999556 
0.999570 
0.999591 
0.999632 
0.999703 
0.999792 
0.999848 
0.999865 
0.999866 
0.999868 
0.999868 
0.999869 
0.999869 
0.999869 
0.999870 
0.999871 
0.999871 
0.999872 
0.999873 
0.999873 
0.999873 
0.999874 
0.999874 
0.999874 
0.999874 
0.999867 
0.999841 
0.999797 
0.999738 
0.999692 
0.999663 
0.999652 
0.999647 
0.999641 
0.999635 
0.999627 
0.999619 
0.999604 
0.999570 
0.999518 
0.999447 
0.999380 
0.999313 
0.999226 
0.999097 
0.998959 
0.998832 
0.998690 
0.998474 
0.998176 
0.997886 
0.997733 
0.997810 
0.998123 
0.998515 
0.998845 
0.999049 
0.999203 
0.999337 
0.999442 
0.999544 
0.999618 
0.999724 
0.999807 
0.999855 
0.999791 
0.999495 
0.998786 
0.997142 
0.792270 
0.325013 
0.038987 
0.001699 
0.001000 
0.001000 
0.001000 
0.001000 
0.001039 
0.007260 
0.109849 
0.456539 
0.738367 
0.481982 
0.099950 
0.005120 
0.001018 
0.001330 
0.030441 
0.307229 
0.782168 
0.892723 
0.595643 
0.243046 
0.084418 
0.057099 
0.105600 
0.282780 
0.618766 
0.906726 
0.999202 
0.999326 
0.999452 
0.999477 
0.999321 
0.999064 
0.998864 
0.998786 
0.998810 
0.998872 
0.998945 
0.999026 
0.999107 
0.999181 
0.999243 
0.999290 
0.999331 
0.999377 
0.999424 
0.999456 
0.999475 
0.999496 
0.999519 
0.999528 
0.999541 
0.999561 
0.999569 
0.999523 
0.999411 
0.999285 
0.999286 
0.999461 
0.999659 
0.999718 
0.999644 
0.999549 
0.999475 
0.999457 
0.999491 
0.999563 
0.999628 
0.999677 
0.999697 
0.999723 
0.999761 
0.999789 
0.999819 
0.999880 
0.999927 
0.999947 
0.999949 
0.999938 
0.999915 
0.999882 
0.996890 
0.918266 
0.620695 
0.236591 
0.047920 
0.006721 
0.001628 
0.001057 
0.001004 
0.001001 
0.001001 
0.001002 
0.001002 
0.001002 
0.001002 
0.001002 
0.001003 
0.001006 
0.001013 
0.001018 
0.001066 
0.001342 
0.001835 
0.001651 
0.001146 
0.001116 
0.002477 
0.018685 
0.092198 
0.236210 
0.442868 
0.703371 
0.911138 
0.999855 
0.999861 
0.999864 
0.999865 
0.999866 
0.999867 
0.999869 
0.999870 
0.999866 
0.999853 
0.999817 
0.999753 
0.999660 
0.999592 
0.999556 
0.999555 
0.999565 
0.999590 
0.999651 
0.999743 
0.999816 
0.999856 
0.999865 
0.999867 
0.999868 
0.999868 
0.999869 
0.999869 
0.999869 
0.999870 
0.999871 
0.999871 
0.999872 
0.999872 
0.999873 
0.999873 
0.999873 
0.999873 
0.999873 
0.999873 
0.999867 
0.999841 
0.999796 
0.999736 
0.999689 
0.999659 
0.999648 
0.999643 
0.999636 
0.999629 
0.999621 
0.999612 
0.999596 
0.999560 
0.999504 
0.999428 
0.999357 
0.999269 
0.999150 
0.999003 
0.998861 
0.998708 
0.998489 
0.998152 
0.997763 
0.997450 
0.997354 
0.997554 
0.997996 
0.998429 
0.998696 
0.998810 
0.974349 
0.926787 
0.924928 
0.972547 
0.999666 
0.999762 
0.999788 
0.999730 
0.999446 
0.998627 
0.937514 
0.613678 
0.187326 
0.014053 
0.001133 
0.001000 
0.001000 
0.001000 
0.001000 
0.001002 
0.001823 
0.026119 
0.214495 
0.558774 
0.522310 
0.138650 
0.008506 
0.001033 
0.001128 
0.017197 
0.217146 
0.684538 
0.893447 
0.650189 
0.261594 
0.067907 
0.024988 
0.036591 
0.122844 
0.383705 
0.725480 
0.947938 
0.999063 
0.999248 
0.999318 
0.999182 
0.998893 
0.998604 
0.998488 
0.998533 
0.998651 
0.998778 
0.998903 
0.999019 
0.999121 
0.999209 
0.999266 
0.999310 
0.999360 
0.999425 
0.999480 
0.999517 
0.999549 
0.999571 
0.999578 
0.999576 
0.999574 
0.999553 
0.999487 
0.999370 
0.999270 
0.999303 
0.999502 
0.999672 
0.999678 
0.999573 
0.999479 
0.999427 
0.999455 
0.999550 
0.999644 
0.999706 
0.999749 
0.999771 
0.999791 
0.999821 
0.999846 
0.999879 
0.999914 
0.999944 
0.999955 
0.999955 
0.999941 
0.999909 
0.999875 
0.998953 
0.970582 
0.800762 
0.482645 
0.192118 
0.057586 
0.014361 
0.003553 
0.001305 
0.001022 
0.001002 
0.001001 
0.001002 
0.001002 
0.001002 
0.001003 
0.001004 
0.001007 
0.001010 
0.001015 
0.001045 
0.001304 
0.002009 
0.001958 
0.001265 
0.001124 
0.002271 
0.017687 
0.106587 
0.306145 
0.562563 
0.796001 
0.936516 
0.999836 
0.999848 
0.999857 
0.999859 
0.999861 
0.999863 
0.999865 
0.999867 
0.999869 
0.999871 
0.999863 
0.999822 
0.999752 
0.999659 
0.999591 
0.999556 
0.999554 
0.999569 
0.999607 
0.999675 
0.999760 
0.999820 
0.999856 
0.999865 
0.999867 
0.999868 
0.999868 
0.999869 
0.999869 
0.999869 
0.999870 
0.999871 
0.999871 
0.999872 
0.999872 
0.999873 
0.999873 
0.999873 
0.999873 
0.999873 
0.999873 
0.999866 
0.999840 
0.999794 
0.999734 
0.999686 
0.999656 
0.999644 
0.999638 
0.999632 
0.999624 
0.999615 
0.999605 
0.999588 
0.999550 
0.999494 
0.999424 
0.999342 
0.999225 
0.999072 
0.998917 
0.998759 
0.998548 
0.998215 
0.997756 
0.997305 
0.997008 
0.997032 
0.997396 
0.997892 
0.998147 
0.952159 
0.811756 
0.679468 
0.691933 
0.840194 
0.972608 
0.999734 
0.999713 
0.999614 
0.999284 
0.970571 
0.754843 
0.358335 
0.061215 
0.003604 
0.001007 
0.001000 
0.001000 
0.001000 
0.001000 
0.001000 
0.001015 
0.004302 
0.073259 
0.391952 
0.544527 
0.200142 
0.014669 
0.001082 
0.001028 
0.006964 
0.117914 
0.503548 
0.857133 
0.743980 
0.330106 
0.067038 
0.012133 
0.009397 
0.035329 
0.152949 
0.438804 
0.751642 
0.951391 
0.999054 
0.999156 
0.999025 
0.998657 
0.998283 
0.998123 
0.998206 
0.998401 
0.998606 
0.998794 
0.998966 
0.999109 
0.999206 
0.999262 
0.999294 
0.999337 
0.999412 
0.999494 
0.999550 
0.999577 
0.999588 
0.999587 
0.999578 
0.999560 
0.999522 
0.999453 
0.999350 
0.999286 
0.999355 
0.999528 
0.999644 
0.999587 
0.999445 
0.999333 
0.999305 
0.999377 
0.999546 
0.999684 
0.999769 
0.999808 
0.999825 
0.999840 
0.999869 
0.999900 
0.999922 
0.999942 
0.999953 
0.999957 
0.999956 
0.999936 
0.999898 
0.999863 
0.999135 
0.993749 
0.943036 
0.761565 
0.479955 
0.225716 
0.093826 
0.030475 
0.007586 
0.001803 
0.001059 
0.001003 
0.001001 
0.001002 
0.001002 
0.001003 
0.001004 
0.001006 
0.001009 
0.001011 
0.001022 
0.001115 
0.001419 
0.001419 
0.001141 
0.001101 
0.002247 
0.020013 
0.128876 
0.402776 
0.706451 
0.886512 
0.962939 
0.999804 
0.999826 
0.999841 
0.999847 
0.999850 
0.999855 
0.999860 
0.999864 
0.999867 
0.999869 
0.999871 
0.999862 
0.999822 
0.999752 
0.999658 
0.999591 
0.999555 
0.999554 
0.999573 
0.999616 
0.999680 
0.999760 
0.999820 
0.999856 
0.999865 
0.999867 
0.999868 
0.999868 
0.999869 
0.999869 
0.999869 
0.999870 
0.999870 
0.999871 
0.999872 
0.999872 
0.999872 
0.999873 
0.999873 
0.999873 
0.999873 
0.999873 
0.999866 
0.999839 
0.999793 
0.999731 
0.999687 
0.999659 
0.999643 
0.999634 
0.999627 
0.999619 
0.999609 
0.999599 
0.999580 
0.999547 
0.999501 
0.999435 
0.999325 
0.999180 
0.999010 
0.998846 
0.998644 
0.998330 
0.997870 
0.997335 
0.996888 
0.996716 
0.996920 
0.997211 
0.960833 
0.796659 
0.543566 
0.355497 
0.393939 
0.657960 
0.918344 
0.999633 
0.999674 
0.999507 
0.957885 
0.785878 
0.452644 
0.133824 
0.012882 
0.001159 
0.001000 
0.001000 
0.001000 
0.001000 
0.001000 
0.001000 
0.001000 
0.001344 
0.028978 
0.281646 
0.551263 
0.279460 
0.028129 
0.001295 
0.001001 
0.002091 
0.039006 
0.287543 
0.684666 
0.781606 
0.402592 
0.077325 
0.007198 
0.002390 
0.006660 
0.039857 
0.170830 
0.455811 
0.757462 
0.949529 
0.998961 
0.998809 
0.998367 
0.997897 
0.997706 
0.997854 
0.998160 
0.998461 
0.998733 
0.998982 
0.999170 
0.999274 
0.999297 
0.999296 
0.999316 
0.999381 
0.999476 
0.999542 
0.999570 
0.999573 
0.999566 
0.999547 
0.999515 
0.999469 
0.999406 
0.999353 
0.999355 
0.999449 
0.999593 
0.999636 
0.999526 
0.999387 
0.999313 
0.999302 
0.999379 
0.999540 
0.999704 
0.999795 
0.999836 
0.999860 
0.999887 
0.999912 
0.999933 
0.999947 
0.999954 
0.999957 
0.999960 
0.999954 
0.999926 
0.999882 
0.999844 
0.998861 
0.996676 
0.991859 
0.929835 
0.741171 
0.493454 
0.284912 
0.145699 
0.051848 
0.012832 
0.002527 
0.001162 
0.001018 
0.001003 
0.001001 
0.001002 
0.001004 
0.001005 
0.001010 
0.001016 
0.001027 
0.001048 
0.001089 
0.001097 
0.001065 
0.001175 
0.003146 
0.028108 
0.162118 
0.476860 
0.795763 
0.938769 
0.969510 
0.999767 
0.999792 
0.999809 
0.999819 
0.999828 
0.999840 
0.999852 
0.999859 
0.999863 
0.999866 
0.999868 
0.999870 
0.999862 
0.999821 
0.999752 
0.999658 
0.999591 
0.999556 
0.999555 
0.999573 
0.999616 
0.999680 
0.999765 
0.999828 
0.999860 
0.999866 
0.999867 
0.999868 
0.999868 
0.999869 
0.999869 
0.999869 
0.999870 
0.999870 
0.999871 
0.999871 
0.999872 
0.999872 
0.999872 
0.999872 
0.999872 
0.999872 
0.999872 
0.999865 
0.999838 
0.999795 
0.999743 
0.999703 
0.999669 
0.999643 
0.999630 
0.999622 
0.999614 
0.999604 
0.999593 
0.999577 
0.999553 
0.999509 
0.999432 
0.999302 
0.999147 
0.998967 
0.998773 
0.998499 
0.998090 
0.997570 
0.997058 
0.996715 
0.996563 
0.976776 
0.855987 
0.609333 
0.318348 
0.189518 
0.249638 
0.554073 
0.887503 
0.999493 
0.999653 
0.928836 
0.713567 
0.417589 
0.155301 
0.024217 
0.001948 
0.001002 
0.001000 
0.001000 
0.001000 
0.001000 
0.001000 
0.001000 
0.001000 
0.001087 
0.015900 
0.207992 
0.552738 
0.377332 
0.060436 
0.002650 
0.001001 
0.001068 
0.008894 
0.105112 
0.430103 
0.693238 
0.483336 
0.109366 
0.008616 
0.001477 
0.001971 
0.008785 
0.050157 
0.189578 
0.466653 
0.742942 
0.919205 
0.982752 
0.997932 
0.997461 
0.997318 
0.997594 
0.998041 
0.998448 
0.998770 
0.999074 
0.999310 
0.999396 
0.999393 
0.999355 
0.999345 
0.999379 
0.999445 
0.999504 
0.999525 
0.999522 
0.999509 
0.999485 
0.999447 
0.999416 
0.999396 
0.999405 
0.999467 
0.999588 
0.999687 
0.999679 
0.999550 
0.999440 
0.999405 
0.999417 
0.999451 
0.999573 
0.999709 
0.999804 
0.999847 
0.999880 
0.999916 
0.999942 
0.999953 
0.999957 
0.999958 
0.999960 
0.999959 
0.999943 
0.999899 
0.999847 
0.999811 
0.999259 
0.997393 
0.995678 
0.984038 
0.907919 
0.761548 
0.590097 
0.385088 
0.196996 
0.075939 
0.024863 
0.007577 
0.002896 
0.001358 
0.001029 
0.001003 
0.001002 
0.001004 
0.001008 
0.001019 
0.001034 
0.001041 
0.001034 
0.001038 
0.001077 
0.001371 
0.004981 
0.037145 
0.186479 
0.511810 
0.805928 
0.901667 
0.908145 
0.999728 
0.999748 
0.999764 
0.999775 
0.999790 
0.999814 
0.999835 
0.999851 
0.999858 
0.999862 
0.999865 
0.999868 
0.999870 
0.999862 
0.999821 
0.999751 
0.999658 
0.999591 
0.999556 
0.999555 
0.999574 
0.999621 
0.999698 
0.999789 
0.999846 
0.999864 
0.999866 
0.999867 
0.999868 
0.999868 
0.999869 
0.999869 
0.999869 
0.999870 
0.999870 
0.999871 
0.999871 
0.999872 
0.999872 
0.999872 
0.999872 
0.999872 
0.999872 
0.999872 
0.999865 
0.999844 
0.999813 
0.999774 
0.999720 
0.999673 
0.999640 
0.999626 
0.999619 
0.999610 
0.999600 
0.999589 
0.999576 
0.999554 
0.999506 
0.999423 
0.999288 
0.999131 
0.998942 
0.998716 
0.998400 
0.997970 
0.997480 
0.996990 
0.991580 
0.931409 
0.751658 
0.470575 
0.249581 
0.168767 
0.260823 
0.579122 
0.897411 
0.980977 
0.883788 
0.631814 
0.329639 
0.104758 
0.019543 
0.002332 
0.001013 
0.001000 
0.001000 
0.001009 
0.001068 
0.001144 
0.001087 
0.001009 
0.001000 
0.001064 
0.011906 
0.173507 
0.564017 
0.520931 
0.142823 
0.009124 
0.001054 
0.001002 
0.001850 
0.028343 
0.204651 
0.575448 
0.583805 
0.202989 
0.020403 
0.002114 
0.001721 
0.004147 
0.016436 
0.067998 
0.205614 
0.451794 
0.692586 
0.870911 
0.966184 
0.994972 
0.997079 
0.997604 
0.998215 
0.998663 
0.998971 
0.999232 
0.999457 
0.999544 
0.999527 
0.999489 
0.999458 
0.999455 
0.999473 
0.999492 
0.999492 
0.999475 
0.999456 
0.999436 
0.999425 
0.999432 
0.999460 
0.999519 
0.999608 
0.999702 
0.999763 
0.999734 
0.999631 
0.999542 
0.999533 
0.999532 
0.999535 
0.999609 
0.999730 
0.999818 
0.999856 
0.999888 
0.999927 
0.999953 
0.999959 
0.999960 
0.999960 
0.999960 
0.999951 
0.999916 
0.999850 
0.999792 
0.999762 
0.999583 
0.998110 
0.995532 
0.994959 
0.983547 
0.935892 
0.832960 
0.658217 
0.445626 
0.276822 
0.162175 
0.094802 
0.047919 
0.016345 
0.004088 
0.001338 
0.001022 
0.001003 
0.001004 
0.001011 
0.001026 
0.001031 
0.001023 
0.001031 
0.001122 
0.001535 
0.006220 
0.042850 
0.204403 
0.526110 
0.782531 
0.822199 
0.798034 
0.999693 
0.999709 
0.999723 
0.999733 
0.999751 
0.999777 
0.999808 
0.999833 
0.999849 
0.999856 
0.999861 
0.999865 
0.999868 
0.999870 
0.999862 
0.999821 
0.999752 
0.999658 
0.999591 
0.999556 
0.999555 
0.999582 
0.999645 
0.999739 
0.999814 
0.999854 
0.999864 
0.999866 
0.999867 
0.999868 
0.999868 
0.999869 
0.999869 
0.999869 
0.999870 
0.999870 
0.999871 
0.999871 
0.999871 
0.999872 
0.999872 
0.999872 
0.999872 
0.999872 
0.999871 
0.999867 
0.999857 
0.999832 
0.999787 
0.999722 
0.999674 
0.999644 
0.999627 
0.999616 
0.999607 
0.999597 
0.999586 
0.999573 
0.999551 
0.999503 
0.999423 
0.999299 
0.999151 
0.998970 
0.998737 
0.998425 
0.998012 
0.997444 
0.983654 
0.903468 
0.705260 
0.459624 
0.295905 
0.269106 
0.402687 
0.698097 
0.917864 
0.861966 
0.581919 
0.268766 
0.064498 
0.009903 
0.001514 
0.001006 
0.001000 
0.001008 
0.001382 
0.003995 
0.010643 
0.016593 
0.011669 
0.003578 
0.001127 
0.001102 
0.009329 
0.146735 
0.556522 
0.669102 
0.275231 
0.032208 
0.001692 
0.001001 
0.001056 
0.006116 
0.095797 
0.450034 
0.674127 
0.343200 
0.058382 
0.006600 
0.003061 
0.005324 
0.012212 
0.033728 
0.096442 
0.227632 
0.433127 
0.678814 
0.870920 
0.971352 
0.995196 
0.997994 
0.998671 
0.999092 
0.999281 
0.999450 
0.999582 
0.999646 
0.999647 
0.999628 
0.999603 
0.999582 
0.999568 
0.999559 
0.999542 
0.999512 
0.999491 
0.999483 
0.999492 
0.999528 
0.999579 
0.999641 
0.999710 
0.999761 
0.999768 
0.999746 
0.999691 
0.999636 
0.999617 
0.999599 
0.999586 
0.999644 
0.999755 
0.999833 
0.999865 
0.999892 
0.999930 
0.999955 
0.999961 
0.999960 
0.999959 
0.999955 
0.999936 
0.999884 
0.999806 
0.999741 
0.999720 
0.999474 
0.997518 
0.994007 
0.991716 
0.985910 
0.956713 
0.893681 
0.787257 
0.660443 
0.584071 
0.511166 
0.419709 
0.303684 
0.164134 
0.060202 
0.015290 
0.003355 
0.001267 
0.001021 
0.001005 
0.001011 
0.001016 
0.001014 
0.001023 
0.001078 
0.001648 
0.007223 
0.048925 
0.227101 
0.572822 
0.801004 
0.785811 
0.712725 
0.999660 
0.999679 
0.999694 
0.999706 
0.999719 
0.999741 
0.999772 
0.999806 
0.999832 
0.999848 
0.999856 
0.999861 
0.999865 
0.999868 
0.999870 
0.999862 
0.999822 
0.999752 
0.999659 
0.999592 
0.999557 
0.999560 
0.999600 
0.999670 
0.999757 
0.999818 
0.999854 
0.999864 
0.999866 
0.999867 
0.999868 
0.999868 
0.999869 
0.999869 
0.999869 
0.999870 
0.999870 
0.999870 
0.999871 
0.999871 
0.999871 
0.999871 
0.999871 
0.999871 
0.999871 
0.999871 
0.999871 
0.999863 
0.999834 
0.999789 
0.999735 
0.999693 
0.999661 
0.999636 
0.999618 
0.999606 
0.999596 
0.999585 
0.999573 
0.999551 
0.999511 
0.999447 
0.999353 
0.999225 
0.999064 
0.998833 
0.998511 
0.997974 
0.984039 
0.915322 
0.751748 
0.562196 
0.461545 
0.484570 
0.647296 
0.852447 
0.919939 
0.684182 
0.307197 
0.073119 
0.010276 
0.001514 
0.001022 
0.001004 
0.001043 
0.002824 
0.019126 
0.073655 
0.159743 
0.210784 
0.161435 
0.054599 
0.009429 
0.002563 
0.012087 
0.132337 
0.532584 
0.764639 
0.462494 
0.103084 
0.008471 
0.001111 
0.001004 
0.002099 
0.042210 
0.331376 
0.686696 
0.516838 
0.151931 
0.030085 
0.010679 
0.011411 
0.018883 
0.035294 
0.072346 
0.151281 
0.296327 
0.517137 
0.769293 
0.929603 
0.988653 
0.998657 
0.999246 
0.999493 
0.999585 
0.999621 
0.999670 
0.999707 
0.999726 
0.999722 
0.999698 
0.999673 
0.999659 
0.999649 
0.999634 
0.999617 
0.999602 
0.999599 
0.999610 
0.999633 
0.999669 
0.999721 
0.999763 
0.999757 
0.999717 
0.999694 
0.999679 
0.999665 
0.999651 
0.999628 
0.999620 
0.999666 
0.999776 
0.999842 
0.999869 
0.999893 
0.999930 
0.999954 
0.999961 
0.999959 
0.999956 
0.999948 
0.999921 
0.999862 
0.999783 
0.999730 
0.999637 
0.998860 
0.994242 
0.976825 
0.953826 
0.908291 
0.834607 
0.763314 
0.708019 
0.705787 
0.741287 
0.796669 
0.799244 
0.713784 
0.534112 
0.329369 
0.150838 
0.049921 
0.012627 
0.002777 
0.001109 
0.001009 
0.001006 
0.001005 
0.001008 
0.001073 
0.001996 
0.010863 
0.065413 
0.263367 
0.630377 
0.853627 
0.816013 
0.728420 
0.999614 
0.999644 
0.999669 
0.999685 
0.999698 
0.999714 
0.999738 
0.999770 
0.999805 
0.999832 
0.999848 
0.999856 
0.999861 
0.999865 
0.999868 
0.999870 
0.999862 
0.999822 
0.999752 
0.999659 
0.999598 
0.999568 
0.999571 
0.999609 
0.999675 
0.999761 
0.999826 
0.999859 
0.999864 
0.999866 
0.999867 
0.999868 
0.999868 
0.999869 
0.999869 
0.999869 
0.999870 
0.999870 
0.999870 
0.999871 
0.999871 
0.999871 
0.999871 
0.999871 
0.999871 
0.999871 
0.999871 
0.999870 
0.999863 
0.999841 
0.999809 
0.999772 
0.999727 
0.999687 
0.999654 
0.999628 
0.999610 
0.999597 
0.999587 
0.999576 
0.999559 
0.999533 
0.999490 
0.999423 
0.999322 
0.999159 
0.998917 
0.998499 
0.992049 
0.952225 
0.855853 
0.743507 
0.696836 
0.753713 
0.864956 
0.966080 
0.909504 
0.599192 
0.227645 
0.055992 
0.013078 
0.005060 
0.002652 
0.002038 
0.005397 
0.035523 
0.174288 
0.395019 
0.592655 
0.679569 
0.564711 
0.309856 
0.099857 
0.038161 
0.055115 
0.211766 
0.596770 
0.867314 
0.689070 
0.292477 
0.052032 
0.004331 
0.001109 
0.001700 
0.026363 
0.236703 
0.651660 
0.690343 
0.363455 
0.117107 
0.045065 
0.031292 
0.038255 
0.057732 
0.094113 
0.159655 
0.281654 
0.486575 
0.730695 
0.914218 
0.985861 
0.999355 
0.999657 
0.999754 
0.999760 
0.999736 
0.999736 
0.999759 
0.999790 
0.999778 
0.999737 
0.999707 
0.999695 
0.999694 
0.999691 
0.999685 
0.999680 
0.999678 
0.999679 
0.999687 
0.999716 
0.999752 
0.999765 
0.999718 
0.999642 
0.999614 
0.999637 
0.999653 
0.999660 
0.999668 
0.999674 
0.999736 
0.999807 
0.999856 
0.999870 
0.999893 
0.999929 
0.999953 
0.999959 
0.999957 
0.999953 
0.999941 
0.999907 
0.999845 
0.999776 
0.999716 
0.999500 
0.996543 
0.975193 
0.920299 
0.844967 
0.744902 
0.630714 
0.534465 
0.527727 
0.549689 
0.671272 
0.810951 
0.915982 
0.929435 
0.861520 
0.704827 
0.495864 
0.279380 
0.126932 
0.033862 
0.006314 
0.001343 
0.001013 
0.001002 
0.001003 
0.001075 
0.002754 
0.018218 
0.087143 
0.304585 
0.671980 
0.892285 
0.852894 
0.715068 
0.999531 
0.999583 
0.999631 
0.999660 
0.999679 
0.999696 
0.999712 
0.999737 
0.999770 
0.999805 
0.999832 
0.999848 
0.999856 
0.999861 
0.999865 
0.999868 
0.999871 
0.999862 
0.999822 
0.999758 
0.999683 
0.999631 
0.999592 
0.999577 
0.999614 
0.999693 
0.999786 
0.999845 
0.999863 
0.999864 
0.999866 
0.999867 
0.999868 
0.999868 
0.999869 
0.999869 
0.999869 
0.999869 
0.999870 
0.999870 
0.999870 
0.999871 
0.999871 
0.999871 
0.999871 
0.999871 
0.999871 
0.999870 
0.999870 
0.999866 
0.999855 
0.999836 
0.999807 
0.999769 
0.999723 
0.999683 
0.999648 
0.999626 
0.999611 
0.999595 
0.999581 
0.999570 
0.999554 
0.999528 
0.999477 
0.999383 
0.999212 
0.998948 
0.997482 
0.985029 
0.948938 
0.906038 
0.894117 
0.928110 
0.977840 
0.998742 
0.929610 
0.676831 
0.346723 
0.165921 
0.105524 
0.067085 
0.036571 
0.028382 
0.059205 
0.206797 
0.508876 
0.798424 
0.930569 
0.968561 
0.910111 
0.686060 
0.427265 
0.270028 
0.283191 
0.483501 
0.778682 
0.965846 
0.892355 
0.564681 
0.199523 
0.036370 
0.007150 
0.006066 
0.035004 
0.220066 
0.628138 
0.832306 
0.630492 
0.325266 
0.156413 
0.100443 
0.094240 
0.113025 
0.155947 
0.234839 
0.368144 
0.565656 
0.789374 
0.938651 
0.992825 
0.999757 
0.999835 
0.999853 
0.999839 
0.999814 
0.999798 
0.999819 
0.999824 
0.999795 
0.999741 
0.999709 
0.999701 
0.999702 
0.999702 
0.999701 
0.999699 
0.999698 
0.999696 
0.999702 
0.999724 
0.999747 
0.999737 
0.999663 
0.999601 
0.999582 
0.999613 
0.999636 
0.999675 
0.999725 
0.999771 
0.999809 
0.999848 
0.999865 
0.999870 
0.999892 
0.999927 
0.999951 
0.999956 
0.999954 
0.999947 
0.999930 
0.999893 
0.999834 
0.999764 
0.999696 
0.999438 
0.993621 
0.951393 
0.853217 
0.707605 
0.579869 
0.452828 
0.398639 
0.378227 
0.430323 
0.522684 
0.706844 
0.886511 
0.959599 
0.954390 
0.904335 
0.782431 
0.609982 
0.401221 
0.207112 
0.061191 
0.010575 
0.001537 
0.001008 
0.001001 
0.001062 
0.002777 
0.020133 
0.104372 
0.331782 
0.665003 
0.847620 
0.802794 
0.711733 
0.999223 
0.999422 
0.999569 
0.999623 
0.999655 
0.999677 
0.999695 
0.999712 
0.999737 
0.999770 
0.999805 
0.999832 
0.999848 
0.999856 
0.999861 
0.999865 
0.999868 
0.999871 
0.999862 
0.999833 
0.999791 
0.999737 
0.999664 
0.999603 
0.999586 
0.999639 
0.999735 
0.999811 
0.999853 
0.999863 
0.999864 
0.999866 
0.999867 
0.999868 
0.999868 
0.999869 
0.999869 
0.999869 
0.999869 
0.999870 
0.999870 
0.999870 
0.999871 
0.999871 
0.999871 
0.999871 
0.999871 
0.999871 
0.999870 
0.999870 
0.999869 
0.999865 
0.999854 
0.999835 
0.999805 
0.999767 
0.999724 
0.999695 
0.999667 
0.999639 
0.999616 
0.999600 
0.999584 
0.999571 
0.999551 
0.999504 
0.999417 
0.999266 
0.999034 
0.997646 
0.991439 
0.981566 
0.981194 
0.991811 
0.998881 
0.999164 
0.973908 
0.841216 
0.639959 
0.499254 
0.420226 
0.317638 
0.207687 
0.181409 
0.273480 
0.524889 
0.822855 
0.979646 
0.998034 
0.998204 
0.998121 
0.944034 
0.806062 
0.695966 
0.700766 
0.816435 
0.950753 
0.999525 
0.982543 
0.816270 
0.482837 
0.198655 
0.083255 
0.059291 
0.109302 
0.311599 
0.682954 
0.917906 
0.857380 
0.624680 
0.410736 
0.296122 
0.251626 
0.252961 
0.295856 
0.390636 
0.541989 
0.726679 
0.887160 
0.975795 
0.999154 
0.999865 
0.999872 
0.999876 
0.999873 
0.999861 
0.999854 
0.999845 
0.999819 
0.999767 
0.999725 
0.999704 
0.999702 
0.999702 
0.999701 
0.999700 
0.999699 
0.999697 
0.999695 
0.999696 
0.999700 
0.999708 
0.999677 
0.999634 
0.999591 
0.999597 
0.999607 
0.999636 
0.999686 
0.999775 
0.999830 
0.999858 
0.999865 
0.999864 
0.999869 
0.999891 
0.999925 
0.999948 
0.999953 
0.999950 
0.999939 
0.999919 
0.999884 
0.999838 
0.999779 
0.999701 
0.999494 
0.992852 
0.948091 
0.825862 
0.648407 
0.483249 
0.397601 
0.358512 
0.367207 
0.376649 
0.444452 
0.620550 
0.828106 
0.956453 
0.965197 
0.928146 
0.856818 
0.770223 
0.668523 
0.484790 
0.265065 
0.079640 
0.010806 
0.001309 
0.001003 
0.001024 
0.001956 
0.017379 
0.109929 
0.344755 
0.590375 
0.674570 
0.629405 
0.552313 
0.998453 
0.998898 
0.999349 
0.999551 
0.999614 
0.999654 
0.999677 
0.999695 
0.999712 
0.999737 
0.999770 
0.999806 
0.999832 
0.999849 
0.999857 
0.999862 
0.999866 
0.999868 
0.999871 
0.999868 
0.999856 
0.999823 
0.999761 
0.999670 
0.999608 
0.999604 
0.999664 
0.999757 
0.999824 
0.999857 
0.999863 
0.999864 
0.999865 
0.999867 
0.999868 
0.999868 
0.999869 
0.999869 
0.999869 
0.999869 
0.999869 
0.999870 
0.999870 
0.999870 
0.999871 
0.999871 
0.999871 
0.999871 
0.999871 
0.999870 
0.999870 
0.999870 
0.999869 
0.999865 
0.999854 
0.999834 
0.999812 
0.999787 
0.999759 
0.999719 
0.999689 
0.999661 
0.999633 
0.999611 
0.999595 
0.999571 
0.999529 
0.999471 
0.999372 
0.999212 
0.998993 
0.998861 
0.998971 
0.999260 
0.999473 
0.999334 
0.997119 
0.962511 
0.886833 
0.830988 
0.789305 
0.681648 
0.552340 
0.513273 
0.631127 
0.823994 
0.966350 
0.999201 
0.999093 
0.998953 
0.998868 
0.998733 
0.980383 
0.946702 
0.947156 
0.981223 
0.999507 
0.999626 
0.999641 
0.959068 
0.798613 
0.571056 
0.391186 
0.302235 
0.348423 
0.559539 
0.823013 
0.975038 
0.971049 
0.876499 
0.747346 
0.635269 
0.558074 
0.523299 
0.547064 
0.631441 
0.761579 
0.883912 
0.965202 
0.995533 
0.999858 
0.999863 
0.999868 
0.999872 
0.999875 
0.999874 
0.999863 
0.999832 
0.999778 
0.999733 
0.999709 
0.999703 
0.999703 
0.999703 
0.999702 
0.999700 
0.999699 
0.999697 
0.999692 
0.999674 
0.999654 
0.999640 
0.999635 
0.999617 
0.999606 
0.999603 
0.999612 
0.999645 
0.999736 
0.999813 
0.999859 
0.999866 
0.999865 
0.999863 
0.999868 
0.999890 
0.999924 
0.999945 
0.999949 
0.999942 
0.999923 
0.999904 
0.999892 
0.999874 
0.999833 
0.999743 
0.999568 
0.994943 
0.965545 
0.852648 
0.650547 
0.477175 
0.409522 
0.420958 
0.417899 
0.389212 
0.386285 
0.498021 
0.730926 
0.918160 
0.965216 
0.926716 
0.856299 
0.786768 
0.755952 
0.717931 
0.547464 
0.282635 
0.065818 
0.005926 
0.001067 
0.001006 
0.001361 
0.013391 
0.122200 
0.359962 
0.498743 
0.468365 
0.433483 
0.410203 
0.997002 
0.997889 
0.998668 
0.999228 
0.999490 
0.999614 
0.999654 
0.999678 
0.999695 
0.999713 
0.999738 
0.999771 
0.999806 
0.999833 
0.999849 
0.999858 
0.999863 
0.999866 
0.999868 
0.999871 
0.999874 
0.999867 
0.999829 
0.999761 
0.999670 
0.999613 
0.999617 
0.999687 
0.999783 
0.999843 
0.999862 
0.999863 
0.999864 
0.999865 
0.999867 
0.999867 
0.999868 
0.999869 
0.999869 
0.999869 
0.999869 
0.999869 
0.999870 
0.999870 
0.999870 
0.999871 
0.999871 
0.999871 
0.999871 
0.999871 
0.999871 
0.999870 
0.999870 
0.999870 
0.999869 
0.999865 
0.999858 
0.999849 
0.999833 
0.999810 
0.999785 
0.999757 
0.999717 
0.999688 
0.999660 
0.999633 
0.999602 
0.999573 
0.999537 
0.999471 
0.999387 
0.999358 
0.999425 
0.999543 
0.999620 
0.999524 
0.998735 
0.991386 
0.975025 
0.959415 
0.954462 
0.917226 
0.854272 
0.838756 
0.895963 
0.971347 
0.999313 
0.999433 
0.999346 
0.999173 
0.999057 
0.998989 
0.999003 
0.999116 
0.999275 
0.999442 
0.999589 
0.999689 
0.999762 
0.999764 
0.973096 
0.898053 
0.786704 
0.706391 
0.718831 
0.833072 
0.955564 
0.998869 
0.999560 
0.987112 
0.952433 
0.904199 
0.854980 
0.819854 
0.820157 
0.863647 
0.925432 
0.974424 
0.994904 
0.999568 
0.999833 
0.999826 
0.999829 
0.999833 
0.999835 
0.999834 
0.999816 
0.999774 
0.999724 
0.999701 
0.999702 
0.999706 
0.999705 
0.999704 
0.999703 
0.999701 
0.999699 
0.999697 
0.999687 
0.999656 
0.999615 
0.999602 
0.999616 
0.999624 
0.999619 
0.999604 
0.999620 
0.999698 
0.999787 
0.999850 
0.999866 
0.999865 
0.999863 
0.999861 
0.999866 
0.999888 
0.999922 
0.999943 
0.999944 
0.999923 
0.999895 
0.999880 
0.999896 
0.999907 
0.999883 
0.999794 
0.999607 
0.997811 
0.985102 
0.902633 
0.713534 
0.525937 
0.475750 
0.503282 
0.497000 
0.411434 
0.343362 
0.384497 
0.574648 
0.808496 
0.936022 
0.927217 
0.850874 
0.789047 
0.777606 
0.803420 
0.782064 
0.554732 
0.225344 
0.032647 
0.002309 
0.001017 
0.001221 
0.014046 
0.145755 
0.414728 
0.481088 
0.405882 
0.359534 
0.356101 
0.995703 
0.996463 
0.997465 
0.998344 
0.999013 
0.999443 
0.999615 
0.999655 
0.999678 
0.999696 
0.999713 
0.999738 
0.999771 
0.999807 
0.999833 
0.999850 
0.999858 
0.999863 
0.999866 
0.999869 
0.999871 
0.999874 
0.999867 
0.999829 
0.999761 
0.999670 
0.999627 
0.999653 
0.999735 
0.999808 
0.999851 
0.999862 
0.999863 
0.999864 
0.999865 
0.999866 
0.999867 
0.999868 
0.999869 
0.999869 
0.999869 
0.999869 
0.999869 
0.999870 
0.999870 
0.999871 
0.999871 
0.999871 
0.999871 
0.999871 
0.999871 
0.999871 
0.999871 
0.999871 
0.999870 
0.999870 
0.999870 
0.999869 
0.999865 
0.999858 
0.999849 
0.999833 
0.999809 
0.999785 
0.999758 
0.999715 
0.999675 
0.999643 
0.999619 
0.999591 
0.999558 
0.999553 
0.999605 
0.999688 
0.999730 
0.999648 
0.999284 
0.996381 
0.988322 
0.984043 
0.988165 
0.991384 
0.980329 
0.975773 
0.989087 
0.999238 
0.999344 
0.999445 
0.999413 
0.999361 
0.999275 
0.999215 
0.999200 
0.999262 
0.999388 
0.999509 
0.999611 
0.999711 
0.999796 
0.999835 
0.999805 
0.999662 
0.978918 
0.942252 
0.943156 
0.979533 
0.999085 
0.999766 
0.999810 
0.999774 
0.999603 
0.994975 
0.981571 
0.968230 
0.966030 
0.976499 
0.990988 
0.998507 
0.999522 
0.999817 
0.999790 
0.999768 
0.999763 
0.999767 
0.999769 
0.999762 
0.999736 
0.999691 
0.999662 
0.999671 
0.999694 
0.999708 
0.999709 
0.999707 
0.999705 
0.999703 
0.999701 
0.999698 
0.999685 
0.999651 
0.999613 
0.999609 
0.999633 
0.999646 
0.999632 
0.999629 
0.999659 
0.999754 
0.999834 
0.999866 
0.999865 
0.999863 
0.999861 
0.999859 
0.999864 
0.999885 
0.999918 
0.999939 
0.999933 
0.999899 
0.999863 
0.999863 
0.999895 
0.999921 
0.999907 
0.999834 
0.999675 
0.999237 
0.996406 
0.944061 
0.785160 
0.618908 
0.554125 
0.562197 
0.545335 
0.465614 
0.370570 
0.341686 
0.462414 
0.678476 
0.861369 
0.915834 
0.868392 
0.798067 
0.793913 
0.843482 
0.886534 
0.797846 
0.462778 
0.129383 
0.015328 
0.002090 
0.002322 
0.025710 
0.205759 
0.523337 
0.577713 
0.473145 
0.412235 
0.400246 
0.995038 
0.995361 
0.995969 
0.996962 
0.998120 
0.999027 
0.999492 
0.999616 
0.999656 
0.999679 
0.999697 
0.999714 
0.999738 
0.999772 
0.999807 
0.999834 
0.999850 
0.999858 
0.999863 
0.999866 
0.999869 
0.999871 
0.999874 
0.999867 
0.999829 
0.999767 
0.999698 
0.999677 
0.999702 
0.999759 
0.999813 
0.999851 
0.999862 
0.999863 
0.999864 
0.999865 
0.999866 
0.999867 
0.999868 
0.999869 
0.999869 
0.999869 
0.999869 
0.999869 
0.999870 
0.999870 
0.999871 
0.999871 
0.999871 
0.999871 
0.999872 
0.999872 
0.999872 
0.999872 
0.999871 
0.999871 
0.999871 
0.999871 
0.999871 
0.999870 
0.999870 
0.999866 
0.999858 
0.999850 
0.999834 
0.999805 
0.999768 
0.999728 
0.999703 
0.999675 
0.999646 
0.999643 
0.999687 
0.999756 
0.999781 
0.999714 
0.999534 
0.999161 
0.996733 
0.994680 
0.996489 
0.998763 
0.999017 
0.999113 
0.999170 
0.999219 
0.999305 
0.999369 
0.999426 
0.999448 
0.999488 
0.999478 
0.999446 
0.999444 
0.999473 
0.999536 
0.999609 
0.999716 
0.999808 
0.999841 
0.999815 
0.999751 
0.999678 
0.999627 
0.999635 
0.999700 
0.999795 
0.999861 
0.999895 
0.999895 
0.999853 
0.999732 
0.999548 
0.999394 
0.999365 
0.999476 
0.999642 
0.999771 
0.999820 
0.999814 
0.999778 
0.999744 
0.999728 
0.999725 
0.999722 
0.999708 
0.999675 
0.999630 
0.999616 
0.999642 
0.999681 
0.999701 
0.999705 
0.999703 
0.999700 
0.999697 
0.999694 
0.999688 
0.999671 
0.999645 
0.999628 
0.999638 
0.999659 
0.999666 
0.999671 
0.999678 
0.999740 
0.999810 
0.999859 
0.999866 
0.999864 
0.999861 
0.999858 
0.999856 
0.999860 
0.999875 
0.999902 
0.999918 
0.999907 
0.999871 
0.999843 
0.999864 
0.999900 
0.999920 
0.999912 
0.999870 
0.999755 
0.999354 
0.997573 
0.962011 
0.853618 
0.702588 
0.621504 
0.573062 
0.552932 
0.520771 
0.467598 
0.424237 
0.460085 
0.597926 
0.764154 
0.872018 
0.859138 
0.802913 
0.804800 
0.863849 
0.928360 
0.925854 
0.715589 
0.347837 
0.096319 
0.026019 
0.022082 
0.083787 
0.346680 
0.688888 
0.764592 
0.644090 
0.515877 
0.455137 
0.995317 
0.994892 
0.994918 
0.995674 
0.997022 
0.998398 
0.999238 
0.999541 
0.999617 
0.999657 
0.999680 
0.999697 
0.999714 
0.999739 
0.999772 
0.999807 
0.999834 
0.999851 
0.999859 
0.999863 
0.999866 
0.999869 
0.999871 
0.999874 
0.999867 
0.999840 
0.999799 
0.999755 
0.999717 
0.999717 
0.999764 
0.999822 
0.999856 
0.999862 
0.999863 
0.999864 
0.999865 
0.999867 
0.999867 
0.999868 
0.999869 
0.999869 
0.999869 
0.999869 
0.999870 
0.999870 
0.999871 
0.999871 
0.999871 
0.999872 
0.999872 
0.999872 
0.999872 
0.999872 
0.999872 
0.999873 
0.999872 
0.999872 
0.999872 
0.999872 
0.999872 
0.999872 
0.999872 
0.999872 
0.999868 
0.999857 
0.999838 
0.999818 
0.999794 
0.999759 
0.999712 
0.999690 
0.999709 
0.999754 
0.999771 
0.999724 
0.999625 
0.999472 
0.999278 
0.999113 
0.999030 
0.998987 
0.998955 
0.998980 
0.999083 
0.999200 
0.999298 
0.999362 
0.999406 
0.999470 
0.999532 
0.999599 
0.999612 
0.999576 
0.999550 
0.999546 
0.999598 
0.999695 
0.999779 
0.999802 
0.999783 
0.999765 
0.999745 
0.999735 
0.999733 
0.999757 
0.999802 
0.999865 
0.999905 
0.999914 
0.999886 
0.999818 
0.999735 
0.999690 
0.999696 
0.999744 
0.999796 
0.999817 
0.999821 
0.999816 
0.999788 
0.999747 
0.999725 
0.999711 
0.999697 
0.999675 
0.999636 
0.999598 
0.999590 
0.999619 
0.999658 
0.999676 
0.999679 
0.999675 
0.999671 
0.999666 
0.999662 
0.999652 
0.999637 
0.999622 
0.999623 
0.999651 
0.999682 
0.999705 
0.999727 
0.999768 
0.999812 
0.999853 
0.999867 
0.999865 
0.999862 
0.999858 
0.999855 
0.999853 
0.999853 
0.999855 
0.999863 
0.999873 
0.999865 
0.999833 
0.999822 
0.999858 
0.999902 
0.999915 
0.999906 
0.999883 
0.999802 
0.999452 
0.997392 
0.975144 
0.904000 
0.804701 
0.704365 
0.612269 
0.561323 
0.577494 
0.578242 
0.546510 
0.517813 
0.563408 
0.674916 
0.787561 
0.810300 
0.782902 
0.807676 
0.878578 
0.943481 
0.971526 
0.901018 
0.650959 
0.353306 
0.178609 
0.153865 
0.273738 
0.575911 
0.863488 
0.913104 
0.759515 
0.569455 
0.431544 
0.995765 
0.995044 
0.994604 
0.994856 
0.996034 
0.997561 
0.998703 
0.999309 
0.999498 
0.999594 
0.999658 
0.999680 
0.999698 
0.999715 
0.999739 
0.999772 
0.999807 
0.999834 
0.999851 
0.999859 
0.999863 
0.999866 
0.999869 
0.999871 
0.999874 
0.999873 
0.999863 
0.999830 
0.999777 
0.999727 
0.999741 
0.999800 
0.999846 
0.999860 
0.999862 
0.999863 
0.999864 
0.999866 
0.999867 
0.999868 
0.999868 
0.999869 
0.999869 
0.999869 
0.999870 
0.999870 
0.999871 
0.999871 
0.999872 
0.999872 
0.999872 
0.999873 
0.999873 
0.999873 
0.999874 
0.999874 
0.999874 
0.999874 
0.999874 
0.999874 
0.999874 
0.999874 
0.999875 
0.999875 
0.999875 
0.999875 
0.999872 
0.999865 
0.999853 
0.999822 
0.999772 
0.999734 
0.999726 
0.999738 
0.999746 
0.999735 
0.999702 
0.999628 
0.999509 
0.999383 
0.999288 
0.999186 
0.999087 
0.999059 
0.999139 
0.999260 
0.999370 
0.999428 
0.999435 
0.999447 
0.999517 
0.999607 
0.999665 
0.999658 
0.999596 
0.999560 
0.999581 
0.999649 
0.999717 
0.999744 
0.999761 
0.999773 
0.999781 
0.999770 
0.999759 
0.999760 
0.999786 
0.999827 
0.999867 
0.999875 
0.999847 
0.999798 
0.999764 
0.999771 
0.999788 
0.999796 
0.999788 
0.999773 
0.999770 
0.999772 
0.999750 
0.999717 
0.999690 
0.999680 
0.999663 
0.999643 
0.999618 
0.999589 
0.999584 
0.999608 
0.999631 
0.999641 
0.999638 
0.999632 
0.999626 
0.999619 
0.999614 
0.999610 
0.999604 
0.999600 
0.999618 
0.999650 
0.999699 
0.999752 
0.999798 
0.999831 
0.999859 
0.999868 
0.999867 
0.999864 
0.999860 
0.999856 
0.999853 
0.999850 
0.999844 
0.999831 
0.999820 
0.999822 
0.999823 
0.999812 
0.999808 
0.999846 
0.999890 
0.999908 
0.999900 
0.999881 
0.999814 
0.999559 
0.998155 
0.988314 
0.951468 
0.890664 
0.810921 
0.711831 
0.645147 
0.635226 
0.651658 
0.616469 
0.545410 
0.522092 
0.595673 
0.717516 
0.752667 
0.776962 
0.821434 
0.897170 
0.953322 
0.979993 
0.978238 
0.887699 
0.687454 
0.506344 
0.461641 
0.588362 
0.809075 
0.962773 
0.947527 
0.754555 
0.494929 
0.333811 
0.995991 
0.995563 
0.994905 
0.994680 
0.995183 
0.996408 
0.997779 
0.998667 
0.999177 
0.999401 
0.999571 
0.999659 
0.999681 
0.999698 
0.999715 
0.999739 
0.999772 
0.999808 
0.999834 
0.999851 
0.999859 
0.999863 
0.999867 
0.999869 
0.999871 
0.999874 
0.999879 
0.999873 
0.999836 
0.999792 
0.999776 
0.999815 
0.999848 
0.999860 
0.999861 
0.999862 
0.999863 
0.999865 
0.999866 
0.999867 
0.999868 
0.999869 
0.999869 
0.999870 
0.999870 
0.999870 
0.999871 
0.999871 
0.999872 
0.999872 
0.999873 
0.999873 
0.999874 
0.999874 
0.999875 
0.999875 
0.999875 
0.999876 
0.999876 
0.999876 
0.999876 
0.999877 
0.999877 
0.999877 
0.999878 
0.999878 
0.999878 
0.999879 
0.999876 
0.999861 
0.999832 
0.999800 
0.999773 
0.999767 
0.999776 
0.999792 
0.999791 
0.999754 
0.999664 
0.999561 
0.999467 
0.999377 
0.999290 
0.999245 
0.999275 
0.999366 
0.999464 
0.999504 
0.999494 
0.999478 
0.999512 
0.999608 
0.999703 
0.999713 
0.999659 
0.999598 
0.999589 
0.999627 
0.999677 
0.999715 
0.999744 
0.999772 
0.999780 
0.999769 
0.999757 
0.999755 
0.999766 
0.999787 
0.999804 
0.999795 
0.999759 
0.999713 
0.999704 
0.999717 
0.999730 
0.999716 
0.999697 
0.999682 
0.999679 
0.999676 
0.999655 
0.999623 
0.999618 
0.999618 
0.999617 
0.999614 
0.999611 
0.999604 
0.999602 
0.999610 
0.999618 
0.999616 
0.999611 
0.999607 
0.999603 
0.999600 
0.999600 
0.999601 
0.999601 
0.999602 
0.999602 
0.999630 
0.999695 
0.999771 
0.999827 
0.999841 
0.999837 
0.999842 
0.999855 
0.999859 
0.999854 
0.999850 
0.999849 
0.999845 
0.999832 
0.999808 
0.999785 
0.999786 
0.999810 
0.999823 
0.999826 
0.999847 
0.999886 
0.999904 
0.999901 
0.999888 
0.999828 
0.999634 
0.999183 
0.995314 
0.978807 
0.952353 
0.900674 
0.819094 
0.734378 
0.703733 
0.684598 
0.629588 
0.535140 
0.503906 
0.579789 
0.695236 
0.758831 
0.798408 
0.858245 
0.914303 
0.954842 
0.977408 
0.987146 
0.974542 
0.903465 
0.806098 
0.777246 
0.849082 
0.946730 
0.990623 
0.927858 
0.708855 
0.445228 
0.286832 
0.995847 
0.995788 
0.995567 
0.995002 
0.994848 
0.995374 
0.996471 
0.997672 
0.998451 
0.999044 
0.999357 
0.999572 
0.999659 
0.999681 
0.999698 
0.999715 
0.999740 
0.999773 
0.999808 
0.999834 
0.999851 
0.999859 
0.999863 
0.999867 
0.999869 
0.999871 
0.999874 
0.999879 
0.999873 
0.999850 
0.999841 
0.999853 
0.999865 
0.999864 
0.999862 
0.999861 
0.999862 
0.999863 
0.999865 
0.999866 
0.999867 
0.999868 
0.999869 
0.999870 
0.999870 
0.999870 
0.999870 
0.999871 
0.999872 
0.999873 
0.999873 
0.999874 
0.999875 
0.999875 
0.999876 
0.999876 
0.999877 
0.999877 
0.999878 
0.999878 
0.999879 
0.999879 
0.999879 
0.999880 
0.999880 
0.999881 
0.999881 
0.999882 
0.999882 
0.999880 
0.999871 
0.999857 
0.999840 
0.999830 
0.999838 
0.999852 
0.999857 
0.999832 
0.999776 
0.999689 
0.999608 
0.999535 
0.999469 
0.999421 
0.999425 
0.999480 
0.999539 
0.999567 
0.999552 
0.999528 
0.999545 
0.999620 
0.999718 
0.999762 
0.999729 
0.999667 
0.999635 
0.999647 
0.999680 
0.999713 
0.999734 
0.999741 
0.999734 
0.999729 
0.999727 
0.999731 
0.999735 
0.999740 
0.999741 
0.999723 
0.999681 
0.999646 
0.999631 
0.999635 
0.999630 
0.999617 
0.999603 
0.999594 
0.999594 
0.999591 
0.999576 
0.999562 
0.999560 
0.999570 
0.999574 
0.999583 
0.999601 
0.999611 
0.999612 
0.999610 
0.999606 
0.999600 
0.999600 
0.999608 
0.999622 
0.999632 
0.999630 
0.999621 
0.999612 
0.999601 
0.999594 
0.999597 
0.999646 
0.999725 
0.999756 
0.999744 
0.999722 
0.999740 
0.999787 
0.999815 
0.999800 
0.999782 
0.999795 
0.999814 
0.999810 
0.999781 
0.999756 
0.999755 
0.999790 
0.999837 
0.999865 
0.999882 
0.999898 
0.999909 
0.999902 
0.999891 
0.999844 
0.999660 
0.999407 
0.999021 
0.993271 
0.979743 
0.950006 
0.893724 
0.819040 
0.772011 
0.734979 
0.670386 
0.593811 
0.561848 
0.649317 
0.729977 
0.796757 
0.846418 
0.892207 
0.922022 
0.948109 
0.972698 
0.987917 
0.992617 
0.979611 
0.951521 
0.943689 
0.967606 
0.990966 
0.990244 
0.919657 
0.709859 
0.465201 
0.325492 
0.995216 
0.995645 
0.995811 
0.995699 
0.995123 
0.994957 
0.995430 
0.996420 
0.997558 
0.998361 
0.999053 
0.999414 
0.999602 
0.999659 
0.999681 
0.999698 
0.999715 
0.999740 
0.999773 
0.999808 
0.999835 
0.999851 
0.999859 
0.999863 
0.999867 
0.999869 
0.999871 
0.999874 
0.999879 
0.999879 
0.999877 
0.999880 
0.999880 
0.999873 
0.999868 
0.999865 
0.999862 
0.999862 
0.999864 
0.999865 
0.999866 
0.999867 
0.999869 
0.999869 
0.999870 
0.999870 
0.999871 
0.999871 
0.999872 
0.999873 
0.999874 
0.999875 
0.999876 
0.999876 
0.999877 
0.999878 
0.999878 
0.999879 
0.999879 
0.999880 
0.999881 
0.999881 
0.999882 
0.999882 
0.999883 
0.999884 
0.999884 
0.999885 
0.999885 
0.999885 
0.999886 
0.999883 
0.999877 
0.999874 
0.999876 
0.999880 
0.999881 
0.999871 
0.999838 
0.999787 
0.999722 
0.999659 
0.999598 
0.999557 
0.999549 
0.999570 
0.999596 
0.999609 
0.999603 
0.999587 
0.999581 
0.999623 
0.999693 
0.999747 
0.999743 
0.999700 
0.999669 
0.999671 
0.999694 
0.999710 
0.999710 
0.999693 
0.999679 
0.999677 
0.999685 
0.999691 
0.999695 
0.999697 
0.999694 
0.999679 
0.999654 
0.999630 
0.999616 
0.999607 
0.999595 
0.999582 
0.999573 
0.999570 
0.999570 
0.999571 
0.999566 
0.999562 
0.999564 
0.999565 
0.999563 
0.999571 
0.999591 
0.999607 
0.999611 
0.999606 
0.999599 
0.999598 
0.999608 
0.999638 
0.999673 
0.999696 
0.999681 
0.999640 
0.999614 
0.999610 
0.999602 
0.999595 
0.999608 
0.999613 
0.999603 
0.999548 
0.999527 
0.999557 
0.999638 
0.999660 
0.999611 
0.999565 
0.999616 
0.999710 
0.999760 
0.999751 
0.999728 
0.999726 
0.999759 
0.999825 
0.999882 
0.999910 
0.999917 
0.999912 
0.999894 
0.999883 
0.999845 
0.999683 
0.999450 
0.999396 
0.997981 
0.992310 
0.980670 
0.945657 
0.895095 
0.843306 
0.810538 
0.755811 
0.708305 
0.722651 
0.770410 
0.810084 
0.847035 
0.895737 
0.925195 
0.936946 
0.954052 
0.977161 
0.991439 
0.996650 
0.996470 
0.993574 
0.991390 
0.992747 
0.995254 
0.986230 
0.918902 
0.737782 
0.534031 
0.413113 
0.994824 
0.995022 
0.995613 
0.995977 
0.995864 
0.995170 
0.994910 
0.995394 
0.996472 
0.997699 
0.998553 
0.999223 
0.999536 
0.999632 
0.999660 
0.999681 
0.999699 
0.999715 
0.999740 
0.999773 
0.999808 
0.999835 
0.999851 
0.999859 
0.999863 
0.999867 
0.999869 
0.999871 
0.999874 
0.999879 
0.999884 
0.999888 
0.999887 
0.999884 
0.999880 
0.999872 
0.999867 
0.999864 
0.999863 
0.999864 
0.999866 
0.999867 
0.999868 
0.999869 
0.999870 
0.999870 
0.999871 
0.999871 
0.999873 
0.999874 
0.999875 
0.999876 
0.999876 
0.999877 
0.999878 
0.999879 
0.999880 
0.999881 
0.999881 
0.999882 
0.999883 
0.999883 
0.999884 
0.999885 
0.999885 
0.999886 
0.999887 
0.999887 
0.999888 
0.999888 
0.999888 
0.999888 
0.999888 
0.999888 
0.999887 
0.999886 
0.999884 
0.999882 
0.999873 
0.999848 
0.999810 
0.999757 
0.999690 
0.999640 
0.999624 
0.999629 
0.999635 
0.999641 
0.999644 
0.999638 
0.999629 
0.999630 
0.999656 
0.999687 
0.999697 
0.999677 
0.999662 
0.999666 
0.999678 
0.999686 
0.999679 
0.999662 
0.999652 
0.999657 
0.999666 
0.999673 
0.999679 
0.999681 
0.999680 
0.999674 
0.999662 
0.999650 
0.999639 
0.999628 
0.999617 
0.999608 
0.999601 
0.999597 
0.999596 
0.999596 
0.999597 
0.999597 
0.999596 
0.999593 
0.999588 
0.999590 
0.999601 
0.999616 
0.999618 
0.999617 
0.999621 
0.999631 
0.999652 
0.999686 
0.999731 
0.999742 
0.999704 
0.999643 
0.999617 
0.999627 
0.999638 
0.999624 
0.999576 
0.999507 
0.999415 
0.999368 
0.999353 
0.999397 
0.999446 
0.999441 
0.999318 
0.999247 
0.999327 
0.999534 
0.999682 
0.999722 
0.999710 
0.999708 
0.999732 
0.999790 
0.999860 
0.999904 
0.999922 
0.999914 
0.999892 
0.999868 
0.999852 
0.999747 
0.999576 
0.999524 
0.999268 
0.997069 
0.993450 
0.979735 
0.948886 
0.912184 
0.870964 
0.836714 
0.823366 
0.852729 
0.876416 
0.869842 
0.892401 
0.939459 
0.961868 
0.966667 
0.977288 
0.989159 
0.996661 
0.998084 
0.998390 
0.997574 
0.993035 
0.989576 
0.991200 
0.983316 
0.921768 
0.765615 
0.594642 
0.489955 
0.994205 
0.994397 
0.995067 
0.995862 
0.996185 
0.995710 
0.994849 
0.994741 
0.995695 
0.997043 
0.998207 
0.998899 
0.999391 
0.999593 
0.999632 
0.999660 
0.999682 
0.999699 
0.999716 
0.999740 
0.999773 
0.999808 
0.999835 
0.999851 
0.999859 
0.999863 
0.999867 
0.999869 
0.999871 
0.999874 
0.999879 
0.999884 
0.999888 
0.999890 
0.999889 
0.999884 
0.999876 
0.999871 
0.999867 
0.999865 
0.999865 
0.999866 
0.999868 
0.999869 
0.999869 
0.999870 
0.999871 
0.999872 
0.999873 
0.999874 
0.999875 
0.999876 
0.999877 
0.999878 
0.999879 
0.999880 
0.999881 
0.999882 
0.999883 
0.999884 
0.999885 
0.999886 
0.999886 
0.999887 
0.999888 
0.999888 
0.999889 
0.999889 
0.999890 
0.999890 
0.999890 
0.999891 
0.999891 
0.999890 
0.999890 
0.999889 
0.999888 
0.999886 
0.999884 
0.999879 
0.999860 
0.999819 
0.999755 
0.999700 
0.999671 
0.999664 
0.999666 
0.999669 
0.999677 
0.999682 
0.999675 
0.999664 
0.999657 
0.999661 
0.999660 
0.999653 
0.999649 
0.999655 
0.999663 
0.999668 
0.999666 
0.999661 
0.999660 
0.999666 
0.999674 
0.999683 
0.999690 
0.999693 
0.999693 
0.999690 
0.999685 
0.999679 
0.999670 
0.999662 
0.999653 
0.999646 
0.999640 
0.999636 
0.999634 
0.999632 
0.999631 
0.999631 
0.999630 
0.999627 
0.999623 
0.999620 
0.999622 
0.999626 
0.999629 
0.999638 
0.999657 
0.999684 
0.999707 
0.999727 
0.999737 
0.999721 
0.999666 
0.999608 
0.999594 
0.999614 
0.999624 
0.999600 
0.999522 
0.999391 
0.999291 
0.999246 
0.999260 
0.999295 
0.999321 
0.999268 
0.999124 
0.999016 
0.999084 
0.999341 
0.999578 
0.999686 
0.999695 
0.999697 
0.999718 
0.999749 
0.999801 
0.999852 
0.999896 
0.999913 
0.999899 
0.999884 
0.999867 
0.999815 
0.999732 
0.999700 
0.999694 
0.999085 
0.997739 
0.993565 
0.978142 
0.951547 
0.919240 
0.890964 
0.889762 
0.922078 
0.925613 
0.908271 
0.930997 
0.967019 
0.986261 
0.991163 
0.994472 
0.997707 
0.999038 
0.998841 
0.998849 
0.996085 
0.988047 
0.979729 
0.982945 
0.981872 
0.930340 
0.786954 
0.616523 
0.514964 
0.993093 
0.993814 
0.994510 
0.995409 
0.996003 
0.995953 
0.995103 
0.994689 
0.995374 
0.996895 
0.997903 
0.998569 
0.999022 
0.999421 
0.999593 
0.999632 
0.999660 
0.999682 
0.999699 
0.999716 
0.999740 
0.999773 
0.999808 
0.999835 
0.999851 
0.999859 
0.999863 
0.999867 
0.999869 
0.999871 
0.999874 
0.999879 
0.999885 
0.999889 
0.999892 
0.999891 
0.999888 
0.999883 
0.999875 
0.999869 
0.999865 
0.999866 
0.999867 
0.999868 
0.999869 
0.999870 
0.999871 
0.999872 
0.999873 
0.999875 
0.999876 
0.999877 
0.999878 
0.999880 
0.999881 
0.999882 
0.999883 
0.999884 
0.999885 
0.999886 
0.999887 
0.999888 
0.999888 
0.999889 
0.999890 
0.999890 
0.999891 
0.999891 
0.999892 
0.999892 
0.999893 
0.999893 
0.999893 
0.999893 
0.999892 
0.999892 
0.999891 
0.999890 
0.999888 
0.999887 
0.999882 
0.999859 
0.999814 
0.999756 
0.999715 
0.999696 
0.999693 
0.999698 
0.999711 
0.999722 
0.999719 
0.999704 
0.999689 
0.999675 
0.999665 
0.999658 
0.999658 
0.999664 
0.999670 
0.999675 
0.999678 
0.999680 
0.999683 
0.999687 
0.999693 
0.999700 
0.999707 
0.999711 
0.999712 
0.999711 
0.999709 
0.999704 
0.999699 
0.999693 
0.999686 
0.999681 
0.999676 
0.999672 
0.999668 
0.999666 
0.999664 
0.999662 
0.999660 
0.999657 
0.999654 
0.999650 
0.999647 
0.999647 
0.999653 
0.999669 
0.999700 
0.999724 
0.999732 
0.999722 
0.999696 
0.999649 
0.999585 
0.999540 
0.999532 
0.999539 
0.999532 
0.999497 
0.999420 
0.999307 
0.999221 
0.999193 
0.999207 
0.999234 
0.999249 
0.999207 
0.999082 
0.998941 
0.998956 
0.999156 
0.999444 
0.999621 
0.999649 
0.999603 
0.999613 
0.999672 
0.999714 
0.999762 
0.999838 
0.999893 
0.999904 
0.999886 
0.999855 
0.999820 
0.999787 
0.999778 
0.999780 
0.999658 
0.999219 
0.997812 
0.991059 
0.976662 
0.956834 
0.939454 
0.943300 
0.958778 
0.956755 
0.950696 
0.960815 
0.985035 
0.995441 
0.998832 
0.999275 
0.999518 
0.999386 
0.999159 
0.999056 
0.995345 
0.983760 
0.968827 
0.969894 
0.979372 
0.941048 
0.794558 
0.599665 
0.468590 
0.989981 
0.992174 
0.993999 
0.994727 
0.995434 
0.995828 
0.995625 
0.995131 
0.995718 
0.997026 
0.998000 
0.998238 
0.998601 
0.999022 
0.999422 
0.999593 
0.999632 
0.999660 
0.999682 
0.999699 
0.999716 
0.999740 
0.999773 
0.999808 
0.999835 
0.999851 
0.999859 
0.999863 
0.999867 
0.999869 
0.999871 
0.999875 
0.999879 
0.999885 
0.999890 
0.999894 
0.999895 
0.999893 
0.999887 
0.999877 
0.999870 
0.999866 
0.999867 
0.999868 
0.999869 
0.999870 
0.999871 
0.999872 
0.999874 
0.999875 
0.999877 
0.999878 
0.999880 
0.999881 
0.999882 
0.999883 
0.999885 
0.999886 
0.999887 
0.999888 
0.999889 
0.999889 
0.999890 
0.999891 
0.999892 
0.999892 
0.999893 
0.999894 
0.999894 
0.999895 
0.999895 
0.999895 
0.999895 
0.999895 
0.999895 
0.999895 
0.999894 
0.999893 
0.999892 
0.999891 
0.999890 
0.999883 
0.999857 
0.999812 
0.999759 
0.999727 
0.999718 
0.999726 
0.999747 
0.999767 
0.999758 
0.999738 
0.999721 
0.999705 
0.999690 
0.999679 
0.999678 
0.999684 
0.999690 
0.999695 
0.999699 
0.999703 
0.999707 
0.999710 
0.999714 
0.999719 
0.999723 
0.999726 
0.999728 
0.999729 
0.999729 
0.999727 
0.999724 
0.999720 
0.999716 
0.999711 
0.999707 
0.999703 
0.999700 
0.999698 
0.999695 
0.999692 
0.999690 
0.999688 
0.999686 
0.999684 
0.999682 
0.999682 
0.999689 
0.999702 
0.999717 
0.999722 
0.999710 
0.999680 
0.999630 
0.999576 
0.999525 
0.999487 
0.999468 
0.999450 
0.999422 
0.999383 
0.999321 
0.999250 
0.999193 
0.999168 
0.999151 
0.999162 
0.999175 
0.999159 
0.999079 
0.998953 
0.998914 
0.999030 
0.999267 
0.999449 
0.999479 
0.999396 
0.999393 
0.999504 
0.999608 
0.999671 
0.999762 
0.999847 
0.999885 
0.999859 
0.999795 
0.999745 
0.999757 
0.999756 
0.999770 
0.999776 
0.999672 
0.999465 
0.997665 
0.991415 
0.983437 
0.977553 
0.979223 
0.985933 
0.985120 
0.980528 
0.986861 
0.994404 
0.997939 
0.999289 
0.999587 
0.999594 
0.999399 
0.999167 
0.999019 
0.995929 
0.981037 
0.960522 
0.956396 
0.970608 
0.936645 
0.766637 
0.526430 
0.364323 
0.983405 
0.988348 
0.992542 
0.994103 
0.994751 
0.995440 
0.995789 
0.995896 
0.996302 
0.997474 
0.998180 
0.998306 
0.998239 
0.998601 
0.999022 
0.999422 
0.999593 
0.999632 
0.999660 
0.999682 
0.999699 
0.999716 
0.999740 
0.999773 
0.999808 
0.999835 
0.999851 
0.999859 
0.999864 
0.999867 
0.999869 
0.999872 
0.999875 
0.999880 
0.999887 
0.999892 
0.999896 
0.999897 
0.999894 
0.999888 
0.999875 
0.999866 
0.999865 
0.999868 
0.999869 
0.999870 
0.999871 
0.999873 
0.999874 
0.999876 
0.999878 
0.999879 
0.999881 
0.999882 
0.999884 
0.999885 
0.999886 
0.999887 
0.999888 
0.999889 
0.999890 
0.999891 
0.999892 
0.999893 
0.999894 
0.999894 
0.999895 
0.999896 
0.999896 
0.999897 
0.999897 
0.999897 
0.999896 
0.999895 
0.999895 
0.999895 
0.999894 
0.999893 
0.999893 
0.999892 
0.999891 
0.999890 
0.999879 
0.999847 
0.999799 
0.999761 
0.999743 
0.999749 
0.999776 
0.999803 
0.999793 
0.999767 
0.999749 
0.999737 
0.999719 
0.999705 
0.999700 
0.999704 
0.999710 
0.999716 
0.999720 
0.999725 
0.999729 
0.999732 
0.999735 
0.999738 
0.999741 
0.999743 
0.999745 
0.999745 
0.999746 
0.999745 
0.999745 
0.999743 
0.999740 
0.999736 
0.999732 
0.999730 
0.999728 
0.999726 
0.999724 
0.999723 
0.999722 
0.999721 
0.999719 
0.999717 
0.999713 
0.999710 
0.999709 
0.999708 
0.999702 
0.999685 
0.999660 
0.999627 
0.999587 
0.999545 
0.999505 
0.999471 
0.999440 
0.999404 
0.999364 
0.999320 
0.999270 
0.999216 
0.999171 
0.999126 
0.999085 
0.999058 
0.999052 
0.999049 
0.999002 
0.998944 
0.998921 
0.998961 
0.999057 
0.999232 
0.999286 
0.999208 
0.999217 
0.999397 
0.999526 
0.999594 
0.999671 
0.999780 
0.999840 
0.999809 
0.999718 
0.999660 
0.999692 
0.999728 
0.999716 
0.999729 
0.999723 
0.999687 
0.999635 
0.998570 
0.995723 
0.994361 
0.995860 
0.996374 
0.995540 
0.995863 
0.996655 
0.997965 
0.999350 
0.999622 
0.999719 
0.999598 
0.999371 
0.999122 
0.999075 
0.996556 
0.981999 
0.961443 
0.954027 
0.962208 
0.899110 
0.674533 
0.407773 
0.238986 
0.964289 
0.978104 
0.989433 
0.993514 
0.994269 
0.994900 
0.995556 
0.996119 
0.996818 
0.997697 
0.998348 
0.998404 
0.998297 
0.998239 
0.998601 
0.999021 
0.999421 
0.999593 
0.999632 
0.999660 
0.999681 
0.999699 
0.999715 
0.999740 
0.999773 
0.999808 
0.999835 
0.999851 
0.999859 
0.999864 
0.999867 
0.999870 
0.999872 
0.999877 
0.999883 
0.999889 
0.999894 
0.999897 
0.999898 
0.999893 
0.999874 
0.999855 
0.999853 
0.999863 
0.999869 
0.999870 
0.999871 
0.999873 
0.999875 
0.999877 
0.999879 
0.999880 
0.999882 
0.999884 
0.999885 
0.999887 
0.999888 
0.999889 
0.999890 
0.999891 
0.999892 
0.999893 
0.999894 
0.999895 
0.999896 
0.999897 
0.999897 
0.999898 
0.999898 
0.999897 
0.999896 
0.999894 
0.999890 
0.999887 
0.999887 
0.999886 
0.999886 
0.999885 
0.999885 
0.999884 
0.999883 
0.999882 
0.999879 
0.999862 
0.999830 
0.999793 
0.999770 
0.999768 
0.999794 
0.999823 
0.999820 
0.999792 
0.999773 
0.999762 
0.999749 
0.999731 
0.999723 
0.999724 
0.999729 
0.999734 
0.999739 
0.999743 
0.999748 
0.999752 
0.999755 
0.999758 
0.999761 
0.999762 
0.999763 
0.999764 
0.999764 
0.999763 
0.999763 
0.999762 
0.999759 
0.999756 
0.999754 
0.999752 
0.999752 
0.999750 
0.999748 
0.999747 
0.999749 
0.999747 
0.999742 
0.999735 
0.999727 
0.999718 
0.999709 
0.999697 
0.999679 
0.999656 
0.999631 
0.999604 
0.999572 
0.999539 
0.999507 
0.999470 
0.999430 
0.999387 
0.999340 
0.999290 
0.999240 
0.999192 
0.999141 
0.999084 
0.999022 
0.998967 
0.998940 
0.998932 
0.998916 
0.998922 
0.998963 
0.998994 
0.999012 
0.999122 
0.999276 
0.999299 
0.999327 
0.999424 
0.999501 
0.999519 
0.999568 
0.999670 
0.999733 
0.999712 
0.999609 
0.999558 
0.999595 
0.999637 
0.999641 
0.999631 
0.999659 
0.999694 
0.999726 
0.999734 
0.999418 
0.998859 
0.998543 
0.998438 
0.998414 
0.998479 
0.998772 
0.999258 
0.999573 
0.999700 
0.999698 
0.999583 
0.999403 
0.999245 
0.999237 
0.996760 
0.986679 
0.971171 
0.962821 
0.932012 
0.796283 
0.516967 
0.252664 
0.121297 
0.920794 
0.952630 
0.980643 
0.991608 
0.994040 
0.994532 
0.995105 
0.995844 
0.996688 
0.997485 
0.998098 
0.998384 
0.998363 
0.998285 
0.998237 
0.998598 
0.999019 
0.999420 
0.999592 
0.999632 
0.999659 
0.999681 
0.999698 
0.999715 
0.999740 
0.999773 
0.999808 
0.999835 
0.999852 
0.999860 
0.999864 
0.999868 
0.999870 
0.999874 
0.999879 
0.999886 
0.999891 
0.999895 
0.999898 
0.999892 
0.999864 
0.999828 
0.999827 
0.999847 
0.999865 
0.999870 
0.999872 
0.999874 
0.999876 
0.999878 
0.999880 
0.999882 
0.999884 
0.999885 
0.999887 
0.999888 
0.999890 
0.999891 
0.999892 
0.999893 
0.999894 
0.999895 
0.999896 
0.999897 
0.999898 
0.999899 
0.999899 
0.999898 
0.999895 
0.999892 
0.999888 
0.999884 
0.999878 
0.999874 
0.999873 
0.999873 
0.999872 
0.999872 
0.999871 
0.999870 
0.999869 
0.999868 
0.999867 
0.999862 
0.999845 
0.999820 
0.999795 
0.999786 
0.999803 
0.999829 
0.999833 
0.999811 
0.999792 
0.999782 
0.999771 
0.999755 
0.999744 
0.999742 
0.999745 
0.999750 
0.999755 
0.999760 
0.999764 
0.999768 
0.999772 
0.999775 
0.999778 
0.999780 
0.999782 
0.999783 
0.999783 
0.999783 
0.999783 
0.999782 
0.999780 
0.999778 
0.999775 
0.999774 
0.999773 
0.999771 
0.999768 
0.999766 
0.999764 
0.999760 
0.999752 
0.999744 
0.999733 
0.999721 
0.999707 
0.999692 
0.999672 
0.999649 
0.999624 
0.999597 
0.999567 
0.999533 
0.999494 
0.999451 
0.999404 
0.999352 
0.999294 
0.999236 
0.999186 
0.999145 
0.999102 
0.999044 
0.998974 
0.998929 
0.998943 
0.998977 
0.998989 
0.999001 
0.999089 
0.999124 
0.999137 
0.999234 
0.999399 
0.999469 
0.999474 
0.999489 
0.999473 
0.999436 
0.999437 
0.999465 
0.999503 
0.999490 
0.999437 
0.999386 
0.999420 
0.999492 
0.999530 
0.999564 
0.999627 
0.999711 
0.999785 
0.999803 
0.999737 
0.999481 
0.999158 
0.998941 
0.998780 
0.998802 
0.999043 
0.999347 
0.999550 
0.999648 
0.999640 
0.999573 
0.999452 
0.999420 
0.999404 
0.997298 
0.991132 
0.973649 
0.927475 
0.815825 
0.599251 
0.307618 
0.116156 
0.041992 
0.841759 
0.899406 
0.957612 
0.987330 
0.992904 
0.994378 
0.994806 
0.995419 
0.996085 
0.996845 
0.997501 
0.998011 
0.998327 
0.998340 
0.998281 
0.998231 
0.998592 
0.999015 
0.999388 
0.999535 
0.999601 
0.999659 
0.999681 
0.999698 
0.999715 
0.999740 
0.999774 
0.999810 
0.999836 
0.999852 
0.999860 
0.999865 
0.999868 
0.999871 
0.999876 
0.999883 
0.999889 
0.999894 
0.999897 
0.999889 
0.999852 
0.999802 
0.999790 
0.999819 
0.999849 
0.999867 
0.999872 
0.999875 
0.999877 
0.999879 
0.999881 
0.999883 
0.999885 
0.999887 
0.999888 
0.999890 
0.999891 
0.999892 
0.999894 
0.999895 
0.999896 
0.999897 
0.999898 
0.999899 
0.999900 
0.999899 
0.999896 
0.999892 
0.999886 
0.999880 
0.999876 
0.999873 
0.999870 
0.999867 
0.999867 
0.999867 
0.999866 
0.999866 
0.999865 
0.999865 
0.999864 
0.999863 
0.999862 
0.999861 
0.999855 
0.999839 
0.999817 
0.999803 
0.999808 
0.999830 
0.999840 
0.999829 
0.999809 
0.999797 
0.999788 
0.999775 
0.999765 
0.999760 
0.999761 
0.999764 
0.999768 
0.999773 
0.999777 
0.999781 
0.999785 
0.999789 
0.999793 
0.999796 
0.999799 
0.999801 
0.999802 
0.999803 
0.999804 
0.999803 
0.999802 
0.999801 
0.999799 
0.999797 
0.999795 
0.999793 
0.999789 
0.999784 
0.999779 
0.999773 
0.999764 
0.999754 
0.999743 
0.999729 
0.999713 
0.999695 
0.999673 
0.999648 
0.999619 
0.999587 
0.999552 
0.999512 
0.999465 
0.999412 
0.999353 
0.999288 
0.999216 
0.999142 
0.999083 
0.999058 
0.999036 
0.998992 
0.998939 
0.998955 
0.999052 
0.999176 
0.999178 
0.999137 
0.999117 
0.999170 
0.999191 
0.999296 
0.999426 
0.999517 
0.999511 
0.999469 
0.999418 
0.999368 
0.999308 
0.999236 
0.999169 
0.999106 
0.999035 
0.999001 
0.999101 
0.999297 
0.999471 
0.999559 
0.999642 
0.999723 
0.999778 
0.999794 
0.999735 
0.999536 
0.999276 
0.998976 
0.998883 
0.998806 
0.999043 
0.999321 
0.999532 
0.999602 
0.999620 
0.999572 
0.999561 
0.999550 
0.999485 
0.998212 
0.981403 
0.913072 
0.779663 
0.583450 
0.340405 
0.132092 
0.034396 
0.008871 
0.738056 
0.808657 
0.892974 
0.964459 
0.989499 
0.993436 
0.994623 
0.994978 
0.995423 
0.995936 
0.996681 
0.997413 
0.997964 
0.998310 
0.998334 
0.998273 
0.998222 
0.998603 
0.998980 
0.999289 
0.999456 
0.999595 
0.999658 
0.999681 
0.999698 
0.999716 
0.999743 
0.999777 
0.999813 
0.999838 
0.999854 
0.999862 
0.999866 
0.999870 
0.999873 
0.999879 
0.999886 
0.999892 
0.999896 
0.999889 
0.999847 
0.999786 
0.999762 
0.999784 
0.999825 
0.999855 
0.999871 
0.999875 
0.999878 
0.999880 
0.999883 
0.999885 
0.999887 
0.999888 
0.999890 
0.999892 
0.999893 
0.999894 
0.999896 
0.999897 
0.999898 
0.999899 
0.999900 
0.999899 
0.999897 
0.999893 
0.999888 
0.999881 
0.999876 
0.999872 
0.999870 
0.999870 
0.999869 
0.999869 
0.999869 
0.999870 
0.999869 
0.999869 
0.999869 
0.999868 
0.999868 
0.999867 
0.999866 
0.999865 
0.999863 
0.999855 
0.999838 
0.999819 
0.999816 
0.999829 
0.999844 
0.999843 
0.999827 
0.999813 
0.999803 
0.999794 
0.999783 
0.999777 
0.999775 
0.999776 
0.999778 
0.999782 
0.999787 
0.999792 
0.999797 
0.999802 
0.999807 
0.999811 
0.999815 
0.999818 
0.999821 
0.999823 
0.999824 
0.999825 
0.999825 
0.999824 
0.999823 
0.999821 
0.999819 
0.999815 
0.999811 
0.999806 
0.999799 
0.999791 
0.999782 
0.999771 
0.999758 
0.999742 
0.999724 
0.999703 
0.999678 
0.999649 
0.999615 
0.999577 
0.999536 
0.999487 
0.999430 
0.999366 
0.999296 
0.999220 
0.999136 
0.999042 
0.998971 
0.998948 
0.998949 
0.998920 
0.998910 
0.998981 
0.999157 
0.999263 
0.999235 
0.999054 
0.998957 
0.999025 
0.999166 
0.999248 
0.999368 
0.999435 
0.999450 
0.999413 
0.999365 
0.999313 
0.999223 
0.999022 
0.998762 
0.998496 
0.998263 
0.998145 
0.998346 
0.998830 
0.999292 
0.999536 
0.999635 
0.999681 
0.999691 
0.999675 
0.999609 
0.999470 
0.999234 
0.999097 
0.998896 
0.998881 
0.999046 
0.999384 
0.999576 
0.999643 
0.999662 
0.999654 
0.999646 
0.999564 
0.989153 
0.950579 
0.868013 
0.724587 
0.522958 
0.305132 
0.134816 
0.036607 
0.006771 
0.001778 
0.624991 
0.666524 
0.763474 
0.881085 
0.964970 
0.990145 
0.993568 
0.994625 
0.994810 
0.995115 
0.995732 
0.996581 
0.997381 
0.997948 
0.998299 
0.998321 
0.998310 
0.998355 
0.998729 
0.998994 
0.999303 
0.999498 
0.999618 
0.999658 
0.999681 
0.999699 
0.999720 
0.999749 
0.999782 
0.999816 
0.999842 
0.999857 
0.999864 
0.999868 
0.999871 
0.999876 
0.999883 
0.999890 
0.999895 
0.999888 
0.999847 
0.999782 
0.999747 
0.999760 
0.999797 
0.999840 
0.999867 
0.999877 
0.999879 
0.999882 
0.999884 
0.999886 
0.999888 
0.999890 
0.999892 
0.999893 
0.999895 
0.999896 
0.999898 
0.999899 
0.999900 
0.999900 
0.999898 
0.999894 
0.999889 
0.999882 
0.999878 
0.999874 
0.999872 
0.999871 
0.999872 
0.999873 
0.999874 
0.999875 
0.999875 
0.999875 
0.999875 
0.999875 
0.999875 
0.999875 
0.999874 
0.999874 
0.999873 
0.999872 
0.999871 
0.999867 
0.999853 
0.999833 
0.999824 
0.999831 
0.999846 
0.999853 
0.999844 
0.999828 
0.999816 
0.999808 
0.999799 
0.999792 
0.999787 
0.999785 
0.999786 
0.999790 
0.999795 
0.999801 
0.999807 
0.999813 
0.999819 
0.999825 
0.999830 
0.999834 
0.999838 
0.999841 
0.999843 
0.999845 
0.999846 
0.999846 
0.999845 
0.999843 
0.999841 
0.999837 
0.999833 
0.999828 
0.999820 
0.999812 
0.999801 
0.999788 
0.999774 
0.999756 
0.999736 
0.999712 
0.999684 
0.999651 
0.999612 
0.999568 
0.999518 
0.999459 
0.999390 
0.999311 
0.999226 
0.999138 
0.999048 
0.998957 
0.998886 
0.998858 
0.998855 
0.998841 
0.998865 
0.998971 
0.999094 
0.999112 
0.998955 
0.998771 
0.998729 
0.998884 
0.999147 
0.999282 
0.999286 
0.999284 
0.999327 
0.999319 
0.999202 
0.999070 
0.998900 
0.998583 
0.998085 
0.993077 
0.983730 
0.973652 
0.969956 
0.978908 
0.991781 
0.997781 
0.999462 
0.999575 
0.999518 
0.999447 
0.999392 
0.999336 
0.999289 
0.999227 
0.999166 
0.999128 
0.999284 
0.999529 
0.999670 
0.999727 
0.999729 
0.999735 
0.998440 
0.959968 
0.862257 
0.741097 
0.602124 
0.424255 
0.241505 
0.110004 
0.033927 
0.006795 
0.001560 
0.001046 
0.511518 
0.513114 
0.575348 
0.720534 
0.875441 
0.966245 
0.990147 
0.993440 
0.994384 
0.994541 
0.994915 
0.995622 
0.996498 
0.997326 
0.997922 
0.998274 
0.998388 
0.998540 
0.998733 
0.998966 
0.999183 
0.999405 
0.999542 
0.999618 
0.999658 
0.999682 
0.999703 
0.999724 
0.999754 
0.999789 
0.999826 
0.999850 
0.999861 
0.999866 
0.999870 
0.999874 
0.999880 
0.999888 
0.999894 
0.999888 
0.999847 
0.999782 
0.999744 
0.999747 
0.999778 
0.999823 
0.999859 
0.999876 
0.999881 
0.999883 
0.999886 
0.999888 
0.999890 
0.999892 
0.999894 
0.999895 
0.999897 
0.999898 
0.999900 
0.999901 
0.999900 
0.999897 
0.999892 
0.999884 
0.999879 
0.999875 
0.999874 
0.999874 
0.999875 
0.999876 
0.999877 
0.999878 
0.999879 
0.999880 
0.999880 
0.999881 
0.999881 
0.999881 
0.999881 
0.999881 
0.999880 
0.999880 
0.999879 
0.999879 
0.999878 
0.999875 
0.999862 
0.999844 
0.999833 
0.999835 
0.999846 
0.999858 
0.999856 
0.999842 
0.999829 
0.999820 
0.999813 
0.999803 
0.999795 
0.999790 
0.999791 
0.999795 
0.999801 
0.999808 
0.999815 
0.999822 
0.999829 
0.999836 
0.999842 
0.999848 
0.999852 
0.999856 
0.999860 
0.999862 
0.999864 
0.999864 
0.999864 
0.999862 
0.999860 
0.999857 
0.999852 
0.999846 
0.999839 
0.999830 
0.999818 
0.999804 
0.999788 
0.999769 
0.999746 
0.999719 
0.999687 
0.999649 
0.999604 
0.999551 
0.999489 
0.999417 
0.999331 
0.999231 
0.999123 
0.999018 
0.998940 
0.998881 
0.998826 
0.998780 
0.998745 
0.998757 
0.998750 
0.998730 
0.998672 
0.998586 
0.998560 
0.998542 
0.998556 
0.998889 
0.999157 
0.999232 
0.999142 
0.999095 
0.999052 
0.998954 
0.998699 
0.998202 
0.997445 
0.995707 
0.989935 
0.972116 
0.941351 
0.907174 
0.879781 
0.865309 
0.870451 
0.898818 
0.953816 
0.994387 
0.999337 
0.999205 
0.999177 
0.999237 
0.999334 
0.999413 
0.999418 
0.999422 
0.999518 
0.999653 
0.999733 
0.999758 
0.999795 
0.998525 
0.939124 
0.753773 
0.537036 
0.372447 
0.259410 
0.159715 
0.074054 
0.023572 
0.005621 
0.001517 
0.001042 
0.001007 
0.411490 
0.384447 
0.404742 
0.520673 
0.708155 
0.875407 
0.964965 
0.989505 
0.992912 
0.994049 
0.994283 
0.994772 
0.995553 
0.996398 
0.997195 
0.997827 
0.998253 
0.998542 
0.998792 
0.998958 
0.999104 
0.999273 
0.999433 
0.999553 
0.999624 
0.999660 
0.999686 
0.999707 
0.999730 
0.999764 
0.999806 
0.999839 
0.999857 
0.999864 
0.999868 
0.999872 
0.999879 
0.999887 
0.999894 
0.999885 
0.999842 
0.999781 
0.999746 
0.999744 
0.999767 
0.999806 
0.999850 
0.999875 
0.999883 
0.999885 
0.999888 
0.999890 
0.999892 
0.999894 
0.999896 
0.999897 
0.999899 
0.999900 
0.999900 
0.999898 
0.999895 
0.999890 
0.999883 
0.999878 
0.999875 
0.999875 
0.999877 
0.999878 
0.999880 
0.999881 
0.999883 
0.999884 
0.999885 
0.999886 
0.999886 
0.999887 
0.999887 
0.999887 
0.999887 
0.999887 
0.999887 
0.999886 
0.999886 
0.999885 
0.999884 
0.999881 
0.999870 
0.999854 
0.999842 
0.999841 
0.999848 
0.999859 
0.999863 
0.999855 
0.999840 
0.999829 
0.999821 
0.999812 
0.999800 
0.999793 
0.999793 
0.999798 
0.999804 
0.999812 
0.999820 
0.999828 
0.999836 
0.999844 
0.999852 
0.999858 
0.999864 
0.999869 
0.999873 
0.999876 
0.999878 
0.999879 
0.999879 
0.999878 
0.999876 
0.999873 
0.999868 
0.999862 
0.999854 
0.999844 
0.999832 
0.999817 
0.999799 
0.999778 
0.999751 
0.999719 
0.999680 
0.999634 
0.999577 
0.999509 
0.999426 
0.999328 
0.999211 
0.999076 
0.998926 
0.998787 
0.998726 
0.998739 
0.998716 
0.998587 
0.998428 
0.998304 
0.998130 
0.997920 
0.997798 
0.997883 
0.998091 
0.998518 
0.998712 
0.998809 
0.998877 
0.998917 
0.998892 
0.998756 
0.998370 
0.996292 
0.993077 
0.990438 
0.987606 
0.984714 
0.978077 
0.955641 
0.904180 
0.831149 
0.711536 
0.602782 
0.531923 
0.562329 
0.692710 
0.878985 
0.982092 
0.999078 
0.999099 
0.999279 
0.999453 
0.999560 
0.999605 
0.999633 
0.999681 
0.999715 
0.999719 
0.999747 
0.999742 
0.965059 
0.745752 
0.408802 
0.171388 
0.088491 
0.057779 
0.032835 
0.012394 
0.003570 
0.001348 
0.001036 
0.001009 
0.001008 
0.316375 
0.292912 
0.295601 
0.364190 
0.520536 
0.720353 
0.880977 
0.964439 
0.987340 
0.991620 
0.993528 
0.994121 
0.994753 
0.995474 
0.996148 
0.996934 
0.997652 
0.998206 
0.998589 
0.998840 
0.998985 
0.999132 
0.999302 
0.999471 
0.999581 
0.999637 
0.999669 
0.999694 
0.999714 
0.999744 
0.999787 
0.999828 
0.999852 
0.999863 
0.999868 
0.999872 
0.999879 
0.999887 
0.999892 
0.999875 
0.999828 
0.999772 
0.999746 
0.999747 
0.999765 
0.999803 
0.999848 
0.999875 
0.999885 
0.999888 
0.999890 
0.999892 
0.999894 
0.999896 
0.999898 
0.999900 
0.999900 
0.999900 
0.999898 
0.999894 
0.999888 
0.999885 
0.999881 
0.999879 
0.999879 
0.999881 
0.999883 
0.999885 
0.999886 
0.999888 
0.999889 
0.999890 
0.999891 
0.999892 
0.999892 
0.999893 
0.999893 
0.999893 
0.999893 
0.999893 
0.999893 
0.999893 
0.999892 
0.999892 
0.999891 
0.999888 
0.999878 
0.999863 
0.999853 
0.999849 
0.999852 
0.999859 
0.999866 
0.999862 
0.999849 
0.999835 
0.999824 
0.999813 
0.999801 
0.999794 
0.999793 
0.999798 
0.999804 
0.999812 
0.999820 
0.999830 
0.999839 
0.999849 
0.999857 
0.999865 
0.999872 
0.999878 
0.999883 
0.999886 
0.999889 
0.999890 
0.999890 
0.999889 
0.999887 
0.999884 
0.999879 
0.999873 
0.999865 
0.999854 
0.999840 
0.999824 
0.999803 
0.999777 
0.999744 
0.999703 
0.999651 
0.999583 
0.999495 
0.999378 
0.999230 
0.999044 
0.998792 
0.998402 
0.997908 
0.997697 
0.997940 
0.998184 
0.998108 
0.997243 
0.995788 
0.994756 
0.995020 
0.996093 
0.996890 
0.997292 
0.998063 
0.998553 
0.998608 
0.998352 
0.998266 
0.998333 
0.998571 
0.997867 
0.994527 
0.985708 
0.975455 
0.969994 
0.967160 
0.966501 
0.964306 
0.948712 
0.889173 
0.741346 
0.534326 
0.318811 
0.204583 
0.180010 
0.310069 
0.584987 
0.875358 
0.986940 
0.999208 
0.999426 
0.999609 
0.999699 
0.999735 
0.999758 
0.999770 
0.999754 
0.999703 
0.999698 
0.996223 
0.886716 
0.517133 
0.143769 
0.024215 
0.007272 
0.005222 
0.003773 
0.001898 
0.001152 
0.001024 
0.001009 
0.001011 
0.001020 
0.219479 
0.225104 
0.243001 
0.295478 
0.404451 
0.574955 
0.763101 
0.892688 
0.957450 
0.980604 
0.989451 
0.992562 
0.994021 
0.994547 
0.995141 
0.995876 
0.996711 
0.997501 
0.998139 
0.998541 
0.998801 
0.998992 
0.999178 
0.999365 
0.999511 
0.999603 
0.999651 
0.999680 
0.999703 
0.999730 
0.999772 
0.999816 
0.999846 
0.999860 
0.999867 
0.999873 
0.999880 
0.999888 
0.999887 
0.999863 
0.999811 
0.999767 
0.999748 
0.999753 
0.999773 
0.999808 
0.999849 
0.999873 
0.999881 
0.999886 
0.999891 
0.999895 
0.999897 
0.999900 
0.999903 
0.999904 
0.999904 
0.999902 
0.999898 
0.999894 
0.999891 
0.999890 
0.999890 
0.999890 
0.999889 
0.999889 
0.999889 
0.999891 
0.999892 
0.999893 
0.999895 
0.999896 
0.999897 
0.999897 
0.999898 
0.999898 
0.999899 
0.999899 
0.999899 
0.999899 
0.999899 
0.999899 
0.999898 
0.999898 
0.999897 
0.999895 
0.999886 
0.999872 
0.999862 
0.999858 
0.999857 
0.999859 
0.999862 
0.999861 
0.999851 
0.999835 
0.999820 
0.999807 
0.999796 
0.999789 
0.999788 
0.999791 
0.999797 
0.999804 
0.999813 
0.999824 
0.999835 
0.999845 
0.999856 
0.999865 
0.999873 
0.999880 
0.999885 
0.999890 
0.999893 
0.999894 
0.999895 
0.999894 
0.999891 
0.999888 
0.999882 
0.999875 
0.999865 
0.999853 
0.999837 
0.999816 
0.999789 
0.999755 
0.999708 
0.999645 
0.999554 
0.999411 
0.999165 
0.998682 
0.997834 
0.996700 
0.995405 
0.993906 
0.992117 
0.991618 
0.991055 
0.988315 
0.987388 
0.988504 
0.986682 
0.985066 
0.988118 
0.992604 
0.996020 
0.997374 
0.998038 
0.998366 
0.997999 
0.997452 
0.997270 
0.996144 
0.993104 
0.989463 
0.983129 
0.969947 
0.954067 
0.946994 
0.947449 
0.941074 
0.935100 
0.893452 
0.772330 
0.580889 
0.368927 
0.199467 
0.096776 
0.067480 
0.120598 
0.360925 
0.727238 
0.953779 
0.999371 
0.999580 
0.999728 
0.999783 
0.999805 
0.999816 
0.999816 
0.999781 
0.999725 
0.999703 
0.993132 
0.826762 
0.373600 
0.051780 
0.002695 
0.001081 
0.001118 
0.001106 
0.001041 
0.001014 
0.001008 
0.001013 
0.001041 
0.001107 
0.147976 
0.177298 
0.225059 
0.292742 
0.384080 
0.512526 
0.665767 
0.807881 
0.898820 
0.952362 
0.978073 
0.988375 
0.992198 
0.993840 
0.994437 
0.995075 
0.995876 
0.996712 
0.997522 
0.998123 
0.998521 
0.998807 
0.999036 
0.999231 
0.999415 
0.999543 
0.999621 
0.999663 
0.999690 
0.999719 
0.999757 
0.999800 
0.999832 
0.999853 
0.999865 
0.999872 
0.999879 
0.999887 
0.999886 
0.999863 
0.999818 
0.999778 
0.999758 
0.999758 
0.999776 
0.999809 
0.999838 
0.999856 
0.999863 
0.999873 
0.999885 
0.999894 
0.999899 
0.999905 
0.999912 
0.999916 
0.999915 
0.999912 
0.999907 
0.999902 
0.999901 
0.999903 
0.999904 
0.999903 
0.999899 
0.999896 
0.999894 
0.999894 
0.999895 
0.999896 
0.999897 
0.999898 
0.999899 
0.999900 
0.999900 
0.999901 
0.999901 
0.999901 
0.999901 
0.999901 
0.999901 
0.999901 
0.999901 
0.999900 
0.999900 
0.999897 
0.999888 
0.999876 
0.999866 
0.999862 
0.999859 
0.999856 
0.999854 
0.999851 
0.999842 
0.999829 
0.999812 
0.999796 
0.999784 
0.999777 
0.999774 
0.999775 
0.999779 
0.999786 
0.999795 
0.999806 
0.999819 
0.999831 
0.999843 
0.999854 
0.999864 
0.999872 
0.999879 
0.999884 
0.999887 
0.999889 
0.999890 
0.999888 
0.999886 
0.999881 
0.999875 
0.999866 
0.999854 
0.999838 
0.999818 
0.999791 
0.999755 
0.999705 
0.999635 
0.999530 
0.999355 
0.999017 
0.998278 
0.996674 
0.993965 
0.990486 
0.986794 
0.982760 
0.978801 
0.976098 
0.970151 
0.962542 
0.961162 
0.966859 
0.970402 
0.972970 
0.979635 
0.989729 
0.995109 
0.997370 
0.997926 
0.997831 
0.996970 
0.996245 
0.994592 
0.988291 
0.978410 
0.970198 
0.965038 
0.956441 
0.943120 
0.940812 
0.935487 
0.915083 
0.872753 
0.770175 
0.588527 
0.401088 
0.277631 
0.216951 
0.156428 
0.115240 
0.147660 
0.348355 
0.702887 
0.941056 
0.999498 
0.999667 
0.999778 
0.999818 
0.999833 
0.999836 
0.999832 
0.999812 
0.999766 
0.999725 
0.995932 
0.805169 
0.325700 
0.033383 
0.001368 
0.001000 
0.001003 
0.001008 
0.001008 
0.001008 
0.001013 
0.001044 
0.001182 
0.001535 
0.108854 
0.147968 
0.219438 
0.316225 
0.411120 
0.510825 
0.623913 
0.736730 
0.840607 
0.920252 
0.964179 
0.983441 
0.990011 
0.993121 
0.994235 
0.994857 
0.995253 
0.996134 
0.996991 
0.997706 
0.998206 
0.998626 
0.998902 
0.999114 
0.999307 
0.999486 
0.999590 
0.999644 
0.999678 
0.999707 
0.999741 
0.999779 
0.999813 
0.999842 
0.999860 
0.999870 
0.999877 
0.999884 
0.999888 
0.999873 
0.999841 
0.999804 
0.999770 
0.999758 
0.999769 
0.999793 
0.999815 
0.999825 
0.999835 
0.999852 
0.999876 
0.999890 
0.999900 
0.999910 
0.999925 
0.999933 
0.999933 
0.999927 
0.999916 
0.999910 
0.999909 
0.999910 
0.999911 
0.999910 
0.999907 
0.999902 
0.999896 
0.999893 
0.999893 
0.999895 
0.999896 
0.999897 
0.999898 
0.999899 
0.999899 
0.999900 
0.999900 
0.999900 
0.999900 
0.999900 
0.999900 
0.999900 
0.999900 
0.999899 
0.999899 
0.999896 
0.999887 
0.999874 
0.999864 
0.999859 
0.999856 
0.999851 
0.999845 
0.999837 
0.999829 
0.999818 
0.999801 
0.999783 
0.999768 
0.999759 
0.999755 
0.999755 
0.999758 
0.999764 
0.999773 
0.999785 
0.999799 
0.999813 
0.999827 
0.999839 
0.999850 
0.999860 
0.999867 
0.999873 
0.999877 
0.999879 
0.999880 
0.999878 
0.999875 
0.999870 
0.999862 
0.999852 
0.999838 
0.999819 
0.999794 
0.999760 
0.999714 
0.999649 
0.999555 
0.999407 
0.999134 
0.998569 
0.997184 
0.994170 
0.988930 
0.982334 
0.975766 
0.968904 
0.963165 
0.955887 
0.945092 
0.926783 
0.925324 
0.942566 
0.955783 
0.964334 
0.976961 
0.988117 
0.995144 
0.996923 
0.997655 
0.997359 
0.996228 
0.995330 
0.991097 
0.978892 
0.957333 
0.945539 
0.945885 
0.948522 
0.944073 
0.938157 
0.926609 
0.887556 
0.807445 
0.672577 
0.451375 
0.292957 
0.248502 
0.290173 
0.345812 
0.319679 
0.337871 
0.512923 
0.794733 
0.966416 
0.999572 
0.999706 
0.999791 
0.999827 
0.999841 
0.999846 
0.999842 
0.999828 
0.999792 
0.999739 
0.999528 
0.812265 
0.327282 
0.029946 
0.001306 
0.001000 
0.001002 
0.001004 
0.001006 
0.001010 
0.001024 
0.001120 
0.001559 
0.002728 

stress 1 20000 float
314.439344 
304.668107 
295.220114 
286.083846 
277.248143 
268.702119 
260.435159 
252.437034 
244.697900 
237.208290 
229.959111 
222.941649 
216.147573 
209.568935 
203.198172 
197.028111 
191.051973 
185.263373 
179.656326 
174.225251 
168.964967 
163.870620 
158.937911 
154.162982 
149.542864 
145.075040 
140.757321 
136.587187 
132.563088 
128.684458 
124.951071 
121.362931 
117.921965 
114.632187 
111.496696 
108.517103 
105.696292 
103.038977 
100.550688 
98.237585 
96.107400 
94.170856 
92.438127 
90.918703 
89.620750 
88.549826 
87.713447 
87.122356 
86.789220 
86.722041 
86.925665 
87.404004 
88.160389 
89.196655 
90.513166 
92.108923 
93.981735 
96.128436 
98.545130 
101.227180 
104.169618 
107.367898 
110.818574 
114.518306 
118.464950 
122.656270 
127.090833 
131.768859 
136.692476 
141.865684 
147.294365 
152.986251 
158.951234 
165.202427 
171.756057 
178.631600 
185.852222 
193.444416 
201.438406 
209.868322 
218.772249 
228.192125 
238.173382 
248.764107 
260.013780 
271.971185 
284.681163 
298.179730 
312.486481 
327.592460 
343.440083 
359.888554 
376.649617 
393.161402 
408.317267 
419.939473 
425.266840 
427.430415 
456.524991 
664.385236 
614.005968 
275.355343 
317.714838 
480.198113 
491.823969 
471.411671 
441.060622 
441.480908 
441.941447 
436.367933 
432.306000 
434.466860 
427.619629 
421.322590 
422.428250 
425.006799 
415.542260 
416.404894 
411.459980 
409.494760 
403.843528 
401.297495 
392.559484 
396.297710 
382.805297 
383.059691 
373.447455 
365.739560 
361.363085 
344.432582 
338.060243 
346.930377 
333.636956 
327.487145 
344.147265 
325.463793 
292.447327 
305.041957 
311.822649 
315.687940 
322.653643 
308.368049 
284.960008 
275.210982 
303.524212 
299.813944 
273.194894 
244.167788 
226.998829 
205.425091 
165.972383 
135.808945 
127.027211 
136.109237 
133.033270 
115.877634 
107.754325 
100.112551 
94.775932 
76.096656 
50.584790 
42.851419 
48.708812 
42.442573 
35.943635 
39.618107 
44.701284 
72.107791 
56.075442 
15.039291 
11.395886 
11.086546 
12.251801 
12.868105 
12.595829 
12.137479 
11.956153 
12.638729 
13.926759 
15.206123 
16.737676 
18.562026 
21.365380 
27.736120 
39.993082 
50.695873 
38.279104 
15.844811 
6.162660 
5.507227 
6.555491 
7.141582 
7.275967 
6.958606 
6.313524 
5.574128 
4.856902 
3.879880 
2.171112 
0.422121 
314.304269 
304.538192 
295.095622 
285.964921 
277.134984 
268.594915 
260.334099 
252.342301 
244.609673 
237.126740 
229.884405 
222.873950 
216.087037 
209.515712 
203.152407 
196.989945 
191.021538 
185.240795 
179.641725 
174.218739 
168.966655 
163.880722 
158.956644 
154.190600 
149.579039 
145.119318 
140.809568 
136.647799 
132.632232 
128.762089 
125.037149 
121.457721 
118.025860 
114.744888 
111.617171 
108.644674 
105.830899 
103.180751 
100.699771 
98.393937 
96.270429 
94.338933 
92.610066 
91.093779 
89.798439 
88.729861 
87.895060 
87.304422 
86.970372 
86.901154 
87.101653 
87.575916 
88.327330 
89.357801 
90.667785 
92.256388 
94.121529 
96.260147 
98.668444 
101.341891 
104.275570 
107.465065 
110.906840 
114.597673 
118.535297 
122.717514 
127.142823 
131.811398 
136.725279 
141.888357 
147.306421 
152.987043 
158.940152 
165.178839 
171.719326 
178.581004 
185.786757 
193.363167 
201.340842 
209.754491 
218.642912 
228.048984 
238.019432 
248.604332 
259.856034 
271.827562 
284.570180 
298.129801 
312.541671 
327.822497 
343.958912 
360.890943 
378.491134 
396.543080 
414.783738 
433.152670 
451.241051 
472.561330 
521.285560 
534.654439 
554.208286 
507.345174 
463.778199 
500.864567 
491.167722 
477.533120 
455.171128 
442.094407 
445.079865 
440.789083 
431.703682 
427.929947 
421.690253 
416.548125 
415.383851 
414.096974 
412.420133 
409.617719 
404.105605 
400.131184 
400.789601 
396.370999 
387.652216 
385.913868 
382.783780 
382.284875 
371.883178 
359.448486 
357.257220 
346.876477 
340.044039 
341.713724 
323.449824 
316.256145 
330.914230 
319.944990 
298.151304 
306.974514 
316.698422 
323.210977 
330.185594 
319.839165 
297.158460 
293.628650 
305.215804 
291.041314 
265.680799 
250.466517 
238.105479 
214.753783 
181.067619 
155.582552 
148.711567 
156.526723 
159.786021 
151.538667 
140.970094 
135.257610 
133.769842 
127.077938 
102.335919 
81.676323 
73.296133 
60.528025 
45.565735 
53.956324 
72.675331 
96.383811 
51.220873 
25.033546 
15.558080 
10.925011 
9.283143 
8.603699 
8.413707 
8.656051 
9.298431 
10.240458 
11.418733 
12.493924 
13.697204 
14.443954 
13.499316 
11.905845 
11.874635 
15.320477 
18.164018 
16.855964 
14.328086 
12.523897 
11.167010 
9.881278 
9.005497 
8.558096 
8.209633 
7.754045 
7.182836 
6.378749 
4.686166 
2.158085 
314.035702 
304.279873 
294.848062 
285.728544 
276.910167 
268.382034 
260.133528 
252.154407 
244.434810 
236.965250 
229.736619 
222.740188 
215.967608 
209.410914 
203.062526 
196.915255 
190.962301 
185.197260 
179.614127 
174.207303 
168.971605 
163.902328 
158.995205 
154.246221 
149.651703 
145.208918 
140.916018 
136.771150 
132.772663 
128.919488 
125.211326 
121.648908 
118.234498 
114.970809 
111.859103 
108.901264 
106.101539 
103.465372 
100.998344 
98.706151 
96.595036 
94.673458 
92.952442 
91.442539 
90.152451 
89.088372 
88.256406 
87.666286 
87.330319 
87.257062 
87.451455 
87.917703 
88.659309 
89.678337 
90.975431 
92.549903 
94.399884 
96.522524 
98.914217 
101.570626 
104.486955 
107.658922 
111.083008 
114.756050 
118.675736 
122.839852 
127.246770 
131.896542 
136.791031 
141.933914 
147.330834 
152.989189 
158.918680 
165.132250 
171.646044 
178.479362 
185.655058 
193.199836 
201.144720 
209.525302 
218.381711 
227.758611 
237.705294 
248.275431 
259.526662 
271.519781 
284.317587 
297.983481 
312.579837 
328.166677 
344.802413 
362.551873 
381.515027 
401.923204 
424.385863 
450.729124 
485.310784 
530.868960 
547.461702 
510.487682 
541.999049 
577.902185 
553.829165 
493.610695 
468.524729 
471.210450 
461.417284 
441.748420 
446.891280 
441.963357 
433.412766 
428.147128 
423.502884 
416.590717 
412.524174 
406.757055 
407.863241 
402.525813 
400.242474 
396.299444 
399.815614 
395.463151 
385.794624 
381.641268 
384.141455 
380.911150 
372.213882 
363.348717 
364.969582 
359.944889 
351.974143 
349.955547 
330.101610 
323.400543 
333.871606 
331.559837 
322.797826 
328.218289 
335.482514 
339.699042 
338.515302 
325.004449 
307.813828 
310.407431 
311.503662 
292.644207 
271.152569 
265.495379 
256.232793 
231.674542 
207.129758 
188.468670 
179.436730 
180.476831 
181.592053 
174.777225 
170.617942 
172.410376 
182.061728 
182.868566 
163.420738 
140.704818 
132.736956 
127.823749 
120.555049 
126.823520 
130.417601 
90.351671 
41.373165 
27.658797 
22.537239 
22.802484 
24.842588 
26.223516 
27.078057 
27.945376 
29.493893 
31.973959 
34.850802 
37.966170 
42.398743 
47.692364 
50.426803 
52.935851 
58.368315 
63.413371 
54.259706 
36.309380 
24.056957 
18.705476 
15.748315 
13.412942 
11.614334 
10.589354 
9.948313 
9.324290 
8.714889 
7.951047 
6.300126 
3.725690 
313.633740 
303.893386 
294.477681 
285.374903 
276.573866 
268.063652 
259.833627 
251.873531 
244.173487 
236.723992 
229.515920 
222.540526 
215.789442 
209.254688 
202.928665 
196.804165 
190.874370 
185.132857 
179.573602 
174.190989 
168.979826 
163.935364 
159.053310 
154.329629 
149.760587 
145.343381 
141.076090 
136.956855 
132.983931 
129.156174 
125.473350 
121.936302 
118.547283 
115.308551 
112.220723 
109.285288 
106.506946 
103.891524 
101.444662 
99.171761 
97.078214 
95.171520 
93.462777 
91.962800 
90.680662 
89.622914 
88.794673 
88.204878 
87.865943 
87.786710 
87.972140 
88.426550 
89.153640 
90.155717 
91.433707 
92.987226 
94.814719 
96.913647 
99.280695 
101.911784 
104.802331 
107.948177 
111.345897 
114.992391 
118.885370 
123.022513 
127.402053 
132.023836 
136.889443 
142.002277 
147.367679 
152.992782 
158.886903 
165.062691 
171.536095 
178.326350 
185.456327 
192.952984 
200.847824 
209.177388 
217.983447 
227.313147 
237.219167 
247.760021 
259.000208 
271.010471 
283.868117 
297.657905 
312.474222 
328.426012 
345.647953 
364.325461 
384.752474 
407.456791 
433.527376 
465.084406 
509.896417 
559.346506 
579.039045 
525.592682 
502.588083 
530.214344 
535.998558 
511.653944 
485.004611 
473.375145 
457.334571 
449.354981 
451.015771 
439.563968 
435.040566 
433.963704 
428.981783 
420.974910 
414.104877 
408.177104 
405.252574 
404.218448 
403.858324 
401.552037 
401.078004 
398.403898 
392.356833 
389.682959 
390.240101 
384.270619 
375.771688 
372.781599 
376.299432 
371.878318 
365.524221 
365.488048 
351.796436 
343.322249 
350.530472 
351.429935 
347.164792 
346.353597 
339.909788 
332.850727 
329.754535 
314.854302 
310.139641 
315.993693 
314.628331 
290.884270 
272.383243 
272.324549 
264.904666 
249.059172 
233.512883 
220.496984 
209.294435 
202.378015 
198.764194 
192.678022 
195.711802 
212.602883 
237.351227 
233.909007 
199.065262 
170.371946 
173.739905 
209.881145 
240.584077 
220.992112 
164.457805 
104.945930 
67.684859 
53.004399 
49.171356 
48.718323 
47.707600 
46.449610 
45.440857 
45.337853 
46.792667 
50.039242 
53.450264 
57.936364 
65.422922 
75.098639 
81.967545 
89.191995 
104.589289 
116.447862 
93.936694 
56.566622 
33.144493 
23.211564 
18.829716 
15.966516 
13.652516 
12.200545 
11.269771 
10.422675 
9.681355 
8.858972 
7.109889 
4.489023 
313.098049 
303.378351 
293.984112 
284.903634 
276.125708 
267.639383 
259.433996 
251.499263 
243.825284 
236.402534 
229.221864 
222.274504 
215.552065 
209.046541 
202.750310 
196.656139 
190.757184 
185.046997 
179.519527 
174.169134 
168.990591 
163.979098 
159.130279 
154.440061 
149.904767 
145.521583 
141.288410 
137.203228 
133.264286 
129.470575 
125.821778 
122.318455 
118.962321 
115.755586 
112.698881 
109.793471 
107.043938 
104.456135 
102.035543 
99.787272 
97.716190 
95.829322 
94.137415 
92.651136 
91.379508 
90.329520 
89.505600 
88.916003 
88.573175 
88.486111 
88.659771 
89.098620 
89.806620 
90.786401 
92.039251 
93.565181 
95.363046 
97.430712 
99.765255 
102.362939 
105.219493 
108.330856 
111.693705 
115.305074 
119.162739 
123.264254 
127.607646 
132.192468 
137.019949 
142.093070 
147.416770 
152.997736 
158.844826 
164.970211 
171.389495 
178.121719 
185.189809 
192.620968 
200.447265 
208.706212 
217.441298 
226.702331 
236.545860 
247.035745 
258.244078 
270.252260 
283.152620 
297.051199 
312.072767 
328.369814 
346.138998 
365.651570 
387.308572 
411.747726 
440.004350 
474.161961 
516.256050 
562.034553 
571.693307 
507.383439 
432.244430 
456.975102 
511.289121 
533.606689 
517.285681 
477.938165 
456.209116 
458.176702 
453.580616 
438.300190 
435.085365 
433.418037 
429.505107 
425.249434 
419.468034 
417.006667 
414.533121 
409.644119 
412.016515 
409.017010 
404.078035 
404.230940 
400.258995 
399.803290 
397.837749 
390.747713 
382.336005 
382.107948 
383.051702 
379.471874 
376.751422 
377.323066 
368.184621 
355.586985 
357.818576 
354.840796 
352.572849 
342.669416 
327.207348 
318.232885 
318.320340 
312.914289 
310.741219 
313.314787 
312.584208 
292.290443 
274.802819 
268.081580 
264.826727 
256.064637 
249.389267 
242.913109 
234.106871 
227.231295 
222.140988 
219.466035 
224.965538 
249.915771 
272.755639 
256.956126 
207.932073 
179.563001 
186.131109 
235.243009 
291.341363 
269.015633 
205.205940 
145.718993 
104.050323 
83.310070 
75.645297 
71.613101 
66.772873 
62.326496 
58.582196 
56.239720 
56.892221 
59.926521 
62.973864 
66.993504 
74.530895 
83.682660 
90.023653 
98.215169 
119.211794 
130.996569 
105.455300 
64.383755 
37.395167 
25.016585 
20.149414 
17.485755 
15.177624 
13.599286 
12.426753 
11.369355 
10.625587 
9.767447 
7.938482 
5.159625 
312.428593 
302.734715 
293.367334 
284.314738 
275.565696 
267.109225 
258.934627 
251.031589 
243.390180 
236.000846 
228.854409 
221.942068 
215.255404 
208.786380 
202.527345 
196.471031 
190.610563 
184.939458 
179.451630 
174.141399 
169.003495 
164.033057 
159.225633 
154.577093 
150.083756 
145.742768 
141.551876 
137.508916 
133.612215 
129.860852 
126.254487 
122.792963 
119.477257 
116.309552 
113.290878 
110.422543 
107.708943 
105.155499 
102.767186 
100.548776 
98.504918 
96.642384 
94.971556 
93.502448 
92.243789 
91.202694 
90.383570 
89.794244 
89.446714 
89.349974 
89.509097 
89.928782 
90.613308 
91.565677 
92.787606 
94.279577 
96.040943 
98.070067 
100.364495 
102.920968 
105.735600 
108.804442 
112.124222 
115.692167 
119.506121 
123.563567 
127.862326 
132.401513 
137.181913 
142.206007 
147.478095 
153.004253 
158.792778 
164.855283 
171.206786 
177.865934 
184.855489 
192.202845 
199.940592 
208.107255 
216.747955 
225.915051 
235.668852 
246.078597 
257.223708 
269.195571 
282.100004 
296.061163 
311.227950 
327.784417 
345.966369 
366.087310 
388.577586 
414.031145 
443.266074 
477.160598 
516.396547 
552.137084 
568.499485 
538.808689 
457.372475 
411.886915 
455.918361 
497.455689 
509.449646 
490.669896 
485.739994 
476.109955 
456.390957 
442.821846 
439.638937 
428.187704 
422.924532 
426.231807 
420.018432 
420.412077 
418.291748 
412.600065 
410.135490 
411.913744 
407.162641 
406.828397 
403.246660 
399.480242 
399.656637 
396.769909 
392.893203 
387.118685 
387.589463 
385.693982 
381.142208 
376.190816 
367.371068 
357.675683 
355.747634 
350.468380 
339.797989 
331.960077 
315.787291 
310.244115 
314.724497 
311.544972 
309.837278 
310.217350 
306.166048 
294.695949 
281.670135 
270.739519 
265.693002 
254.404794 
247.555774 
251.952562 
254.539311 
255.254063 
247.528336 
248.961079 
250.834341 
267.451157 
276.122106 
255.827957 
211.765661 
180.291121 
172.651620 
199.739700 
243.778616 
242.296629 
199.760505 
155.995343 
119.825242 
98.730597 
87.491461 
79.410933 
72.724882 
67.254516 
63.944402 
62.993166 
69.473713 
79.329068 
88.312384 
96.348074 
103.510579 
108.550458 
111.075452 
110.053603 
101.187442 
90.475255 
84.766772 
55.518442 
33.920281 
24.217324 
19.917613 
17.647113 
15.913923 
14.220748 
12.845362 
11.838737 
11.375466 
10.630110 
8.842241 
6.247459 
311.625744 
301.962848 
292.627716 
283.608592 
274.894216 
266.473567 
258.335912 
250.470899 
242.868562 
235.519308 
228.413924 
221.543573 
214.899797 
208.474522 
202.260055 
196.249091 
190.434711 
184.810389 
179.369993 
174.107794 
169.018464 
164.097080 
159.339117 
154.740375 
150.297111 
146.006376 
141.865784 
137.873060 
134.026504 
130.325217 
126.768683 
123.356464 
120.088941 
116.967807 
113.994007 
111.169380 
108.498325 
105.985597 
103.635259 
101.451771 
99.439680 
97.605620 
95.959525 
94.510575 
93.266867 
92.235605 
91.421898 
90.833019 
90.480108 
90.371808 
90.513689 
90.910784 
91.567704 
92.487843 
93.673388 
95.125365 
96.843702 
98.827341 
101.074377 
103.582143 
106.347216 
109.365869 
112.634793 
116.151399 
119.913542 
123.918798 
128.164736 
132.649991 
137.374771 
142.340932 
147.551935 
153.012991 
158.731744 
164.719067 
170.989200 
177.560125 
184.454200 
191.698715 
199.326613 
207.377253 
215.897214 
224.941163 
234.572852 
244.866300 
255.907340 
267.795648 
280.647621 
294.600707 
309.819840 
326.506843 
344.913817 
365.360851 
388.254584 
414.094905 
443.406356 
476.331342 
512.238866 
546.340613 
561.357929 
552.723612 
517.794355 
447.163492 
396.184343 
424.202126 
481.582793 
508.841008 
516.342212 
493.910785 
472.403526 
461.941875 
451.738385 
427.213756 
417.444021 
422.391021 
415.191466 
412.685920 
413.450144 
405.547350 
401.805809 
409.463171 
408.304844 
404.856788 
400.968411 
396.951435 
397.410429 
399.796228 
396.425194 
385.847433 
384.068979 
385.090508 
379.087999 
369.950239 
362.558950 
357.092110 
351.005188 
339.240924 
326.916480 
323.525862 
312.982719 
308.200832 
310.443543 
303.284079 
301.344075 
301.480157 
289.877102 
286.213754 
281.590311 
271.803941 
262.165471 
241.012192 
229.383540 
239.861954 
252.220134 
260.731634 
251.885532 
250.485596 
245.437217 
237.876839 
230.186602 
210.099461 
184.376750 
156.989373 
131.958620 
129.911556 
146.318850 
156.275213 
146.350598 
127.942416 
109.546235 
98.374911 
95.141812 
97.790256 
104.892085 
113.000557 
120.120091 
123.371743 
118.421770 
102.576724 
88.071814 
80.124116 
73.108067 
65.959147 
61.705705 
52.481030 
33.472624 
25.949874 
54.644088 
38.609217 
26.378631 
20.935256 
17.319468 
15.928309 
15.325275 
14.351438 
12.923976 
11.919742 
11.672205 
11.143379 
9.562347 
7.453088 
310.689882 
301.063134 
291.765632 
282.785570 
274.111642 
265.732787 
257.638227 
249.817568 
242.260797 
234.958280 
227.900758 
221.079349 
214.485550 
208.111241 
201.948681 
195.990514 
190.229770 
184.659868 
179.274619 
174.068232 
169.035315 
164.170876 
159.470315 
154.929350 
150.544130 
146.311567 
142.229126 
138.294451 
134.505707 
130.861784 
127.362044 
124.006040 
120.793847 
117.726451 
114.804627 
112.030382 
109.408050 
106.941655 
104.634582 
102.490790 
100.514817 
98.713092 
97.094901 
95.668582 
94.441498 
93.420899 
92.612970 
92.024666 
91.665649 
91.544082 
91.666210 
92.037577 
92.663077 
93.546490 
94.690532 
96.096841 
97.765997 
99.697589 
101.890337 
104.342222 
107.050383 
110.011475 
113.222177 
116.679982 
120.382655 
124.327987 
128.513337 
132.936782 
137.597849 
142.497654 
147.638625 
153.024826 
158.663076 
164.563324 
170.738759 
177.206406 
183.987899 
191.110100 
198.605929 
206.515257 
214.885806 
223.774156 
233.246939 
243.382126 
254.270595 
266.018251 
278.748919 
292.608296 
307.769398 
324.439740 
342.870207 
363.364210 
386.282030 
412.024960 
440.947773 
473.189961 
506.753240 
536.465323 
549.293150 
541.252959 
526.880120 
503.042121 
429.766169 
378.080123 
420.443117 
465.622499 
487.042774 
490.340859 
494.646652 
488.193831 
473.653056 
443.028292 
429.204201 
427.340466 
415.903682 
404.884307 
408.974255 
402.338715 
394.956762 
404.660278 
405.362791 
401.084966 
402.348114 
397.175096 
396.326252 
395.882256 
389.800507 
378.756004 
376.818414 
380.812613 
375.193469 
367.376528 
362.337963 
355.177862 
345.925139 
331.291605 
323.624889 
322.046722 
315.322353 
308.476857 
305.208338 
288.403061 
284.344915 
283.071598 
264.964451 
261.768158 
264.072125 
260.362643 
245.806576 
217.744481 
202.324364 
212.881046 
227.926679 
237.031186 
229.144381 
218.541916 
201.432022 
177.922695 
160.431404 
142.995422 
131.824359 
118.108978 
104.471181 
112.249761 
133.862591 
141.165577 
133.195657 
125.275904 
124.263285 
121.871797 
115.273407 
105.615392 
95.062782 
84.153358 
75.594708 
68.656500 
54.221884 
35.866980 
29.332420 
29.459202 
28.733203 
26.999711 
24.366186 
20.946186 
18.865205 
47.039749 
58.169272 
23.020547 
19.178596 
16.473891 
13.872185 
13.365434 
14.062145 
14.069450 
13.087614 
12.193110 
11.974623 
11.402797 
9.944987 
8.411474 
309.621384 
300.035959 
290.781470 
281.846057 
273.218363 
264.887273 
256.841959 
249.071975 
241.567259 
234.318122 
227.315252 
220.549717 
214.012957 
207.696796 
201.593437 
195.695462 
189.995840 
184.487922 
179.165449 
174.022556 
169.053772 
164.254032 
159.618659 
155.143286 
150.823918 
146.657242 
142.640553 
138.771452 
135.047994 
131.468682 
128.032569 
124.739203 
121.588670 
118.581603 
115.718634 
113.001461 
110.433580 
108.018443 
105.759223 
103.659627 
101.723951 
99.958076 
98.370491 
96.968834 
95.759985 
94.751024 
93.948981 
93.360760 
92.994595 
92.858348 
92.958707 
93.301582 
93.892153 
94.734668 
95.832439 
97.187792 
98.802012 
100.675403 
102.807381 
105.196598 
107.840871 
110.737319 
113.882776 
117.274687 
120.910784 
124.788945 
128.906407 
133.260677 
137.850451 
142.675944 
147.738467 
153.040805 
158.588594 
164.390524 
170.458461 
176.808142 
183.460098 
190.440372 
197.781452 
205.523263 
213.714196 
222.412242 
231.686215 
241.617067 
252.299428 
263.843566 
276.377880 
290.052077 
305.041095 
321.549668 
339.816945 
360.119259 
382.766542 
408.082529 
436.369097 
467.801743 
502.756511 
535.564270 
550.773662 
539.723998 
526.282475 
524.286357 
518.639291 
449.430808 
371.366998 
375.468892 
413.844239 
455.690568 
490.525248 
500.273238 
497.543944 
479.115402 
453.430508 
451.279285 
430.638329 
414.887936 
416.779034 
412.724273 
399.770121 
399.486911 
398.149259 
399.078313 
406.176056 
403.431187 
401.793417 
397.407147 
388.811561 
382.698624 
384.655185 
390.255609 
384.505175 
379.843484 
374.374947 
370.787468 
364.221974 
358.279868 
352.818113 
352.967296 
346.400384 
339.357276 
331.183492 
311.019560 
298.620729 
288.009355 
268.838024 
264.357675 
269.472416 
269.659868 
259.146963 
230.959456 
221.427328 
234.854588 
244.324445 
241.537789 
227.595694 
205.024655 
180.212777 
162.268757 
150.933919 
145.762381 
133.911259 
113.836188 
102.990375 
99.220247 
86.772208 
63.727757 
45.262042 
43.020894 
42.600530 
37.413743 
32.872360 
32.262651 
34.765430 
36.333554 
36.360081 
35.659040 
34.360457 
33.237210 
33.026869 
33.451769 
33.627646 
32.667629 
29.858234 
25.594373 
31.346340 
74.018340 
33.645541 
14.568821 
14.506877 
13.373186 
11.592769 
11.574806 
12.842967 
13.542014 
13.297514 
12.833260 
12.450145 
11.716652 
10.342174 
9.137792 
308.420680 
298.881756 
289.675669 
280.790496 
272.214818 
263.937464 
255.947544 
248.234553 
240.788367 
233.599238 
226.657794 
219.955036 
213.482344 
207.231474 
201.194559 
195.364112 
189.733025 
184.294572 
179.042408 
173.970577 
169.073516 
164.346068 
159.783481 
155.381324 
151.135414 
147.042097 
143.098475 
139.302170 
135.651140 
132.143537 
128.778003 
125.553767 
122.470799 
119.529924 
116.732178 
114.078214 
111.569819 
109.210189 
107.002942 
104.951677 
103.060139 
101.333289 
99.778429 
98.403164 
97.214141 
96.218083 
95.421977 
94.832803 
94.458052 
94.305735 
94.382799 
94.694914 
95.247308 
96.045015 
97.092116 
98.391637 
99.945586 
101.755035 
103.820173 
106.140368 
108.714180 
111.539296 
114.612872 
117.932230 
121.495122 
125.299366 
129.342182 
133.620475 
138.132055 
142.875996 
147.852356 
153.062570 
158.510794 
164.204033 
170.152456 
176.370172 
182.876171 
189.695206 
196.858846 
204.406577 
212.386928 
220.858686 
229.892179 
239.570530 
249.991032 
261.266843 
273.528891 
286.928000 
301.637253 
317.854264 
335.802608 
355.730830 
377.906337 
402.603173 
430.086107 
460.662536 
495.700618 
531.506156 
555.625181 
549.315257 
524.448936 
511.435934 
517.378053 
524.816076 
472.650821 
368.503410 
336.414267 
375.340120 
423.827457 
463.679554 
486.955263 
485.065772 
466.040930 
472.657520 
462.377145 
434.894626 
441.339769 
433.066470 
415.200828 
397.156716 
394.271172 
398.632557 
411.537813 
406.146714 
407.975268 
406.420549 
401.991485 
402.455628 
406.989544 
412.454823 
409.215074 
407.983275 
408.593187 
412.982617 
415.641556 
417.282529 
408.388298 
398.006858 
392.118376 
389.228797 
381.170840 
369.754634 
361.479729 
356.105368 
351.466937 
356.819972 
363.924716 
360.314751 
350.277647 
329.400106 
326.355942 
334.860802 
328.189403 
298.720392 
265.724263 
233.506580 
201.870441 
177.817904 
147.483678 
120.062279 
98.604120 
76.560210 
69.853348 
63.208892 
44.892211 
29.578150 
31.872359 
30.955112 
29.980083 
31.042069 
32.968627 
35.419807 
38.659877 
42.042623 
44.027722 
43.833090 
42.165550 
40.137386 
39.279006 
39.286308 
39.076303 
37.396491 
33.465104 
28.220468 
45.814233 
78.135141 
20.108708 
13.516358 
13.533709 
12.459440 
10.994879 
11.030423 
12.377489 
12.974298 
13.272578 
13.406369 
12.933538 
11.916858 
10.827965 
10.152984 
307.088256 
297.601018 
288.448724 
279.619383 
271.101508 
262.883858 
254.955474 
247.305784 
239.924594 
232.802086 
225.928816 
219.295712 
212.894078 
206.715593 
200.752309 
194.996657 
189.441439 
184.079835 
178.905404 
173.912082 
169.094193 
164.446459 
159.964052 
155.642451 
151.477215 
147.464396 
143.600977 
139.884535 
136.312763 
132.883565 
129.595258 
126.446705 
123.437526 
120.568346 
117.840723 
115.254692 
112.810540 
110.510741 
108.359314 
106.359932 
104.515765 
102.830634 
101.310516 
99.963223 
98.795528 
97.813495 
97.023598 
96.432358 
96.047337 
95.877389 
95.929689 
96.208972 
96.720439 
97.469865 
98.462366 
99.701597 
101.190345 
102.930533 
104.923165 
107.168407 
109.665604 
112.413095 
115.408495 
118.649128 
122.132690 
125.856809 
129.818766 
134.014981 
138.442267 
143.098313 
147.981710 
153.092477 
158.432992 
164.008210 
169.826191 
175.898996 
182.243572 
188.882843 
195.846921 
203.174297 
210.913082 
219.122307 
227.873217 
237.250495 
247.353432 
258.297181 
270.214010 
283.254477 
297.588392 
313.405338 
330.914180 
350.340689 
371.922926 
395.906267 
422.552581 
452.245213 
485.499113 
521.947185 
550.499369 
551.995315 
525.089032 
497.764511 
487.198368 
496.129771 
512.531851 
502.043144 
409.694602 
310.213432 
309.625668 
368.986044 
415.382883 
429.470026 
439.607969 
477.157529 
481.920929 
455.580582 
461.090103 
457.556654 
434.746328 
410.039545 
397.218789 
406.903583 
410.857036 
398.668579 
404.371539 
411.821908 
411.888977 
410.689545 
410.279794 
406.379255 
406.729709 
403.381520 
405.963706 
406.474868 
403.220929 
399.668983 
388.347277 
372.888143 
369.457857 
374.876496 
371.383317 
364.677689 
368.136948 
377.072557 
373.001992 
374.645979 
375.836257 
357.167987 
335.542155 
306.840047 
310.687779 
319.490798 
309.159390 
282.253689 
257.473185 
233.514056 
213.297670 
196.053942 
179.538688 
165.484216 
157.340481 
151.664438 
146.367368 
130.499467 
108.390092 
80.630034 
61.181733 
56.733450 
61.093158 
60.575474 
53.017052 
43.104172 
39.452875 
42.670556 
45.898891 
46.213436 
43.680128 
41.495841 
40.737941 
40.767161 
40.266059 
38.644703 
34.420191 
28.581973 
56.671197 
71.902605 
17.694616 
14.642017 
14.282731 
12.735366 
11.078914 
10.982255 
12.075339 
12.421322 
12.827030 
13.436703 
12.986216 
11.923548 
11.344874 
11.345317 
305.624656 
296.194293 
287.101190 
278.333276 
269.878988 
261.727008 
253.866300 
246.286210 
238.976468 
231.927173 
225.128799 
218.572189 
212.248560 
206.149502 
200.266972 
194.593303 
189.121195 
183.843721 
178.754325 
173.846821 
169.115401 
164.554639 
160.159560 
155.925424 
151.847665 
147.922175 
144.145922 
140.516227 
137.030321 
133.685758 
130.480697 
127.413703 
124.483857 
121.691656 
119.038636 
116.524751 
114.149280 
111.913647 
109.821677 
107.877041 
106.082643 
104.441365 
102.958045 
101.640494 
100.495416 
99.528333 
98.744872 
98.150949 
97.754231 
97.564811 
97.590201 
97.834580 
98.302746 
99.001177 
99.935724 
101.110781 
102.529856 
104.195856 
106.110729 
108.275519 
110.690356 
113.354350 
116.265653 
119.421790 
122.820332 
126.458733 
130.334192 
134.442843 
138.780497 
143.343274 
148.128035 
153.133194 
158.359123 
163.808373 
169.486444 
175.402830 
181.571908 
188.014203 
194.757764 
201.839508 
209.306579 
217.217730 
225.644689 
234.673330 
244.404624 
254.955466 
266.459269 
279.066223 
292.943169 
308.272918 
325.252778 
344.092278 
365.010867 
388.239615 
414.039434 
442.730930 
474.468125 
511.048300 
543.454849 
554.843350 
534.627200 
507.319173 
495.532546 
483.426856 
473.354364 
487.719909 
508.754568 
452.029716 
315.273369 
267.766992 
308.054024 
328.602693 
365.987477 
432.729727 
446.613980 
434.933012 
445.641427 
468.986920 
461.106753 
447.342618 
431.311255 
443.055589 
437.255285 
420.544654 
417.077305 
423.467990 
411.298213 
397.923797 
383.555633 
379.104737 
377.363748 
380.479041 
375.199088 
367.889738 
362.390197 
365.445754 
363.438234 
344.648105 
348.554240 
358.344709 
347.744726 
332.999832 
341.322148 
340.404306 
329.484822 
321.683790 
318.791644 
297.980764 
269.606882 
253.446975 
255.710629 
273.245086 
264.428228 
236.036849 
216.606968 
201.559429 
182.978795 
179.473776 
174.465742 
173.830548 
180.840510 
179.531991 
170.835350 
169.864303 
167.428307 
155.398481 
141.214384 
128.208029 
122.359993 
113.214165 
96.083491 
79.738728 
65.603747 
54.756993 
48.677777 
44.755224 
40.947763 
37.993840 
37.562090 
38.015844 
38.399361 
37.839644 
33.798769 
28.719613 
64.880176 
63.878528 
17.784267 
16.250675 
15.416247 
13.281337 
11.200737 
10.764320 
11.424223 
11.570021 
12.025053 
13.087436 
12.972330 
12.053449 
11.954296 
12.579855 
304.030486 
294.662193 
285.633680 
276.932791 
268.547876 
260.467530 
252.680628 
245.176428 
237.944568 
230.975056 
224.258269 
217.784956 
211.546231 
205.533580 
199.738854 
194.154270 
188.772412 
183.586227 
178.589029 
173.774494 
169.136666 
164.669955 
160.369126 
156.229220 
152.245476 
148.413916 
144.731448 
141.194959 
137.801051 
134.547017 
131.430770 
128.450668 
125.605350 
122.894791 
120.320174 
117.882181 
115.579572 
113.412366 
111.383120 
109.495611 
107.752808 
106.156989 
104.712314 
103.426146 
102.304817 
101.353249 
100.576503 
99.979889 
99.570859 
99.360274 
99.356192 
99.563031 
99.985563 
100.630582 
101.504371 
102.611884 
103.957471 
105.544935 
107.377256 
109.456536 
111.783723 
114.358707 
117.180373 
120.246688 
123.555055 
127.102688 
130.886617 
134.902829 
139.146126 
143.611076 
148.292710 
153.187575 
158.293615 
163.610626 
169.141112 
174.891448 
180.872856 
187.102832 
193.606719 
200.419232 
207.585989 
215.165041 
223.228282 
231.862638 
241.170860 
251.271894 
262.300830 
274.408372 
287.759790 
302.533344 
318.918287 
337.112830 
357.323453 
379.768322 
404.685925 
432.322808 
463.008093 
497.723825 
532.034295 
550.813303 
541.562813 
518.423270 
505.094177 
496.815446 
477.042462 
458.110566 
462.711149 
504.892994 
496.105770 
390.465208 
294.593780 
264.153721 
282.790380 
329.513131 
344.843102 
350.586969 
383.598500 
427.934798 
451.660656 
453.793448 
449.425448 
465.957937 
471.177695 
464.264951 
458.434657 
458.151574 
432.885487 
412.382796 
393.659465 
382.914403 
386.585756 
389.716543 
378.171141 
371.969439 
363.314375 
369.326250 
371.924877 
356.505502 
354.780666 
370.911437 
357.256631 
328.800659 
347.039289 
346.166781 
324.376904 
314.199492 
318.255128 
303.640153 
281.803902 
275.423862 
277.731219 
288.566198 
282.067529 
252.174189 
230.202102 
212.087194 
196.810023 
193.649725 
188.185986 
186.860371 
200.553898 
199.605205 
186.295941 
185.288454 
189.333788 
185.600461 
184.500202 
178.721145 
174.875718 
171.914437 
155.769187 
138.980036 
123.368439 
105.567287 
82.955878 
57.149898 
41.300312 
36.914451 
34.436838 
33.366343 
34.144218 
34.314194 
32.019521 
27.251820 
71.248074 
57.474262 
18.162912 
17.555354 
16.538201 
14.019279 
11.495734 
10.552319 
10.733908 
10.762352 
11.316790 
12.751725 
13.214851 
12.806645 
13.163707 
14.124566 
302.306415 
293.005390 
284.046871 
275.418606 
267.108850 
259.106097 
251.399125 
243.977091 
236.829529 
229.946343 
223.317802 
216.934543 
210.787566 
204.868236 
199.168281 
193.679788 
188.395205 
183.307337 
178.409347 
173.694753 
169.157433 
164.791613 
160.591820 
156.552850 
152.669856 
148.938738 
145.356117 
141.918428 
138.622042 
135.463988 
132.441952 
129.553830 
126.797925 
124.173400 
121.680875 
119.321716 
117.095138 
114.999725 
113.036240 
111.208117 
109.518519 
107.969581 
106.564951 
105.311396 
104.214575 
103.278868 
102.509026 
101.910043 
101.488899 
101.256265 
101.220580 
101.387274 
101.761558 
102.350428 
103.160573 
104.197492 
105.466305 
106.971479 
108.717074 
110.706272 
112.940949 
115.421840 
118.148687 
121.120149 
124.333643 
127.786052 
131.474111 
135.393745 
139.538833 
143.902332 
148.477532 
153.258776 
158.241321 
163.421746 
168.799097 
174.376041 
180.160004 
186.164762 
192.412226 
198.934221 
205.774265 
212.989298 
220.651227 
228.848135 
237.684937 
247.283379 
257.781371 
269.331679 
282.099982 
296.262438 
312.003040 
329.511456 
348.982419 
370.617677 
394.628198 
421.242550 
450.749126 
483.079484 
517.394365 
542.808294 
545.398697 
525.967289 
506.024146 
502.749404 
493.963290 
478.491646 
459.090901 
458.860680 
483.538622 
481.737505 
446.598264 
394.588399 
343.499700 
283.732725 
248.277862 
252.205700 
304.022101 
341.567961 
379.525187 
392.057228 
401.430022 
428.537016 
452.596899 
461.626747 
462.331066 
463.245317 
453.065315 
442.163596 
436.747510 
420.973914 
423.477059 
423.049240 
409.410477 
405.694348 
401.161001 
387.799770 
388.846292 
381.680036 
378.513685 
394.497843 
378.241963 
358.081033 
368.894918 
376.510461 
346.029416 
336.429965 
335.238209 
328.107162 
319.733369 
318.307327 
318.948364 
320.449024 
306.277088 
274.774206 
254.651143 
242.218375 
230.743586 
225.444403 
209.734530 
204.001831 
222.903259 
237.552414 
224.816701 
223.794558 
222.083859 
216.991007 
214.857053 
205.438647 
195.206216 
207.978536 
211.211808 
196.926896 
180.713992 
163.625572 
141.534104 
103.934215 
72.023591 
66.016729 
57.573741 
41.158384 
28.474082 
28.136031 
25.517361 
23.083570 
72.717054 
55.020574 
19.359175 
19.173366 
17.901080 
15.005012 
11.995020 
10.437070 
10.118272 
10.073723 
10.830543 
12.539344 
13.460139 
13.852585 
15.208015 
16.754387 
300.453173 
291.224619 
282.341502 
273.791463 
265.562648 
257.643444 
250.022516 
242.688908 
235.632039 
228.841693 
222.308017 
216.021520 
209.973073 
204.153904 
198.555598 
193.170096 
187.989689 
183.007020 
178.215082 
173.607213 
169.177096 
164.918751 
160.826518 
156.895024 
153.119276 
149.494836 
146.017733 
142.684076 
139.490251 
136.433173 
133.510146 
130.718698 
128.056665 
125.522308 
123.115671 
120.838238 
118.689995 
116.668554 
114.773318 
113.006789 
111.372090 
109.871296 
108.507794 
107.287592 
106.215703 
105.296071 
104.533290 
103.932269 
103.499428 
103.244328 
103.176002 
103.300812 
103.624710 
104.154755 
104.898184 
105.861302 
107.050017 
108.469456 
110.124531 
112.019480 
114.157190 
116.539309 
119.166606 
122.038485 
125.152660 
128.505774 
132.094373 
135.914209 
139.958253 
144.217739 
148.684391 
153.350199 
158.207388 
163.249003 
168.470111 
173.869028 
179.448652 
185.218273 
191.195563 
197.408683 
203.898403 
210.720145 
217.945740 
225.664691 
233.984746 
243.031579 
252.947545 
263.889489 
276.025778 
289.532802 
304.591437 
321.384145 
340.093519 
360.902626 
383.997896 
409.577389 
437.822501 
468.746545 
502.959322 
534.619953 
549.010687 
535.280487 
508.215187 
501.797468 
500.568664 
490.414088 
465.860948 
451.518159 
454.474317 
456.036950 
450.654151 
454.876477 
456.672692 
430.124245 
360.499988 
310.959097 
309.847775 
297.531280 
289.878404 
292.444903 
304.644592 
336.876220 
369.082426 
387.420402 
399.910741 
414.066106 
429.681018 
434.503964 
442.738490 
438.706323 
443.554797 
443.789937 
432.516446 
438.715409 
442.943779 
410.075038 
411.622962 
410.704086 
398.591863 
409.938188 
398.788779 
386.762116 
391.646158 
396.161350 
371.889891 
361.535093 
360.429533 
356.231634 
354.106259 
353.088836 
353.386270 
342.812979 
317.744185 
290.983868 
284.492213 
285.627513 
280.535771 
265.985021 
243.122603 
227.061729 
251.460409 
272.451682 
267.260890 
260.367921 
254.512438 
248.114745 
248.626525 
239.738668 
226.309889 
238.905860 
244.529544 
215.080223 
180.753243 
167.914924 
167.404602 
161.496353 
134.563412 
123.625626 
110.050542 
88.106599 
58.687503 
38.802870 
25.235748 
18.579701 
65.240414 
57.244751 
23.200084 
22.557130 
19.895548 
15.789506 
12.110729 
9.947566 
9.278309 
9.345065 
10.429125 
12.258419 
13.355215 
14.270045 
17.110553 
20.060045 
298.471558 
289.320682 
280.518377 
272.052165 
263.910073 
256.080366 
248.551585 
241.312647 
234.352841 
227.661815 
221.229579 
215.046500 
209.103297 
203.391045 
197.901169 
192.625440 
187.555976 
182.685235 
178.006016 
173.511455 
169.195019 
165.050505 
161.072037 
157.254118 
153.591591 
150.079488 
146.713237 
143.488767 
140.402502 
137.451045 
134.631258 
131.940402 
129.376023 
126.935989 
124.619400 
122.426740 
120.358374 
118.412137 
116.587036 
114.884101 
113.305884 
111.854418 
110.532796 
109.346333 
108.299527 
107.396175 
106.640652 
106.037776 
105.593447 
105.315814 
105.214268 
105.296315 
105.568568 
106.038024 
106.712294 
107.598658 
108.703911 
110.034070 
111.594914 
113.391626 
115.428098 
117.707017 
120.230296 
122.998109 
126.008780 
129.258912 
132.744953 
136.462473 
140.403470 
144.557658 
148.914940 
153.465077 
158.197018 
163.099936 
168.164412 
173.383730 
178.755479 
184.283569 
189.980519 
195.869933 
201.989075 
208.391350 
215.148382 
222.351479 
230.112157 
238.561529 
247.848390 
258.136036 
269.598017 
282.413307 
296.761509 
312.818813 
330.755318 
350.734085 
372.911881 
397.435967 
424.428117 
454.041658 
487.027330 
521.361664 
544.984608 
540.364077 
516.539323 
500.007181 
492.967563 
485.488401 
472.501973 
458.327754 
460.042242 
457.904624 
438.370620 
433.147971 
452.657997 
459.850119 
461.281597 
452.264650 
441.468563 
408.150737 
361.994816 
313.207119 
269.284398 
254.177793 
265.239841 
282.177835 
307.968539 
333.849335 
361.045243 
375.121039 
389.713038 
408.278587 
423.500396 
428.587549 
422.246724 
438.630647 
450.972060 
424.936133 
428.086055 
430.537735 
415.243297 
423.365707 
417.125129 
412.785278 
410.417167 
409.724885 
392.024219 
383.534195 
384.420328 
382.092677 
377.265753 
371.454416 
373.280571 
349.262992 
324.551442 
304.633095 
312.377302 
322.075121 
322.057239 
304.569598 
288.152837 
272.398627 
288.955386 
310.552650 
303.835426 
292.497516 
287.128668 
278.150978 
270.914001 
264.715025 
254.705419 
258.017256 
259.298427 
234.873066 
201.098111 
190.024621 
193.255410 
203.030414 
189.245372 
172.267036 
157.448129 
138.998734 
113.832531 
86.524595 
66.015975 
49.198483 
60.124808 
60.345576 
31.809837 
27.844242 
21.792967 
15.499890 
11.014040 
8.769014 
8.229058 
8.718521 
10.173567 
12.212873 
13.437809 
14.194580 
16.941510 
19.838850 
296.362434 
287.294449 
278.578368 
270.201584 
262.151992 
254.417723 
246.987179 
239.849135 
232.992732 
226.407470 
220.083202 
214.010131 
208.178812 
202.580144 
197.205370 
192.046073 
187.094172 
182.341920 
177.781902 
173.407027 
169.210530 
165.185965 
161.327214 
157.628569 
154.084548 
150.689835 
147.439445 
144.329230 
141.355321 
138.513821 
135.801165 
133.214365 
130.750806 
128.408186 
126.184718 
124.079753 
122.093055 
120.223590 
118.470094 
116.832545 
115.312383 
113.911380 
112.632300 
111.479651 
110.458009 
109.571098 
108.822938 
108.218245 
107.762448 
107.462427 
107.327414 
107.366124 
107.585903 
107.993719 
108.597379 
109.404924 
110.424039 
111.661847 
113.125070 
114.819782 
116.750869 
118.922162 
121.336833 
123.996129 
126.899119 
130.042740 
133.423389 
137.036525 
140.873240 
144.921823 
149.170464 
153.606438 
158.215334 
162.982148 
167.892529 
172.934070 
178.098182 
183.382403 
188.793022 
194.348033 
200.080259 
206.040394 
212.299649 
218.951549 
226.112510 
233.920918 
242.534426 
252.125524 
262.875766 
274.969263 
288.586290 
303.897814 
321.061582 
340.219958 
361.498363 
385.002582 
410.823122 
439.093093 
470.060166 
503.556188 
531.363440 
540.240573 
530.466738 
511.644375 
493.131171 
483.700952 
479.121211 
467.141801 
463.358534 
464.523475 
454.487075 
447.852008 
455.920399 
464.384761 
446.420929 
426.171551 
411.184823 
419.911299 
437.179782 
438.158610 
409.986032 
368.039964 
313.411209 
269.897324 
265.988601 
272.393544 
284.681850 
295.282782 
312.461192 
342.429661 
367.243190 
376.475170 
376.661631 
396.057998 
410.533715 
412.444083 
421.263094 
420.049236 
407.669110 
426.906026 
435.581469 
430.683050 
433.952237 
423.490943 
409.061330 
399.916038 
401.635992 
398.360218 
385.732275 
385.742164 
386.963608 
365.492008 
343.151410 
336.811024 
341.286836 
346.001434 
342.947864 
338.698715 
336.103210 
327.040085 
323.210430 
338.810003 
328.075441 
317.888787 
314.959411 
307.558191 
294.378027 
289.681294 
280.712032 
272.506812 
268.566067 
261.425683 
244.830987 
239.992319 
241.401146 
236.940480 
213.297354 
182.743083 
155.133543 
141.700964 
122.156495 
105.450390 
94.617400 
83.011829 
73.749185 
59.035354 
40.515804 
31.137969 
21.236557 
13.585357 
9.699225 
8.593495 
8.692391 
9.412008 
10.991218 
13.118372 
14.585429 
14.859091 
16.211043 
17.918773 
294.126738 
285.146856 
276.522413 
268.240658 
260.289340 
252.656440 
245.330206 
238.299255 
231.552565 
225.079468 
218.869640 
212.913105 
207.200227 
201.721710 
196.468594 
191.432249 
186.604376 
181.976998 
177.542461 
173.293430 
169.222886 
165.324126 
161.590768 
158.016763 
154.596287 
151.323663 
148.193850 
145.202515 
142.345245 
139.617532 
137.015546 
134.536005 
132.176041 
129.933110 
127.804841 
125.789589 
123.886592 
122.095551 
120.414946 
118.844157 
117.383542 
116.034377 
114.798612 
113.680047 
112.683666 
111.813294 
111.072501 
110.465893 
109.998547 
109.676590 
109.508301 
109.503325 
109.669784 
110.015194 
110.547322 
111.274724 
112.205916 
113.349048 
114.711870 
116.301419 
118.123480 
120.183174 
122.484913 
125.031302 
127.822355 
130.855735 
134.128068 
137.634676 
141.366254 
145.309859 
149.451816 
153.776819 
158.267043 
162.903008 
167.664955 
172.534164 
177.495047 
182.537656 
187.660774 
192.875457 
198.208870 
203.708110 
209.443586 
215.511410 
222.034183 
229.159681 
237.057231 
245.911788 
255.916222 
267.262731 
280.134445 
294.698377 
311.100477 
329.462965 
349.883611 
372.437580 
397.187520 
424.200872 
453.468877 
484.968318 
515.041150 
536.453304 
540.483534 
526.455339 
502.947378 
492.673709 
483.782672 
462.664002 
456.819198 
463.707637 
459.777595 
445.122558 
439.621515 
454.798503 
463.017144 
440.441892 
398.236559 
371.815400 
382.537250 
402.409702 
427.258808 
443.929441 
432.447542 
404.695198 
365.880644 
327.474397 
293.953087 
284.024037 
285.513821 
295.989064 
305.495225 
314.983827 
316.383710 
326.191343 
337.016569 
362.265066 
380.464756 
374.040051 
371.163929 
405.533586 
422.966214 
419.996934 
433.349752 
430.677979 
418.708247 
411.990252 
410.159578 
404.622967 
391.909565 
405.934218 
400.608880 
391.329479 
373.692542 
385.787843 
369.451866 
375.297829 
367.345647 
370.949476 
379.151585 
365.061565 
340.533693 
353.392373 
339.568269 
336.597116 
335.650097 
335.547386 
319.733815 
311.820777 
308.979254 
293.438642 
291.675572 
290.880123 
282.110787 
274.520041 
259.896844 
232.867510 
204.508953 
169.171720 
145.906298 
125.354664 
91.208797 
61.587507 
49.712361 
50.245733 
52.561759 
43.602832 
36.652142 
27.296177 
18.467202 
14.013550 
13.109890 
12.973203 
12.783889 
12.918180 
14.000729 
15.875633 
17.415530 
16.948342 
16.534168 
16.634450 
291.765476 
282.878916 
274.351525 
266.170395 
258.323116 
250.797504 
243.581636 
236.663952 
230.033250 
223.678670 
217.589695 
211.756146 
206.168176 
200.816270 
195.691240 
190.784223 
186.086673 
181.590362 
177.287375 
173.170108 
169.231267 
165.463867 
161.861240 
158.416994 
155.124958 
151.979264 
148.974597 
146.106142 
143.368925 
140.758257 
138.270052 
135.900706 
133.646890 
131.505653 
129.474312 
127.550654 
125.733368 
124.021762 
122.414586 
120.911085 
119.511099 
118.214854 
117.023508 
115.939939 
114.969272 
114.115445 
113.382007 
112.773363 
112.294473 
111.951025 
111.750304 
111.701762 
111.814528 
112.096744 
112.556655 
113.203017 
114.044969 
115.091617 
116.351640 
117.833203 
119.543214 
121.488011 
123.673255 
126.102941 
128.778304 
131.697960 
134.859217 
138.257192 
141.882543 
145.721794 
149.759717 
153.978201 
158.355946 
162.868915 
167.491450 
172.197800 
176.964469 
181.772891 
186.612813 
191.486690 
196.414476 
201.438433 
206.627580 
212.080882 
217.928403 
224.329716 
231.469175 
239.548119 
248.774713 
259.352672 
271.470447 
285.292429 
300.953225 
318.555468 
338.170942 
359.845133 
383.603928 
409.447739 
437.314496 
466.895764 
497.756833 
525.199149 
540.566705 
534.003969 
510.447396 
492.551961 
479.997888 
467.239039 
467.955222 
466.327662 
450.679675 
426.779203 
410.364737 
429.061785 
455.334749 
447.409636 
408.746227 
376.571497 
362.249150 
374.155340 
392.360783 
410.861304 
423.351233 
426.176534 
421.546220 
410.045465 
395.001565 
381.130915 
365.845307 
347.123592 
322.137534 
314.199907 
304.970839 
285.539877 
279.268683 
301.794247 
321.779363 
312.396606 
317.694822 
358.774545 
365.804579 
364.599940 
387.688834 
400.903914 
400.358494 
405.961184 
401.168487 
395.478723 
397.668174 
418.427349 
409.017784 
400.882725 
400.551825 
416.554169 
397.170085 
400.379262 
401.574084 
402.194165 
411.092036 
388.173774 
365.184507 
365.908766 
358.731077 
345.755088 
350.522850 
349.501565 
339.952542 
330.009934 
330.940102 
321.142939 
315.844161 
308.852978 
295.988696 
285.106651 
262.795344 
224.821350 
195.937549 
171.447348 
156.494775 
138.633068 
94.751107 
62.272567 
56.867966 
72.731438 
78.788223 
48.091227 
30.899824 
25.530658 
23.707609 
23.885818 
23.513340 
21.865703 
20.075363 
19.209423 
19.845118 
21.350603 
22.368549 
20.252209 
18.054437 
16.901846 
289.279732 
280.491711 
272.066785 
263.991875 
256.254393 
248.841973 
241.742504 
234.944231 
228.435748 
222.205987 
216.244213 
210.540018 
205.083324 
199.864370 
194.873719 
190.102245 
185.541133 
181.181879 
177.016283 
173.036446 
169.234777 
165.603982 
162.137073 
158.827351 
155.668399 
152.654119 
149.778706 
147.036683 
144.422695 
141.932002 
139.560324 
137.303635 
135.158136 
133.120470 
131.187636 
129.356998 
127.626746 
125.995531 
124.462328 
123.026450 
121.687337 
120.444618 
119.298717 
118.251655 
117.307644 
116.470694 
115.744673 
115.133990 
114.643713 
114.279228 
114.047101 
113.955903 
114.015119 
114.233884 
114.620910 
115.185555 
115.937206 
116.885822 
118.041078 
119.412244 
121.007604 
122.834648 
124.900255 
127.209840 
129.766098 
132.569057 
135.616694 
138.904287 
142.422672 
146.158471 
150.095174 
154.212314 
158.485190 
162.885230 
167.380590 
171.937824 
176.524430 
181.111776 
185.678959 
190.217814 
194.739032 
199.278393 
203.902509 
208.713202 
213.849316 
219.484955 
225.823476 
233.087348 
241.504815 
251.295163 
262.654868 
275.746818 
290.694127 
307.578840 
326.445094 
347.304765 
370.141234 
394.903645 
421.477060 
449.642439 
479.601550 
508.905985 
530.280184 
535.123847 
525.032974 
507.899776 
486.265065 
472.679047 
466.926908 
459.708174 
447.251145 
427.474813 
399.517072 
395.163059 
424.493100 
440.486274 
430.665521 
406.767868 
392.583319 
394.880583 
406.246233 
406.651175 
406.716065 
409.811029 
411.943050 
411.140856 
408.407425 
414.423539 
409.112672 
406.541482 
401.563731 
406.333753 
384.116765 
352.805509 
332.783366 
319.469488 
314.362836 
295.087659 
293.043602 
312.859352 
297.296391 
293.893825 
318.977250 
344.342262 
352.936805 
364.750070 
361.109158 
359.800958 
380.143306 
403.044865 
399.169931 
389.203674 
404.930586 
416.157094 
408.929095 
411.577178 
419.255823 
413.686238 
421.110526 
405.190008 
391.170283 
388.825199 
376.248108 
359.302592 
363.183959 
359.804874 
358.336262 
346.662866 
349.417087 
342.409621 
335.886039 
327.396583 
313.939598 
309.553523 
289.278077 
254.916708 
229.707048 
212.876632 
202.591942 
189.024621 
139.949861 
104.769995 
102.410522 
129.798613 
136.377340 
87.702482 
53.076035 
43.563474 
42.725230 
42.613286 
39.413348 
34.403485 
30.178606 
28.067053 
28.216950 
29.482552 
29.293861 
24.750917 
20.656901 
18.295263 
286.670666 
277.986403 
269.669353 
261.706249 
254.084311 
246.790972 
239.813911 
233.141158 
226.761082 
220.662382 
214.834081 
209.265520 
203.946361 
198.866575 
194.016445 
189.386558 
184.967808 
180.751384 
176.728778 
172.891776 
169.232460 
165.743209 
162.416694 
159.245885 
156.224130 
153.345015 
150.602345 
147.989990 
145.502347 
143.134493 
140.881825 
138.739868 
136.704469 
134.771905 
132.938854 
131.202419 
129.560187 
128.010316 
126.551777 
125.183875 
123.905615 
122.716421 
121.616590 
120.607318 
119.691382 
118.872320 
118.154232 
117.541747 
117.040232 
116.655169 
116.392567 
116.259990 
116.266722 
116.422198 
116.736092 
117.218373 
117.879101 
118.728761 
119.777929 
121.036927 
122.515384 
124.222039 
126.164974 
128.351194 
130.785101 
133.468243 
136.399740 
139.575406 
142.986511 
146.620230 
150.459200 
154.480981 
158.657737 
162.956623 
167.339780 
171.765676 
176.191643 
180.577353 
184.889149 
189.105992 
193.226722 
197.278200 
201.323002 
205.465450 
209.854470 
214.681804 
220.174582 
226.582179 
234.158721 
243.143831 
253.744925 
266.124169 
280.392011 
296.607498 
314.783788 
334.895883 
356.886351 
380.665428 
406.107530 
433.102606 
461.540313 
491.252251 
518.306121 
536.413773 
538.225937 
518.805697 
491.764707 
478.457932 
472.648448 
454.203024 
441.587160 
439.615856 
420.730253 
401.029060 
399.742695 
421.334475 
437.059098 
425.207366 
404.386972 
399.040202 
399.284334 
401.851885 
411.240960 
410.336458 
402.102628 
387.778819 
378.060307 
381.756863 
383.818486 
390.861522 
397.975807 
407.387060 
395.184606 
391.713260 
393.969160 
388.052051 
377.381260 
355.725770 
350.190424 
342.391321 
305.255712 
285.605521 
301.158151 
309.477148 
305.985041 
308.148798 
310.199086 
309.414603 
333.778740 
356.556977 
362.916276 
361.388985 
376.763287 
384.652280 
389.606633 
395.571517 
397.557368 
394.236311 
397.932927 
393.142824 
389.836678 
390.207945 
380.097369 
371.275208 
369.837080 
366.882235 
364.723710 
357.623652 
358.555314 
348.831345 
341.664333 
335.733470 
328.066180 
326.741950 
310.367075 
287.191097 
270.983478 
260.561774 
256.802363 
243.168228 
207.839858 
175.937982 
175.213427 
198.771543 
198.521643 
141.633783 
91.814888 
72.120692 
67.883421 
65.742434 
58.882146 
50.240289 
43.467898 
39.662888 
38.576023 
39.148427 
37.537681 
30.469194 
25.034979 
22.137899 
283.939521 
275.364231 
267.160463 
259.314746 
251.814086 
244.645695 
237.797023 
231.255859 
225.010326 
219.048865 
213.360229 
207.933484 
202.758002 
197.823459 
193.119833 
188.637398 
184.366725 
180.298676 
176.424409 
172.735371 
169.223300 
165.880227 
162.698475 
159.670673 
156.789798 
154.049129 
151.442094 
148.962255 
146.603792 
144.361367 
142.229861 
140.204422 
138.280640 
136.454490 
134.722328 
133.080926 
131.527477 
130.059828 
128.676660 
127.377038 
126.159661 
125.023964 
123.970156 
122.998920 
122.112135 
121.312595 
120.603926 
119.990518 
119.478470 
119.073300 
118.780837 
118.608156 
118.563944 
118.657402 
118.898765 
119.298733 
119.868209 
120.618437 
121.560845 
122.706548 
124.066367 
125.650219 
127.467655 
129.527503 
131.835974 
134.396150 
137.208494 
140.270270 
143.573953 
147.106999 
150.851793 
154.784699 
158.875343 
163.086634 
167.375020 
171.691038 
175.981067 
180.191283 
184.272999 
188.189356 
191.924050 
195.491687 
198.948240 
202.399535 
206.005780 
209.979997 
214.578852 
220.085716 
226.787695 
234.950397 
244.795282 
256.483994 
270.112115 
285.712010 
303.262135 
322.698597 
343.925324 
366.822228 
391.260077 
417.125229 
444.316523 
472.986291 
502.275220 
526.752754 
538.942069 
530.282147 
508.533896 
495.885927 
485.971802 
472.543564 
461.302429 
450.252180 
426.445861 
407.878992 
385.305929 
394.022741 
424.945058 
435.434759 
420.818950 
398.130822 
387.988675 
388.147528 
401.250600 
402.786195 
401.948999 
393.146764 
379.792864 
380.067476 
379.629222 
377.410382 
385.517080 
384.871438 
376.912407 
389.223781 
393.305090 
389.982741 
391.897012 
390.708002 
393.417702 
391.546199 
369.690692 
358.697122 
354.344641 
326.903668 
287.319288 
282.750232 
295.538189 
299.653806 
308.042799 
317.711784 
328.619125 
332.261812 
332.305157 
332.684263 
346.032106 
352.520542 
343.447780 
342.972269 
343.930047 
343.932521 
350.537884 
351.542223 
351.807168 
352.553795 
351.119253 
343.789377 
339.889908 
342.887968 
344.915034 
336.067774 
326.141950 
325.857617 
323.644018 
323.225015 
313.612096 
301.285183 
296.419414 
294.700218 
294.488647 
288.845551 
276.257195 
261.904128 
257.486373 
266.987803 
262.930032 
208.480844 
141.945358 
105.464401 
93.589367 
88.159098 
78.805722 
68.262785 
59.644023 
53.584746 
50.135790 
49.490991 
47.029622 
38.251598 
31.632053 
28.214384 
281.087619 
272.626516 
264.541432 
256.818670 
249.445006 
242.407408 
235.693072 
229.289525 
223.184614 
217.366496 
211.823629 
206.544773 
201.518983 
196.735611 
192.184301 
187.854985 
183.737886 
179.823516 
176.102673 
172.566444 
169.206206 
166.013628 
162.980677 
160.099627 
157.363054 
154.763876 
152.295193 
149.950404 
147.723359 
145.608297 
143.599688 
141.692266 
139.881347 
138.162633 
136.532216 
134.986558 
133.522530 
132.137624 
130.830186 
129.598990 
128.442807 
127.360982 
126.353267 
125.419958 
124.562611 
123.783994 
123.086642 
122.474313 
121.953148 
121.528966 
121.207627 
120.996119 
120.902713 
120.936164 
121.106723 
121.425541 
121.904074 
122.554672 
123.389603 
124.421065 
125.660874 
127.120050 
128.809728 
130.740343 
132.920285 
135.354388 
138.044803 
140.990416 
144.185556 
147.618712 
151.272409 
155.122782 
159.137728 
163.276697 
167.490479 
171.721782 
175.905790 
179.973899 
183.859753 
187.507086 
190.880184 
193.976907 
196.842790 
199.583247 
202.370678 
205.443567 
209.095263 
213.652000 
219.442608 
226.765360 
235.858958 
246.883930 
259.917421 
274.960241 
291.951727 
310.786870 
331.331654 
353.436322 
376.947203 
401.710868 
427.585708 
454.460223 
482.608661 
509.919358 
528.022263 
529.910722 
521.754718 
512.100657 
499.931473 
482.534550 
470.992462 
458.143811 
441.747535 
423.809634 
390.276485 
379.063001 
399.152135 
425.294812 
440.022632 
427.451995 
406.466083 
394.706794 
398.065707 
402.154998 
410.295649 
403.646923 
391.729106 
385.839158 
382.046852 
383.288279 
386.485795 
378.719914 
378.278174 
386.846574 
378.175129 
369.752723 
377.679328 
381.841452 
383.222116 
391.865548 
389.820097 
378.389529 
363.360023 
332.816903 
301.657094 
315.144708 
354.134373 
357.263157 
339.688649 
335.282915 
340.927872 
336.003510 
318.456291 
309.445438 
321.320574 
314.321334 
299.197055 
289.141902 
281.236661 
279.704234 
288.116498 
290.111534 
293.957684 
298.704775 
297.648200 
284.735420 
284.342336 
292.783975 
301.008093 
295.120775 
284.381429 
289.914258 
294.330097 
298.848243 
299.880157 
296.620670 
299.602595 
306.367890 
309.151791 
315.276879 
323.566011 
332.656910 
320.581466 
314.562392 
315.145486 
279.221434 
204.121671 
144.204514 
117.615502 
106.456042 
96.426927 
85.876604 
76.117416 
67.821561 
61.856581 
60.297853 
57.697369 
47.618833 
39.701388 
35.848527 
278.116374 
269.774665 
261.813657 
254.219408 
246.978438 
240.077450 
233.503361 
227.243408 
221.285136 
215.616387 
210.225295 
205.100283 
200.230061 
195.603627 
191.210259 
187.039523 
183.081266 
179.325622 
175.763011 
172.384139 
169.180007 
166.141908 
163.261441 
160.530510 
157.941324 
155.486406 
153.158553 
150.950924 
148.857063 
146.870948 
144.986608 
143.198406 
141.501297 
139.890785 
138.362726 
136.913313 
135.539169 
134.237448 
133.006034 
131.843397 
130.748582 
129.720904 
128.759649 
127.864502 
127.036980 
126.280023 
125.595655 
124.986883 
124.459126 
124.017959 
123.669198 
123.420332 
123.279310 
123.254988 
123.357363 
123.597392 
123.986645 
124.538232 
125.265472 
126.181967 
127.300522 
128.633547 
130.193423 
131.992510 
134.040706 
136.345497 
138.910970 
141.738061 
144.823147 
148.156455 
151.721683 
155.495378 
159.445073 
163.527539 
167.688939 
171.864088 
175.977129 
179.943830 
183.677699 
187.098860 
190.146625 
192.796102 
195.076963 
197.090878 
199.022846 
201.141678 
203.786242 
207.336768 
212.174686 
218.638843 
226.988331 
237.380747 
249.869486 
264.417325 
280.919132 
299.225935 
319.165339 
340.556696 
363.220112 
386.981096 
411.677401 
437.178313 
463.336607 
489.561834 
511.674130 
524.726197 
527.662161 
520.787118 
504.988146 
489.690987 
474.902120 
464.279045 
450.542631 
432.042740 
409.483506 
396.874149 
399.439248 
403.721611 
411.799997 
415.144240 
410.502333 
414.542355 
409.806512 
410.941259 
413.289791 
399.687436 
384.408792 
374.346439 
367.293042 
373.924796 
378.854962 
373.732038 
377.638493 
386.366830 
376.266328 
379.084394 
387.748739 
389.229547 
383.123267 
386.272583 
383.428758 
359.903672 
342.466870 
336.927162 
339.658411 
375.864900 
412.606620 
388.073162 
352.377753 
342.964227 
353.616226 
357.796107 
346.041936 
347.431420 
357.820380 
352.717521 
331.691738 
320.203794 
303.477652 
287.361273 
278.424443 
268.761624 
262.233136 
262.145877 
242.123422 
222.969921 
222.504296 
232.194125 
242.175992 
235.441576 
226.274221 
229.905758 
239.111045 
248.822407 
264.030430 
269.713714 
278.199341 
292.306247 
302.613686 
312.846795 
333.817651 
359.247701 
348.012705 
332.874330 
343.994504 
340.325872 
266.653761 
177.191703 
133.385433 
117.909467 
109.119438 
99.850713 
90.233086 
81.181928 
74.750744 
72.610382 
69.390254 
57.443638 
47.798133 
43.486993 
275.027285 
266.810171 
258.978621 
251.518425 
244.415827 
237.657235 
231.229261 
225.118824 
219.313136 
213.799695 
208.566277 
203.600938 
198.892012 
194.428107 
190.198113 
186.191196 
182.396804 
178.804668 
175.404808 
172.187534 
169.143453 
166.263473 
163.538814 
160.961005 
158.521896 
156.213641 
154.028765 
151.960117 
150.000987 
148.145029 
146.385978 
144.717840 
143.135214 
141.633450 
140.208183 
138.855379 
137.571431 
136.353223 
135.198197 
134.104527 
133.071134 
132.097512 
131.182816 
130.326402 
129.529276 
128.794269 
128.123517 
127.520087 
126.988225 
126.532657 
126.159039 
125.874962 
125.688533 
125.608641 
125.645506 
125.809881 
126.113171 
126.568439 
127.189616 
127.991612 
128.988523 
130.194282 
131.622888 
133.288039 
135.201613 
137.373920 
139.811443 
142.517174 
145.490203 
148.723490 
152.202676 
155.905256 
159.799165 
163.840439 
167.971797 
172.121571 
176.203155 
180.116406 
183.752506 
187.003321 
189.776418 
192.015991 
193.727994 
195.005061 
196.044255 
197.150312 
198.718794 
201.198194 
205.036173 
210.621451 
218.236238 
228.031542 
240.029368 
254.146057 
270.225561 
288.071792 
307.473849 
328.222699 
350.120324 
372.984555 
396.654482 
420.992832 
445.824652 
470.774557 
494.512569 
514.805552 
526.565767 
526.106237 
514.483927 
499.455910 
484.207113 
471.600106 
458.564772 
444.807187 
428.649565 
417.229843 
414.266757 
399.134517 
383.530617 
373.567294 
386.844757 
407.727461 
414.028919 
410.614644 
409.128223 
396.814439 
389.074488 
388.681292 
385.221088 
380.831203 
369.621910 
366.840823 
383.797501 
398.393488 
397.614661 
402.922689 
408.289754 
400.374603 
388.472889 
396.449549 
401.563934 
369.530108 
352.126998 
362.898121 
379.240767 
402.267347 
404.052277 
365.520347 
342.139283 
341.609234 
354.418064 
364.252653 
359.914430 
365.733585 
379.727239 
381.933309 
375.562807 
368.501248 
358.317315 
352.832358 
353.328759 
351.305959 
355.671848 
348.058039 
312.523450 
280.507761 
272.386046 
271.118292 
262.970290 
246.214436 
227.221536 
218.735030 
214.866974 
218.618731 
234.726433 
242.431846 
251.853580 
269.400549 
280.202940 
282.918493 
300.657998 
336.139938 
342.441941 
333.263297 
355.306131 
391.123115 
303.058032 
183.669005 
133.285230 
119.440199 
114.369057 
108.543587 
101.408882 
94.264534 
88.703910 
85.904270 
80.449407 
66.739767 
56.152239 
52.432028 
271.821947 
263.734618 
256.037893 
248.717274 
241.758697 
235.148252 
228.872215 
222.917154 
217.269918 
211.917627 
206.847667 
202.047692 
197.505625 
193.209659 
189.148259 
185.310167 
181.684404 
178.260279 
175.027390 
171.975635 
169.095216 
166.376649 
163.810766 
161.388730 
159.102030 
156.942495 
154.902327 
152.974099 
151.150853 
149.425985 
147.793046 
146.245579 
144.777929 
143.385221 
142.062975 
140.806953 
139.613326 
138.478787 
137.400530 
136.376342 
135.404856 
134.485285 
133.617065 
132.799627 
132.033523 
131.320694 
130.664031 
130.067231 
129.533557 
129.066121 
128.670195 
128.353677 
128.124743 
127.992224 
127.966373 
128.057972 
128.278696 
128.641392 
129.160246 
129.850570 
130.727340 
131.805984 
133.102577 
134.632561 
136.409591 
138.446359 
140.752856 
143.334605 
146.193537 
149.325714 
152.719692 
156.355195 
160.201605 
164.215826 
168.339143 
172.495299 
176.588419 
180.502846 
184.106043 
187.257279 
189.824256 
191.709266 
192.882956 
193.420240 
193.528271 
193.554449 
193.965682 
195.297426 
198.080773 
202.764961 
209.656902 
218.894597 
230.457999 
244.206571 
259.926108 
277.370437 
296.291015 
316.454253 
337.649488 
359.691286 
382.418197 
405.677552 
429.276944 
452.907841 
476.404279 
499.365717 
517.013389 
524.978489 
522.162760 
517.379265 
502.238794 
488.770334 
465.514909 
450.906903 
446.454868 
440.533219 
427.706062 
413.362492 
391.332617 
363.494267 
364.103403 
392.761333 
410.268246 
414.218692 
405.770530 
405.614402 
411.892690 
414.157752 
402.855320 
389.952102 
377.824808 
378.235879 
391.871079 
395.199678 
388.006486 
392.856164 
394.841129 
395.271567 
393.576343 
410.152579 
416.939731 
387.169391 
381.552536 
398.967306 
405.611292 
400.539948 
387.293776 
370.604105 
366.708393 
363.403594 
357.211655 
361.952839 
354.621215 
354.641197 
365.295180 
380.034821 
378.248305 
371.106882 
362.744589 
363.406816 
376.475252 
384.257146 
389.476262 
377.852397 
354.753917 
353.801253 
378.238055 
388.945441 
387.603946 
376.575208 
362.623401 
353.482772 
343.633372 
339.942395 
339.593288 
329.700554 
321.951479 
319.149091 
300.339230 
276.738968 
276.185875 
311.185807 
337.291799 
341.992672 
380.714173 
413.694570 
267.265321 
149.297705 
115.350195 
110.166834 
111.282055 
111.253340 
108.504514 
104.133051 
99.876814 
96.435636 
88.935928 
75.265092 
65.872751 
64.098228 
268.502050 
260.549682 
252.993135 
245.817591 
239.008656 
232.552068 
226.433736 
220.639844 
215.156842 
209.971438 
205.070591 
200.441521 
196.071705 
191.948888 
188.061080 
184.396571 
180.943932 
177.692027 
174.630018 
171.747376 
169.033891 
166.479679 
164.075192 
161.811222 
159.678917 
157.669785 
155.775706 
153.989007 
152.302485 
150.709347 
149.202863 
147.776412 
146.424090 
145.140704 
143.921547 
142.762290 
141.658973 
140.608107 
139.606749 
138.652496 
137.743536 
136.878732 
136.057455 
135.279337 
134.544582 
133.854294 
133.212204 
132.622911 
132.089489 
131.612930 
131.197848 
130.851876 
130.583638 
130.401839 
130.316454 
130.338464 
130.479757 
130.753267 
131.173586 
131.756122 
132.516395 
133.470523 
134.636491 
136.031321 
137.670990 
139.570640 
141.743344 
144.198542 
146.941256 
149.970889 
153.279361 
156.850084 
160.655644 
164.655251 
168.791067 
172.984763 
177.134094 
181.109846 
184.756030 
187.895564 
190.347136 
191.956502 
192.641918 
192.446595 
191.583163 
190.450218 
189.606104 
189.698398 
191.363388 
195.122412 
201.306230 
210.029373 
221.215557 
234.654981 
250.067939 
267.156103 
285.635120 
305.250630 
325.782857 
347.043945 
368.869086 
391.097213 
413.540132 
435.979982 
458.301715 
480.536706 
501.241639 
515.981335 
523.204217 
520.275590 
510.103032 
497.505693 
481.253867 
465.264685 
451.627607 
444.938738 
442.055051 
431.365547 
397.567983 
366.532640 
367.989432 
385.805429 
401.802867 
423.685489 
431.451905 
419.484008 
407.687336 
402.016830 
398.925529 
393.991411 
390.071261 
388.019390 
395.698581 
385.137054 
380.926981 
377.650485 
393.039981 
391.072353 
392.168682 
407.230488 
412.140845 
394.455735 
392.528922 
407.191464 
401.313565 
390.028744 
386.217084 
382.939227 
390.686467 
377.587712 
363.033664 
359.633740 
354.127331 
347.728733 
369.773081 
389.850220 
390.752840 
376.948015 
367.218046 
371.647144 
381.947890 
378.864372 
373.858708 
361.424541 
347.148718 
358.036352 
384.554325 
390.917983 
386.511193 
381.946873 
377.916133 
381.068732 
385.144672 
391.590905 
395.088006 
386.798696 
383.176100 
381.291147 
357.255004 
341.168871 
351.662587 
375.541007 
381.068982 
366.915483 
406.049256 
343.160679 
164.724962 
104.932124 
95.186791 
96.349292 
102.260234 
108.027236 
110.575695 
109.643598 
106.827170 
103.235039 
95.172547 
83.884860 
77.193051 
78.318166 
265.069382 
257.257138 
249.846100 
242.821105 
236.167397 
229.870330 
223.915411 
218.288404 
212.975324 
207.962428 
203.236213 
198.783427 
194.591067 
190.646396 
186.936942 
183.450514 
180.175211 
177.099433 
174.211891 
171.501622 
168.957996 
166.570732 
164.329901 
162.225944 
160.249674 
158.392291 
156.645387 
155.000998 
153.451656 
151.990328 
150.610285 
149.304892 
148.068091 
146.894231 
145.778279 
144.715700 
143.702561 
142.735297 
141.810840 
140.926664 
140.080757 
139.271639 
138.498478 
137.760857 
137.058416 
136.391554 
135.764477 
135.183227 
134.650995 
134.167837 
133.736895 
133.365243 
133.061267 
132.833910 
132.692955 
132.649296 
132.714908 
132.903035 
133.228506 
133.707094 
134.354518 
135.188101 
136.226723 
137.488933 
138.992308 
140.754564 
142.792201 
145.118818 
147.743183 
150.668605 
153.891374 
157.399134 
161.169094 
165.164454 
169.330610 
173.590675 
177.840142 
181.940773 
185.715793 
188.950216 
191.404221 
192.848195 
193.122606 
192.215949 
190.337040 
187.947115 
185.725122 
184.465843 
184.938128 
187.746627 
193.240506 
201.494817 
212.358947 
225.540329 
240.687192 
257.448608 
275.507586 
294.593418 
314.481144 
334.983610 
355.938818 
377.193463 
398.590879 
419.989312 
441.302914 
462.429908 
483.055684 
501.185870 
515.664675 
523.182498 
520.495382 
511.610011 
495.095551 
481.267295 
462.860612 
444.697795 
436.473861 
426.834399 
401.491335 
379.193281 
382.994078 
401.631035 
392.282869 
396.677836 
417.336309 
419.382178 
404.816816 
396.190633 
398.514353 
399.488571 
398.252643 
390.500370 
389.230304 
387.894752 
388.773944 
394.323689 
407.644161 
397.984067 
394.952685 
407.163058 
404.659457 
392.028669 
393.173985 
401.854090 
393.050453 
388.057323 
390.764203 
391.948373 
392.358151 
382.098317 
370.773730 
379.191113 
369.377475 
361.837663 
384.018722 
396.347077 
391.426032 
376.659390 
373.165185 
382.258920 
388.673202 
379.908902 
372.552659 
369.842390 
360.127588 
362.185004 
370.641275 
364.031786 
357.666552 
352.082514 
347.475410 
350.293368 
357.676939 
365.800656 
367.207882 
363.976602 
368.558772 
368.578374 
355.863028 
357.830113 
380.781112 
383.021644 
354.243163 
358.370117 
388.518948 
218.213127 
99.174237 
88.201477 
85.094272 
85.779720 
92.703092 
102.775790 
111.153214 
114.242043 
113.177074 
110.039807 
103.022773 
94.283274 
90.502310 
94.063195 
261.525838 
253.858858 
246.598636 
239.729634 
233.236698 
227.104764 
221.318899 
215.864411 
210.726837 
205.891945 
201.345732 
197.074433 
193.064535 
189.302783 
185.776193 
182.472070 
179.378019 
176.481960 
173.772143 
171.237162 
168.865970 
166.647889 
164.572624 
162.630273 
160.811335 
159.106721 
157.507762 
156.006224 
154.594337 
153.264851 
152.010881 
150.826116 
149.704443 
148.640063 
147.627329 
146.661469 
145.738347 
144.854531 
144.006933 
143.192889 
142.410291 
141.657580 
140.933756 
140.238287 
139.570371 
138.929656 
138.319589 
137.746980 
137.215946 
136.727238 
136.283256 
135.889688 
135.554051 
135.285178 
135.093040 
134.988411 
134.983186 
135.090737 
135.325942 
135.704776 
136.243566 
136.960615 
137.875706 
139.008722 
140.378973 
142.006128 
143.909560 
146.106970 
148.611886 
151.432118 
154.569271 
158.016208 
161.755243 
165.755159 
169.966945 
174.318884 
178.709607 
182.998666 
186.995544 
190.450222 
193.057158 
194.488173 
194.468172 
192.891766 
189.945343 
186.169545 
182.409708 
179.658901 
178.852238 
180.685203 
185.511694 
193.344061 
203.935868 
216.898301 
231.803057 
248.248509 
265.889967 
284.445977 
303.691757 
323.446609 
343.559506 
363.896237 
384.334860 
404.772518 
425.124324 
445.292037 
465.127714 
484.572264 
503.112783 
516.462763 
521.812978 
515.560853 
505.364586 
492.611656 
476.079159 
459.732248 
444.759329 
424.022214 
401.231080 
396.796725 
411.443340 
416.105113 
386.536417 
379.538040 
405.462243 
434.517977 
435.113705 
423.861664 
411.659179 
407.896431 
397.945121 
382.685793 
379.307495 
385.170730 
386.357827 
388.481797 
399.072410 
389.734428 
390.961401 
400.783838 
401.153460 
398.382859 
401.642619 
402.273476 
398.464208 
401.473211 
402.483889 
394.231970 
393.099020 
383.920833 
380.825883 
377.261439 
370.523209 
357.585736 
374.188301 
367.031007 
357.421159 
359.130249 
373.076584 
390.806071 
396.578044 
388.281968 
382.411394 
382.460355 
373.363956 
364.144277 
358.456770 
351.535657 
349.854365 
346.514283 
341.441038 
345.004524 
350.963155 
353.457659 
353.000329 
357.349113 
362.779314 
354.662291 
339.271409 
351.471525 
367.417986 
341.695829 
316.159877 
364.874434 
340.176495 
123.803990 
77.761662 
81.041193 
80.586143 
81.343510 
88.307248 
101.158671 
115.826695 
122.778513 
122.152795 
118.611484 
113.248755 
107.451799 
106.240800 
111.705689 
257.873417 
250.356818 
243.252692 
236.545090 
230.218427 
224.257179 
218.645937 
213.369507 
208.412909 
203.761381 
199.400376 
195.315584 
191.492938 
187.918637 
184.579158 
181.461277 
178.552086 
175.839012 
173.309837 
170.952711 
168.756171 
166.709153 
164.801007 
163.021506 
161.360857 
159.809707 
158.359153 
157.000744 
155.726462 
154.528756 
153.400672 
152.335832 
151.328451 
150.372681 
149.462901 
148.593666 
147.760583 
146.960118 
146.189277 
145.445379 
144.726305 
144.030407 
143.356568 
142.704287 
142.072606 
141.461040 
140.871628 
140.310681 
139.782407 
139.289318 
138.834222 
138.422036 
138.058802 
137.752857 
137.514223 
137.353663 
137.283045 
137.315584 
137.466055 
137.750348 
138.185457 
138.790603 
139.586522 
140.594288 
141.835288 
143.331220 
145.103873 
147.174517 
149.561121 
152.277266 
155.330322 
158.719425 
162.432878 
166.446210 
170.718070 
175.185093 
179.754470 
184.292440 
188.606569 
192.423149 
195.370992 
196.998681 
196.859804 
194.685901 
190.601768 
185.254498 
179.735354 
175.314496 
173.131420 
173.968238 
178.156093 
185.613112 
195.973488 
208.740737 
223.408848 
239.530145 
256.739012 
274.750075 
293.344853 
312.354831 
331.645375 
351.103726 
370.633120 
390.149798 
409.575524 
428.820481 
447.769107 
466.401732 
484.862283 
501.641632 
512.983272 
516.212473 
512.716540 
505.701248 
492.134803 
478.421060 
466.610348 
440.251953 
414.967634 
409.593763 
422.223618 
423.173766 
406.450022 
394.984296 
396.276504 
403.901477 
425.740624 
436.396296 
421.235169 
410.266925 
400.783259 
384.752414 
375.218442 
375.958596 
367.125194 
370.033463 
383.923487 
384.988757 
389.766453 
395.026247 
397.378710 
400.877655 
407.957500 
408.108336 
403.274219 
405.513873 
404.921938 
403.737158 
401.727962 
392.073607 
387.857122 
393.082257 
388.665401 
391.417717 
394.226464 
373.045408 
357.331308 
371.452794 
388.379521 
395.273176 
390.493731 
383.100358 
381.330786 
383.911168 
378.582557 
369.570609 
362.927169 
358.731727 
356.238114 
349.953659 
344.208786 
348.256977 
351.704422 
349.945910 
351.537898 
361.054586 
365.405320 
347.867882 
337.825242 
354.317624 
364.799974 
329.151294 
320.210705 
381.965759 
247.303826 
74.318139 
68.442223 
76.910070 
79.670790 
82.164800 
89.801509 
105.482755 
127.025093 
139.227736 
134.642597 
128.811961 
124.995450 
122.339637 
124.154445 
131.889391 
254.114226 
246.753100 
239.810316 
233.269482 
227.114540 
221.329469 
215.898335 
210.805401 
206.035126 
201.572172 
197.401409 
193.507938 
189.877109 
186.494538 
183.346138 
180.418134 
177.697091 
175.169934 
172.823970 
170.646909 
168.626879 
166.752444 
165.012615 
163.396862 
161.895122 
160.497807 
159.195803 
157.980474 
156.843649 
155.777598 
154.775121 
153.829748 
152.935606 
152.087331 
151.279387 
150.506263 
149.763077 
149.046131 
148.352148 
147.678452 
147.023087 
146.384296 
145.760843 
145.152187 
144.557805 
143.977073 
143.411417 
142.865364 
142.343455 
141.848842 
141.385317 
140.957561 
140.570774 
140.232559 
139.952509 
139.741559 
139.611435 
139.575151 
139.646902 
139.842740 
140.180496 
140.679802 
141.362038 
142.249773 
143.366406 
144.735655 
146.381983 
148.330233 
150.602894 
153.218757 
156.191755 
159.528383 
163.224541 
167.263369 
171.612459 
176.218937 
181.003092 
185.846842 
190.572068 
194.903648 
198.421425 
200.533711 
200.543492 
197.891937 
192.554308 
185.334392 
177.727447 
171.407842 
167.748308 
167.583173 
171.172375 
178.300987 
188.461135 
201.041365 
215.460932 
231.233662 
247.981372 
265.422105 
283.349584 
301.611743 
320.092503 
338.698937 
357.353176 
375.986081 
394.529389 
412.906854 
431.050226 
448.950537 
466.622129 
483.888752 
498.890409 
509.765520 
516.689481 
514.316261 
502.670169 
491.416975 
482.027862 
462.765665 
443.266362 
428.695719 
421.798776 
419.146575 
415.395612 
409.585035 
399.088125 
371.595128 
361.373212 
377.931629 
401.730371 
423.670696 
419.003052 
398.313345 
382.250985 
377.891523 
373.943811 
374.424654 
386.288903 
392.432322 
394.190085 
388.903373 
389.325063 
397.781211 
406.110575 
402.670112 
397.761870 
403.563879 
408.404592 
411.181232 
407.923474 
397.441498 
395.625094 
399.921607 
399.116071 
400.779906 
407.921333 
394.200556 
397.053218 
413.099522 
411.290597 
390.579191 
378.751894 
377.780472 
379.995744 
385.599118 
384.098342 
375.302383 
370.019817 
366.257106 
362.612318 
355.504071 
352.840258 
359.780619 
359.245842 
352.726148 
355.566731 
369.129451 
370.619502 
353.456051 
351.017299 
374.912383 
367.599253 
331.152156 
348.872846 
332.565717 
136.708442 
56.423994 
66.471981 
76.930918 
82.288172 
86.267177 
93.584478 
109.307439 
138.827936 
163.277138 
154.543617 
141.716866 
138.566354 
138.790302 
143.902219 
154.842963 
250.250491 
243.049893 
236.273661 
229.904918 
223.927089 
218.323611 
213.077981 
208.173869 
203.595128 
199.325797 
195.350121 
191.652572 
188.217879 
185.031050 
182.077404 
179.342599 
176.812660 
174.474004 
172.313466 
170.318319 
168.476296 
166.775604 
165.204938 
163.753488 
162.410950 
161.167525 
160.013923 
158.941355 
157.941526 
157.006632 
156.129357 
155.302968 
154.521464 
153.779468 
153.071895 
152.393529 
151.739559 
151.105956 
150.488948 
149.885859 
149.294686 
148.713503 
148.141015 
147.576791 
147.020481 
146.471756 
145.931648 
145.403268 
144.890940 
144.398427 
143.929822 
143.489785 
143.083527 
142.718010 
142.402250 
142.146772 
141.963646 
141.865130 
141.864955 
141.979317 
142.226878 
142.627726 
143.203530 
143.978030 
144.976421 
146.224867 
147.750498 
149.581809 
151.746296 
154.268291 
157.168704 
160.462364 
164.154034 
168.236492 
172.687473 
177.466042 
182.508146 
187.718251 
192.949540 
197.958835 
202.320947 
205.315670 
205.895879 
202.965625 
196.126339 
186.463998 
176.253535 
167.768733 
162.565221 
161.431489 
164.487015 
171.342022 
181.328807 
193.720116 
207.868110 
223.258411 
239.509715 
256.350968 
273.593139 
291.103250 
308.784331 
326.561703 
344.373991 
362.166216 
379.884214 
397.475247 
414.901661 
432.150511 
449.207354 
465.974631 
482.181073 
497.218056 
509.128464 
513.755859 
510.085991 
504.365582 
496.604228 
478.553158 
465.547638 
451.418935 
430.237317 
407.569588 
400.757360 
405.567811 
393.666195 
371.078425 
347.814121 
342.635776 
376.667659 
422.206227 
433.042039 
414.342587 
400.804982 
395.306111 
393.157770 
388.787033 
392.709078 
392.372668 
388.487449 
382.382871 
391.646618 
399.399808 
404.533971 
395.794513 
389.732026 
397.793302 
406.110408 
414.147658 
411.159256 
399.661409 
394.250564 
395.250879 
380.738701 
378.484598 
379.200524 
377.996018 
393.837324 
420.345191 
413.321242 
384.497673 
381.443283 
388.467800 
394.611632 
390.032236 
383.541911 
375.529872 
372.357321 
369.087577 
363.846088 
361.770231 
369.546778 
375.792807 
367.732396 
355.180815 
357.426080 
366.325187 
364.160870 
353.330354 
359.458728 
368.535354 
341.063556 
315.461245 
337.225540 
221.543484 
62.910275 
49.133075 
66.594142 
79.336978 
87.105230 
92.477892 
98.082116 
111.410232 
144.579445 
190.632736 
187.587984 
161.230374 
154.653828 
157.552264 
165.834247 
181.033704 
246.284550 
239.249502 
232.644989 
226.453605 
220.658217 
215.241669 
210.186837 
205.476752 
201.094608 
197.023776 
193.247829 
189.750573 
186.516079 
183.528718 
180.773195 
178.234585 
175.898364 
173.750439 
171.777177 
169.965429 
168.302546 
166.776401 
165.375395 
164.088470 
162.905106 
161.815329 
160.809704 
159.879327 
159.015819 
158.211319 
157.458484 
156.750489 
156.081078 
155.444720 
154.836305 
154.251111 
153.684799 
153.133450 
152.593004 
152.060639 
151.534193 
151.011300 
150.490771 
149.972214 
149.455288 
148.939837 
148.426809 
147.918297 
147.418394 
146.931203 
146.460770 
146.011662 
145.589905 
145.202490 
144.857059 
144.563456 
144.333512 
144.179844 
144.115265 
144.155988 
144.321287 
144.631634 
145.109169 
145.778477 
146.666353 
147.801078 
149.213071 
150.934749 
152.998744 
155.435634 
158.273646 
161.537420 
165.243044 
169.395221 
173.984761 
178.984889 
184.349140 
190.008822 
195.861612 
201.735891 
207.282363 
211.736051 
213.616816 
210.817227 
201.869108 
188.451424 
174.784574 
163.950229 
157.246916 
155.269971 
157.912498 
164.575531 
174.426989 
186.630611 
200.484767 
215.459953 
231.182382 
247.399199 
263.942783 
280.701063 
297.596233 
314.570814 
331.578412 
348.577538 
365.528369 
382.395042 
399.150847 
415.776374 
432.236920 
448.432299 
464.247183 
479.817060 
494.527179 
505.969589 
512.188079 
513.387928 
502.863569 
488.203859 
477.174524 
467.709367 
447.783952 
426.984733 
410.687765 
407.796378 
411.860273 
412.341444 
384.134211 
368.756823 
380.750141 
403.052733 
400.709407 
395.513330 
395.251088 
397.207376 
397.962874 
393.054648 
395.571051 
400.224830 
395.396026 
391.800460 
393.652113 
400.235098 
408.210420 
398.934562 
395.747143 
405.540581 
418.886274 
418.370659 
415.949567 
409.423248 
412.672405 
409.448878 
389.862756 
377.271622 
381.456309 
370.727699 
383.267815 
398.965450 
390.766803 
366.130268 
376.330524 
391.515217 
393.686392 
377.422128 
367.358329 
366.698771 
370.068430 
366.690336 
363.343005 
369.685584 
381.166779 
379.149120 
365.018360 
352.292975 
354.553197 
358.781581 
353.625136 
345.818788 
345.539487 
338.610831 
308.683269 
307.761071 
277.292180 
112.815045 
35.048983 
46.596781 
67.424512 
82.711418 
93.131461 
100.395106 
104.922721 
113.627950 
143.606681 
207.989670 
229.905643 
185.548129 
169.643402 
175.671230 
189.234328 
210.521561 
242.218864 
235.354343 
228.926667 
222.917856 
217.310165 
212.085794 
207.226947 
202.715959 
198.535315 
194.667668 
191.095876 
187.803036 
184.772532 
181.988067 
179.433716 
177.093958 
174.953714 
172.998388 
171.213887 
169.586653 
168.103681 
166.752531 
165.521342 
164.398834 
163.374310 
162.437653 
161.579318 
160.790324 
160.062240 
159.387183 
158.757801 
158.167277 
157.609307 
157.078104 
156.568468 
156.075709 
155.595806 
155.125007 
154.659682 
154.197199 
153.735131 
153.270840 
152.803071 
152.331417 
151.855164 
151.374542 
150.890374 
150.404247 
149.919492 
149.440620 
148.971293 
148.516182 
148.082618 
147.678097 
147.309185 
146.983783 
146.713822 
146.511812 
146.390659 
146.366090 
146.457600 
146.686114 
147.074304 
147.647460 
148.433627 
149.463426 
150.770287 
152.390705 
154.362804 
156.724305 
159.512193 
162.762244 
166.504405 
170.760059 
175.537979 
180.831040 
186.615739 
192.855842 
199.506699 
206.510324 
213.723791 
220.589628 
225.298920 
224.005628 
212.469278 
192.555738 
172.833888 
159.052749 
151.176993 
148.665159 
151.110962 
157.725752 
167.515864 
179.556333 
193.111345 
207.653169 
222.827681 
238.407759 
254.251119 
270.268061 
286.399994 
302.605475 
318.851420 
335.107568 
351.344569 
367.535248 
383.655157 
399.677369 
415.558913 
431.239820 
446.703076 
462.019644 
477.180850 
491.636573 
503.918565 
510.619073 
507.553247 
497.843737 
489.786037 
479.233757 
465.617999 
452.840393 
440.714498 
424.507057 
409.106673 
403.164765 
400.994393 
404.530562 
404.965350 
393.974677 
383.058603 
391.764059 
402.901528 
403.343378 
396.173938 
390.412644 
393.915896 
401.755531 
399.407509 
396.619779 
393.716326 
398.572680 
405.908568 
396.918232 
394.160673 
407.151701 
419.167443 
413.757319 
410.879071 
406.263108 
408.568059 
405.631741 
396.443716 
393.029862 
396.110063 
382.579858 
383.113115 
392.093568 
378.700199 
352.218292 
350.318285 
367.076568 
368.608803 
354.632694 
353.419017 
366.858856 
375.950845 
369.439605 
364.206115 
372.335892 
379.034711 
369.493240 
356.409788 
351.231905 
354.390107 
354.617983 
348.730723 
340.709439 
334.115444 
320.931729 
303.361304 
309.186082 
208.172687 
57.273483 
29.324119 
48.597411 
70.227085 
87.143588 
100.189994 
109.463860 
113.412730 
116.304751 
136.573363 
206.102397 
260.273211 
207.006746 
175.332903 
188.068815 
210.973430 
241.847321 
238.056019 
231.366955 
225.121180 
219.300088 
213.885271 
208.858227 
204.200430 
199.893464 
195.919049 
192.259071 
188.895627 
185.811067 
182.988052 
180.409600 
178.059134 
175.920532 
173.978163 
172.216932 
170.622304 
169.180332 
167.877678 
166.701622 
165.640069 
164.681556 
163.815241 
163.030901 
162.318919 
161.670268 
161.076505 
160.529747 
160.022666 
159.548474 
159.100903 
158.674170 
158.262955 
157.862488 
157.468726 
157.077952 
156.686899 
156.293043 
155.894057 
155.487510 
155.072350 
154.647930 
154.213203 
153.768454 
153.314666 
152.853234 
152.386614 
151.918946 
151.453373 
150.995302 
150.553188 
150.135670 
149.747854 
149.396907 
149.093635 
148.850957 
148.681327 
148.600045 
148.626844 
148.782977 
149.091506 
149.578368 
150.272621 
151.206909 
152.417691 
153.945319 
155.833669 
158.128569 
160.877209 
164.129248 
167.931869 
172.327500 
177.350317 
183.023112 
189.358421 
196.368687 
204.089626 
212.636789 
222.276799 
233.298914 
244.133731 
248.205826 
235.219933 
204.004126 
172.909042 
153.078583 
143.547374 
140.958009 
143.599424 
150.404614 
160.273557 
172.220753 
185.505263 
199.622916 
214.253830 
229.205129 
244.364096 
259.665242 
275.069292 
290.549690 
306.084395 
321.651554 
337.228320 
352.791229 
368.315262 
383.770926 
399.123234 
414.342094 
429.421698 
444.364188 
459.136386 
473.773335 
488.369274 
500.362751 
506.304261 
507.196632 
500.144433 
489.124592 
476.420159 
467.899326 
456.542966 
439.853970 
416.779026 
393.036961 
385.027072 
400.365858 
423.277121 
411.197477 
395.582593 
405.644279 
415.111565 
419.504695 
414.118725 
410.194111 
401.369494 
397.699264 
394.912380 
394.491435 
389.229033 
394.457968 
404.161581 
398.035997 
388.077406 
405.209473 
412.861573 
397.374603 
384.519231 
385.210540 
392.375549 
397.836980 
397.247780 
397.895573 
395.048713 
381.310768 
384.393579 
393.604851 
389.304270 
368.065215 
363.543893 
373.819750 
376.111914 
367.583620 
368.444275 
386.154840 
388.357086 
377.717193 
368.745210 
369.434923 
366.245170 
353.540001 
349.362726 
351.670259 
351.326831 
349.226813 
344.819328 
338.989383 
329.889223 
321.338976 
322.793869 
295.239017 
139.033299 
36.655695 
34.813956 
55.863511 
75.998166 
92.497336 
106.859637 
118.623759 
123.040849 
120.194108 
130.792832 
194.295613 
271.128039 
221.257286 
175.394735 
195.584130 
230.430645 
272.212159 
233.798728 
227.289996 
221.231124 
215.602826 
210.385972 
205.561297 
201.109484 
197.011305 
193.247661 
189.799619 
186.648466 
183.775771 
181.163442 
178.793789 
176.649574 
174.714071 
172.971102 
171.405087 
170.001068 
168.744736 
167.622449 
166.621238 
165.728816 
164.933567 
164.224544 
163.591456 
163.024647 
162.515085 
162.054338 
161.634558 
161.248464 
160.889316 
160.550901 
160.227502 
159.913885 
159.605301 
159.297541 
158.986880 
158.670139 
158.344835 
158.008583 
157.659372 
157.296206 
156.918459 
156.525213 
156.116808 
155.694420 
155.259292 
154.813212 
154.359108 
153.900100 
153.442275 
152.994970 
152.566540 
152.162758 
151.790862 
151.461099 
151.185706 
150.976083 
150.847228 
150.818475 
150.911830 
151.150607 
151.561198 
152.173458 
153.021781 
154.145148 
155.587551 
157.398366 
159.632495 
162.349153 
165.613150 
169.492522 
174.056164 
179.372105 
185.505763 
192.524257 
200.515063 
209.631335 
220.226612 
233.254075 
250.311982 
271.312977 
288.144752 
279.463422 
232.273322 
180.711644 
148.373754 
134.525980 
131.458938 
134.778543 
142.150251 
152.327297 
164.314385 
177.403693 
191.143033 
205.264652 
219.620117 
234.131666 
248.760534 
263.487036 
278.298340 
293.181459 
308.120416 
323.095731 
338.084894 
353.062192 
367.999213 
382.868023 
397.646637 
412.321563 
426.882368 
441.331084 
455.742733 
470.265085 
484.465708 
497.156713 
504.347198 
504.046855 
495.519113 
487.491656 
477.478724 
467.242389 
455.834280 
439.668096 
416.105949 
400.868153 
389.174804 
389.177182 
389.067976 
404.467085 
408.884883 
401.845117 
399.118551 
412.551613 
419.377659 
411.315148 
404.287621 
397.879017 
389.830506 
384.249989 
396.655894 
417.685819 
411.092624 
397.953128 
408.092898 
405.835132 
387.335284 
381.031198 
392.234468 
396.857214 
405.379957 
409.317976 
406.603400 
397.995653 
397.300089 
398.899460 
407.367667 
399.178361 
385.504382 
377.902404 
389.002655 
393.656766 
387.035684 
391.951063 
404.259463 
396.799565 
383.633208 
372.271459 
367.927860 
362.436962 
354.572558 
356.087424 
353.734397 
346.367744 
344.562651 
344.424756 
340.192202 
331.749262 
329.581882 
332.557945 
243.010217 
85.216853 
35.037111 
46.648844 
66.994675 
84.523285 
99.106939 
113.885455 
129.704085 
139.181957 
136.101862 
141.254464 
198.416528 
277.778316 
234.186240 
179.107615 
204.939393 
249.156132 
298.682824 
229.449835 
223.126248 
217.259214 
211.828706 
206.814806 
202.197424 
197.956385 
194.071588 
190.523054 
187.290978 
184.355795 
181.698255 
179.299487 
177.141076 
175.205118 
173.474282 
171.931859 
170.561799 
169.348748 
168.278064 
167.335836 
166.508886 
165.784767 
165.151754 
164.598834 
164.115681 
163.692641 
163.320706 
162.991490 
162.697204 
162.430636 
162.185122 
161.954524 
161.733209 
161.516027 
161.298327 
161.075938 
160.845161 
160.602828 
160.346297 
160.073252 
159.781865 
159.471168 
159.140415 
158.789086 
158.417633 
158.027490 
157.619680 
157.195570 
156.756612 
156.306784 
155.853139 
155.405183 
154.969293 
154.551462 
154.160862 
153.808372 
153.505856 
153.263880 
153.095829 
153.020641 
153.060234 
153.238563 
153.582395 
154.122261 
154.893493 
155.937160 
157.300234 
159.037768 
161.212788 
163.896971 
167.171860 
171.128701 
175.867279 
181.496415 
188.134790 
195.918715 
205.028455 
215.754516 
228.661657 
245.209899 
267.763920 
299.020872 
334.788098 
344.407341 
287.667762 
204.296931 
149.317523 
125.198380 
119.983283 
124.039703 
132.490343 
143.307411 
155.536691 
168.556226 
182.001806 
195.679598 
209.497842 
223.420536 
237.438763 
251.553196 
265.763850 
280.065057 
294.444489 
308.883746 
323.359764 
337.846009 
352.315096 
366.741885 
381.106115 
395.394192 
409.602878 
423.752290 
437.897147 
452.054688 
466.129785 
480.339964 
492.682818 
500.583423 
503.468825 
499.343973 
487.584181 
475.945065 
467.012329 
457.042730 
444.023102 
424.637293 
402.106534 
378.218247 
367.282084 
381.626939 
401.692845 
394.236431 
388.936843 
394.812646 
401.880512 
398.709158 
401.128896 
397.931080 
386.329041 
376.553480 
387.787521 
410.882518 
401.709391 
384.551085 
397.709805 
404.891260 
393.743267 
396.693779 
408.240112 
402.973787 
401.996143 
407.396198 
406.386961 
402.707667 
405.931310 
402.726245 
407.914057 
406.339641 
393.553774 
382.768132 
376.711766 
377.251678 
368.257260 
381.214605 
390.788351 
386.957891 
386.274809 
379.516979 
374.254499 
370.733095 
366.764461 
364.692032 
356.763080 
349.325432 
350.123272 
350.172107 
342.965434 
333.942175 
334.350945 
308.230906 
172.610836 
58.214191 
43.957856 
60.853787 
80.163598 
95.763848 
108.917617 
124.057323 
143.998375 
163.449295 
171.467873 
178.222750 
228.840386 
298.808320 
254.878479 
191.934000 
219.816938 
268.054177 
318.678853 
225.012320 
218.878624 
213.208285 
207.980474 
203.174415 
198.769119 
194.743487 
191.076479 
187.747175 
184.734846 
182.019030 
179.579622 
177.396954 
175.451870 
173.725800 
172.200818 
170.859697 
169.685946 
168.663842 
167.778449 
167.015623 
166.362016 
165.805064 
165.332974 
164.934704 
164.599934 
164.319046 
164.083087 
163.883747 
163.713324 
163.564698 
163.431302 
163.307095 
163.186544 
163.064600 
162.936698 
162.798739 
162.647108 
162.478682 
162.290796 
162.081199 
161.848157 
161.590538 
161.307604 
160.999108 
160.665880 
160.309199 
159.929898 
159.528531 
159.106548 
158.668668 
158.223236 
157.778939 
157.339914 
156.912570 
156.506524 
156.133712 
155.806396 
155.535885 
155.334566 
155.219925 
155.213432 
155.339406 
155.625146 
156.101254 
156.803403 
157.773731 
159.061705 
160.726665 
162.839060 
165.481594 
168.752275 
172.766202 
177.656210 
183.574928 
190.698384 
199.233789 
209.443415 
221.703500 
236.619285 
255.101962 
279.405921 
313.367452 
363.716000 
405.512643 
363.835729 
252.615182 
161.695493 
117.496622 
106.682896 
110.980176 
121.031672 
132.915446 
145.647714 
158.763311 
172.031262 
185.356221 
198.716987 
212.127187 
225.611597 
239.192302 
252.881499 
266.679362 
280.575243 
294.549978 
308.578611 
322.633334 
336.686717 
350.714445 
364.697553 
378.624816 
392.496845 
406.329634 
420.145020 
433.944224 
447.757845 
461.735473 
475.881033 
489.190946 
497.762021 
499.446709 
491.433309 
485.729902 
477.120811 
469.170597 
457.401618 
446.038052 
429.776688 
406.946105 
383.894792 
380.729453 
395.812144 
410.914720 
411.660715 
404.469562 
389.712626 
389.433782 
399.639289 
404.491366 
394.978017 
384.101673 
384.260940 
398.529355 
377.138291 
361.866242 
375.084859 
389.187591 
386.819750 
398.814532 
401.801327 
383.476942 
383.082285 
395.929079 
399.558169 
405.356551 
405.276855 
396.430727 
408.982129 
411.037251 
407.231455 
390.896415 
386.079608 
381.848552 
369.897025 
379.470393 
384.004896 
386.566545 
392.123994 
386.575974 
380.148177 
380.276954 
377.866416 
370.730514 
362.185731 
358.269434 
361.118867 
357.032577 
347.320226 
343.892928 
344.421384 
269.743250 
122.755572 
58.044356 
61.421394 
78.607593 
96.087551 
110.646266 
123.601666 
139.112536 
160.909828 
187.973370 
213.325282 
227.386488 
270.035990 
333.322325 
289.119919 
216.857783 
243.586615 
288.435799 
331.022837 
220.489300 
214.550164 
209.081296 
204.060990 
199.467540 
195.278985 
191.473224 
188.028210 
184.922021 
182.132949 
179.639595 
177.420970 
175.456585 
173.726542 
172.211605 
170.893270 
169.753815 
168.776338 
167.944784 
167.243960 
166.659534 
166.178029 
165.786809 
165.474054 
165.228733 
165.040571 
164.900017 
164.798210 
164.726941 
164.678618 
164.646239 
164.623352 
164.604034 
164.582863 
164.554901 
164.515677 
164.461186 
164.387884 
164.292686 
164.172955 
164.026513 
163.851685 
163.647308 
163.412636 
163.147745 
162.853758 
162.531691 
162.181556 
161.803823 
161.400512 
160.977031 
160.542491 
160.104524 
159.666367 
159.233941 
158.817108 
158.427845 
158.078585 
157.781967 
157.550708 
157.401467 
157.354915 
157.435257 
157.669867 
158.089415 
158.729126 
159.630994 
160.845980 
162.436168 
164.477104 
167.060205 
170.297841 
174.326871 
179.311455 
185.447269 
192.965419 
202.136163 
213.273204 
226.740533 
242.949715 
261.890732 
284.705565 
314.290100 
366.411447 
432.181906 
430.598646 
324.344822 
190.550514 
114.288137 
91.999708 
95.612265 
107.570325 
121.007135 
134.522298 
147.915370 
161.136100 
174.211665 
187.205647 
200.189614 
213.226161 
226.359945 
239.614654 
252.994487 
266.488297 
280.074277 
293.724442 
307.408932 
321.099450 
334.771932 
348.408321 
361.998472 
375.541807 
389.046260 
402.523293 
415.990867 
429.493056 
443.064428 
456.689404 
470.543553 
483.220256 
491.773361 
495.942003 
496.923171 
486.785349 
476.143147 
464.550071 
457.996692 
449.886049 
436.642247 
414.447686 
393.485111 
382.793290 
378.716754 
399.530073 
413.287690 
408.143230 
397.183753 
390.167180 
389.646201 
396.047678 
393.932008 
393.215691 
396.905045 
376.321492 
357.861455 
378.065803 
393.132261 
394.015838 
397.641621 
389.570244 
378.053630 
379.087218 
394.461164 
400.814824 
412.887409 
408.659691 
398.284264 
409.118161 
412.240287 
415.601724 
403.706021 
400.917782 
393.361374 
386.318203 
388.041745 
384.524226 
386.398660 
399.141261 
389.883565 
381.819258 
383.181469 
380.747750 
372.649944 
366.155554 
364.457495 
364.795220 
360.055947 
356.099107 
369.904497 
349.926878 
216.981177 
95.379016 
76.493058 
87.154772 
101.369721 
115.530507 
128.712197 
141.554238 
156.953475 
178.306908 
212.583924 
257.894388 
281.851353 
303.975591 
363.119315 
325.144327 
250.772942 
278.230939 
312.278332 
336.809443 
215.884033 
210.144043 
204.881330 
200.073232 
195.697033 
191.729716 
188.148106 
184.929072 
182.049630 
179.487039 
177.218924 
175.223383 
173.479097 
171.965420 
170.662465 
169.551169 
168.613346 
167.831717 
167.189939 
166.672604 
166.265238 
165.954282 
165.727071 
165.571802 
165.477494 
165.433954 
165.431736 
165.462095 
165.516952 
165.588851 
165.670925 
165.756858 
165.840857 
165.917625 
165.982339 
166.030634 
166.058596 
166.062752 
166.040067 
165.987944 
165.904239 
165.787283 
165.635911 
165.449483 
165.228555 
164.974282 
164.686879 
164.365632 
164.011641 
163.628538 
163.221581 
162.798839 
162.366964 
161.930196 
161.495019 
161.071130 
160.669569 
160.302949 
159.984252 
159.727000 
159.547536 
159.465996 
159.506255 
159.695173 
160.063166 
160.644749 
161.481281 
162.623380 
164.133965 
166.090947 
168.591032 
171.756255 
175.740536 
180.734784 
186.973289 
194.738660 
204.358819 
216.186054 
230.534740 
247.535626 
267.124035 
288.909129 
315.710952 
364.678140 
430.461317 
457.447257 
396.675468 
235.306301 
117.113792 
76.987345 
78.470331 
92.308309 
107.670250 
122.194084 
136.024888 
149.317997 
162.240802 
174.954493 
187.596859 
200.272248 
213.048498 
225.959177 
239.009701 
252.185625 
265.460219 
278.801158 
292.175827 
305.554906 
318.914400 
332.236913 
345.512390 
358.738258 
371.918564 
385.063452 
398.191193 
411.324772 
424.486212 
437.736163 
451.206531 
464.950008 
477.830139 
489.431146 
496.130226 
491.894611 
484.344998 
474.388586 
468.387061 
458.918147 
446.227600 
430.016611 
415.453999 
397.283798 
369.429148 
352.722474 
383.119300 
417.693907 
418.807951 
383.465321 
366.607360 
375.917351 
386.500880 
394.733362 
413.406778 
399.467229 
386.013642 
402.386171 
416.977567 
417.271450 
408.350069 
398.178287 
390.736927 
397.024922 
407.885360 
409.805452 
412.151212 
403.113131 
403.399869 
409.546450 
403.213793 
406.874456 
393.682662 
391.170940 
385.869369 
377.096442 
375.938903 
372.099530 
379.981842 
393.680323 
384.000196 
380.772513 
387.458581 
387.075066 
379.049972 
369.127498 
363.465036 
361.451202 
358.823566 
365.004059 
387.346531 
306.107190 
145.384868 
84.942377 
96.400020 
111.578500 
123.497633 
135.228662 
147.154232 
159.152141 
173.796007 
196.147256 
242.749140 
318.416419 
347.921820 
334.992340 
376.443608 
342.029099 
287.550123 
319.515238 
338.613568 
339.153795 
211.199922 
205.663571 
200.611595 
196.020292 
191.865846 
188.124099 
184.770718 
181.781417 
179.132081 
176.798890 
174.758453 
172.987934 
171.465174 
170.168789 
169.078257 
168.173985 
167.437357 
166.850761 
166.397610 
166.062331 
165.830356 
165.688093 
165.622893 
165.623011 
165.677560 
165.776464 
165.910411 
166.070805 
166.249721 
166.439860 
166.634507 
166.827499 
167.013183 
167.186397 
167.342440 
167.477055 
167.586418 
167.667128 
167.716204 
167.731081 
167.709623 
167.650161 
167.551505 
167.413322 
167.236486 
167.021810 
166.768315 
166.475038 
166.144692 
165.781967 
165.392003 
164.981196 
164.555563 
164.120392 
163.682987 
163.253166 
162.841777 
162.460900 
162.123647 
161.843830 
161.637700 
161.524895 
161.528887 
161.675791 
161.995550 
162.521785 
163.294290 
164.361874 
165.786188 
167.644602 
170.035122 
173.083866 
176.954449 
181.856988 
188.058112 
195.888943 
205.741292 
218.034069 
233.105162 
250.985159 
271.580008 
294.164423 
320.893598 
374.605131 
430.555265 
450.948238 
441.933508 
283.099755 
122.116087 
62.880834 
60.427111 
75.919968 
93.224884 
108.869980 
123.244826 
136.691951 
149.528639 
162.025626 
174.395146 
186.786597 
199.290093 
211.945411 
224.754609 
237.695763 
250.734406 
263.832414 
276.954083 
290.069264 
303.154533 
316.193516 
329.176577 
342.100347 
354.967309 
367.785664 
380.568933 
393.336190 
406.120714 
418.982766 
431.977474 
445.080126 
458.302738 
472.270949 
482.133815 
485.698176 
485.220955 
482.865785 
478.022169 
466.959324 
454.506563 
447.027845 
436.844305 
425.016591 
393.487746 
362.491588 
353.671209 
384.148882 
410.561006 
399.838814 
379.601246 
384.599978 
384.528945 
399.342758 
419.080046 
410.885849 
387.610282 
392.367581 
397.677019 
392.401368 
383.780701 
385.863556 
392.642521 
394.956201 
399.540697 
400.188839 
394.802302 
390.241707 
402.900741 
410.205362 
409.892033 
413.087725 
405.293252 
400.042229 
396.445466 
387.942377 
383.540873 
370.887420 
368.767490 
375.122134 
373.907767 
383.147630 
394.778670 
396.979393 
388.322919 
378.054710 
369.113044 
362.949181 
357.020513 
368.670925 
368.578127 
225.150523 
98.416606 
89.093214 
110.317915 
128.200696 
140.485943 
151.745636 
162.363366 
171.701395 
183.655620 
207.689706 
264.916209 
367.030349 
405.092564 
367.151645 
370.921408 
338.267883 
327.139276 
359.960267 
364.564277 
341.491344 
206.440517 
201.112198 
196.275433 
191.905384 
187.977041 
184.465015 
181.343725 
178.587655 
176.171495 
174.070295 
172.259616 
170.715674 
169.415468 
168.336888 
167.458803 
166.761124 
166.224848 
165.832082 
165.566040 
165.411039 
165.352466 
165.376747 
165.471295 
165.624469 
165.825512 
166.064501 
166.332289 
166.620457 
166.921254 
167.227558 
167.532825 
167.831052 
168.116742 
168.384870 
168.630861 
168.850566 
169.040252 
169.196589 
169.316645 
169.397881 
169.438158 
169.435767 
169.389533 
169.299635 
169.166977 
168.991443 
168.770846 
168.505223 
168.198477 
167.856222 
167.482816 
167.083469 
166.663974 
166.230582 
165.791137 
165.355295 
164.933949 
164.539302 
164.184436 
163.883258 
163.651472 
163.508640 
163.477490 
163.584126 
163.857237 
164.329331 
165.037811 
166.028369 
167.359278 
169.104785 
171.359916 
174.249170 
177.937747 
182.645121 
188.661050 
196.362100 
206.217999 
218.764958 
234.514860 
253.609691 
275.176005 
297.548588 
324.167399 
390.211286 
446.123234 
440.066212 
453.890869 
313.179876 
120.508739 
49.143287 
42.089123 
58.989817 
78.087156 
94.912737 
109.873999 
123.493925 
136.255524 
148.554955 
160.688364 
172.852551 
185.156008 
197.637532 
210.288298 
223.072843 
235.945320 
248.860307 
261.779039 
274.671426 
287.515814 
300.297943 
313.009668 
325.647957 
338.214420 
350.715265 
363.161379 
375.570121 
387.968425 
400.384743 
412.821660 
425.242653 
437.694343 
450.544502 
461.997985 
471.394847 
478.766025 
483.453616 
482.303554 
472.486720 
464.246801 
460.581840 
455.138487 
447.179478 
429.502466 
408.051127 
386.445529 
360.707932 
344.346278 
369.089820 
398.386058 
409.356169 
398.608132 
394.709279 
410.099406 
404.875012 
386.202330 
382.208785 
380.527855 
371.207780 
369.144940 
381.093152 
397.528917 
395.835255 
399.475700 
402.721965 
388.623735 
388.788789 
407.939650 
411.309322 
412.683051 
410.939507 
401.614208 
406.998575 
414.460040 
404.381382 
400.847185 
381.895563 
372.013862 
365.933049 
370.453386 
383.281876 
390.692212 
387.364506 
382.741697 
380.178533 
378.180841 
373.245955 
368.783482 
385.827691 
329.239187 
162.138948 
95.126962 
105.446871 
126.305341 
143.037112 
154.703493 
164.624632 
171.458550 
174.254650 
177.610191 
193.481315 
239.752421 
345.507040 
389.340983 
361.917187 
381.323230 
359.376478 
358.203292 
389.947724 
384.602479 
344.717882 
201.609515 
196.493515 
191.876316 
187.731843 
184.033789 
180.755434 
177.869864 
175.350249 
173.170024 
171.303060 
169.723843 
168.407631 
167.330589 
166.469901 
165.803861 
165.311926 
164.974757 
164.774227 
164.693413 
164.716573 
164.829106 
165.017503 
165.269289 
165.572966 
165.917948 
166.294497 
166.693663 
167.107223 
167.527627 
167.947943 
168.361812 
168.763404 
169.147381 
169.508862 
169.843398 
170.146948 
170.415865 
170.646886 
170.837122 
170.984059 
171.085551 
171.139808 
171.145813 
171.104160 
171.015466 
170.878068 
170.689708 
170.451807 
170.169387 
169.847275 
169.489396 
169.100505 
168.686513 
168.254170 
167.811593 
167.368436 
166.935710 
166.525831 
166.152096 
165.828542 
165.570260 
165.396294 
165.328917 
165.394048 
165.619504 
166.036510 
166.679260 
167.589529 
168.820629 
170.441083 
172.539491 
175.233156 
178.680887 
183.100288 
188.791789 
196.168889 
205.787472 
218.353729 
234.663784 
255.406380 
278.811035 
299.856847 
322.552575 
399.736975 
469.567560 
429.327173 
440.895298 
313.051908 
105.587492 
35.723614 
23.752419 
41.780289 
62.744948 
80.844541 
96.360831 
110.080861 
122.694374 
134.747524 
146.633131 
158.595725 
170.753329 
183.131178 
195.697630 
208.395098 
221.161689 
233.943289 
246.698865 
259.400239 
272.029569 
284.576362 
297.035115 
309.403824 
321.683634 
333.879089 
345.998560 
358.055043 
370.065255 
382.041834 
393.984450 
405.903278 
417.894553 
430.016311 
441.841739 
453.007466 
463.324990 
472.624910 
477.678245 
475.493928 
474.420184 
471.710370 
465.746120 
456.421209 
448.316400 
434.853510 
419.258233 
382.775715 
326.815888 
314.431736 
363.877272 
406.813372 
399.098057 
385.136038 
393.950439 
397.048970 
394.834464 
407.333088 
402.390479 
389.947303 
379.613076 
390.888706 
398.494972 
389.712094 
399.577854 
412.061713 
404.322718 
410.168657 
411.708876 
396.272310 
388.417964 
385.374278 
379.570220 
394.366924 
406.716413 
405.336204 
412.431861 
399.432329 
383.892700 
373.539518 
379.723348 
386.778689 
379.890189 
369.549183 
370.853737 
379.008454 
382.115983 
377.740874 
390.156769 
388.083613 
256.725880 
130.537986 
118.858305 
132.318008 
146.326817 
158.470697 
167.826857 
175.209194 
176.307423 
168.104035 
157.734011 
155.505543 
174.294169 
289.967922 
246.511664 
217.613103 
332.814132 
346.726970 
356.392116 
397.741228 
391.549590 
346.598869 
196.710764 
191.811256 
187.417856 
183.503128 
180.039366 
176.998422 
174.351948 
172.071721 
170.129854 
168.499002 
167.152554 
166.064806 
165.211105 
164.567961 
164.113131 
163.825669 
163.685954 
163.675685 
163.777860 
163.976738 
164.257782 
164.607600 
165.013877 
165.465300 
165.951488 
166.462922 
166.990875 
167.527344 
168.064996 
168.597105 
169.117508 
169.620555 
170.101074 
170.554329 
170.975997 
171.362144 
171.709202 
172.013964 
172.273578 
172.485542 
172.647697 
172.758184 
172.816211 
172.822625 
172.777265 
172.677048 
172.520591 
172.310806 
172.052658 
171.750004 
171.406395 
171.026508 
170.616468 
170.183333 
169.735412 
169.282437 
168.835575 
168.407427 
168.011730 
167.662677 
167.375288 
167.167348 
167.060746 
167.080942 
167.255642 
167.613980 
168.187195 
169.012493 
170.137502 
171.623462 
173.549571 
176.021787 
179.185411 
183.244854 
188.495064 
195.368066 
204.495083 
216.773576 
233.378667 
255.685559 
281.785731 
303.836704 
323.751414 
404.445795 
487.810495 
420.456989 
403.256343 
291.685778 
86.800211 
29.794462 
9.630225 
25.141109 
48.021272 
67.386484 
83.304910 
96.926142 
109.203571 
120.869359 
132.431103 
144.177534 
156.220069 
168.549806 
181.094321 
193.761941 
206.469057 
219.152272 
231.770467 
244.300540 
256.731257 
269.057813 
281.278241 
293.391790 
305.399022 
317.302574 
329.107883 
340.823707 
352.461940 
364.035098 
375.559422 
387.073486 
398.635462 
410.209714 
421.607201 
432.749738 
443.937491 
455.427172 
464.568250 
470.366432 
475.607386 
476.933893 
471.620499 
462.009545 
453.375180 
443.440933 
436.246130 
414.683935 
374.804208 
346.299156 
341.231478 
368.181419 
399.910776 
406.450461 
395.963919 
391.852241 
391.172678 
401.971938 
413.694605 
413.173455 
401.809797 
388.740835 
381.180350 
366.829682 
378.353285 
397.433575 
399.669505 
405.568157 
405.629160 
384.802964 
388.073288 
382.871237 
377.891295 
392.191131 
396.329019 
392.318908 
406.798598 
412.079515 
398.258146 
388.930589 
388.328443 
390.478158 
375.617237 
368.221489 
378.841305 
389.783997 
385.117791 
379.506244 
391.183174 
313.147607 
166.820686 
132.442185 
144.519671 
155.752735 
164.254447 
172.185908 
179.468130 
183.745886 
178.741352 
159.825647 
135.684394 
118.228770 
147.864916 
324.894234 
171.474535 
163.523573 
305.181733 
307.511782 
333.297658 
384.862678 
385.270269 
346.602932 
191.748255 
187.069314 
182.903806 
179.222819 
175.997158 
173.197135 
170.792864 
168.754640 
167.053199 
165.659942 
164.547150 
163.688165 
163.057538 
162.631142 
162.386247 
162.301563 
162.357246 
162.534886 
162.817465 
163.189299 
163.635974 
164.144267 
164.702065 
165.298284 
165.922785 
166.566294 
167.220330 
167.877134 
168.529604 
169.171232 
169.796061 
170.398628 
170.973926 
171.517371 
172.024764 
172.492269 
172.916395 
173.293980 
173.622190 
173.898519 
174.120780 
174.287066 
174.396770 
174.450623 
174.447603 
174.383859 
174.259368 
174.077938 
173.843577 
173.559222 
173.228335 
172.855778 
172.447659 
172.011170 
171.554774 
171.088330 
170.623156 
170.172005 
169.749048 
169.368984 
169.047179 
168.800550 
168.649591 
168.619215 
168.737066 
169.030779 
169.527763 
170.261162 
171.273007 
172.616399 
174.359589 
176.594610 
179.448429 
183.102089 
187.826907 
194.044929 
202.425258 
214.025548 
230.479317 
254.055410 
284.110951 
309.042582 
326.666053 
395.890725 
486.386187 
396.919801 
348.760134 
278.599214 
114.909338 
36.271130 
14.286715 
11.176861 
35.241001 
55.496646 
71.434053 
84.607516 
96.215883 
107.237790 
118.318560 
129.785305 
141.717040 
154.038528 
166.609763 
179.288895 
191.964713 
204.565608 
217.054677 
229.418647 
241.656421 
253.770725 
265.763570 
277.634986 
289.383957 
301.010247 
312.515846 
323.906415 
335.192509 
346.390254 
357.524062 
368.627966 
379.724944 
390.789679 
401.766141 
412.657674 
423.612961 
434.900327 
445.730003 
456.186261 
466.576916 
474.247972 
475.162756 
470.125130 
463.434181 
454.939312 
451.324153 
443.513503 
422.869837 
402.938599 
384.404039 
354.857113 
352.669313 
389.028582 
417.821111 
401.373932 
382.901070 
379.001590 
391.425251 
412.174664 
411.897083 
400.452937 
384.782798 
362.242159 
365.123181 
376.972372 
380.845298 
393.840057 
403.053240 
403.980604 
415.017716 
413.615925 
402.477092 
403.305613 
391.965733 
376.682986 
392.338851 
410.820192 
409.630956 
402.716110 
391.722625 
383.510918 
372.719430 
379.773542 
396.302774 
396.113022 
380.856821 
381.376743 
345.244138 
212.437178 
139.030932 
148.567494 
163.262216 
171.158213 
176.556764 
182.126013 
186.324793 
186.035933 
174.529549 
146.341273 
113.951663 
99.772691 
229.860893 
327.165299 
179.906268 
237.683116 
317.693348 
270.199306 
308.233952 
365.163101 
374.149243 
347.339499 
186.726122 
182.271745 
178.338054 
174.894618 
171.910664 
169.354830 
167.195570 
165.401622 
163.942291 
162.787698 
161.909012 
161.278635 
160.870355 
160.659457 
160.622780 
160.738754 
160.987381 
161.350208 
161.810263 
162.351986 
162.961141 
163.624724 
164.330870 
165.068760 
165.828530 
166.601180 
167.378500 
168.152988 
168.917786 
169.666619 
170.393737 
171.093869 
171.762182 
172.394237 
172.985961 
173.533614 
174.033771 
174.483305 
174.879385 
175.219482 
175.501374 
175.723141 
175.884181 
175.984789 
176.023188 
175.995668 
175.903368 
175.749994 
175.538352 
175.270876 
174.951079 
174.583805 
174.175049 
173.732016 
173.263232 
172.778657 
172.289738 
171.809410 
171.352086 
170.933222 
170.568788 
170.275296 
170.071671 
169.981750 
170.033632 
170.253203 
170.664397 
171.296315 
172.186052 
173.378609 
174.930572 
176.918822 
179.450109 
182.676425 
186.829382 
192.286927 
199.690535 
210.164555 
225.692888 
249.653268 
281.959410 
311.445006 
328.573194 
374.659970 
438.143276 
347.405693 
275.382383 
242.189280 
209.376171 
54.940598 
23.481559 
5.545086 
25.372239 
45.949012 
61.528940 
73.782869 
84.233660 
94.215234 
104.555288 
115.620509 
127.418745 
139.757708 
152.390108 
165.103018 
177.752686 
190.263625 
202.610725 
214.797190 
226.836191 
238.739473 
250.512507 
262.154377 
273.660401 
285.025530 
296.247164 
307.327724 
318.276541 
329.110605 
339.853739 
350.532047 
361.162569 
371.745289 
382.278087 
392.797620 
403.406659 
414.184198 
425.039239 
436.333079 
448.473889 
460.240455 
468.709328 
471.938023 
470.996769 
466.070139 
463.194093 
458.226169 
445.473431 
430.585749 
420.301315 
397.874348 
358.914373 
325.496031 
363.641258 
417.860371 
415.518365 
384.605349 
377.598390 
397.129282 
409.631347 
411.656604 
416.196052 
398.997284 
381.998858 
379.056170 
372.326963 
375.867841 
378.696564 
381.051288 
403.538151 
411.270133 
412.435141 
413.891627 
403.966248 
387.945899 
389.635845 
407.376606 
405.423090 
402.829989 
394.635225 
394.414485 
389.696423 
390.628638 
392.414778 
376.466924 
373.335282 
365.058043 
256.610058 
159.121495 
159.369562 
173.327431 
180.464485 
183.384435 
186.423052 
189.129733 
187.556713 
178.766794 
159.006793 
127.065510 
98.354864 
150.308168 
351.723185 
279.840968 
244.731660 
325.962055 
305.106958 
228.559969 
280.661984 
343.798863 
362.810025 
349.437212 
181.648566 
177.422725 
173.724628 
170.522370 
167.783513 
165.474860 
163.563094 
162.015322 
160.799375 
159.884078 
159.239489 
158.837096 
158.649968 
158.652855 
158.822235 
159.136325 
159.575047 
160.119975 
160.754254 
161.462508 
162.230733 
163.046196 
163.897324 
164.773600 
165.665463 
166.564215 
167.461932 
168.351388 
169.225980 
170.079670 
170.906922 
171.702662 
172.462227 
173.181329 
173.856016 
174.482645 
175.057849 
175.578526 
176.041835 
176.445204 
176.786366 
177.063414 
177.275501 
177.422322 
177.501743 
177.510617 
177.450535 
177.324417 
177.134261 
176.882170 
176.571660 
176.207342 
175.795012 
175.341750 
174.856034 
174.347844 
173.828721 
173.311776 
172.811611 
172.344189 
171.926292 
171.574774 
171.306977 
171.145154 
171.118062 
171.250568 
171.563612 
172.081498 
172.836868 
173.866784 
175.216814 
176.949229 
179.151053 
181.942944 
185.507908 
190.149919 
196.410494 
205.305889 
218.876355 
241.007019 
273.943826 
305.043317 
319.507594 
338.130025 
367.807204 
267.174634 
218.899164 
171.435407 
213.813640 
129.011130 
30.710623 
10.898554 
19.566188 
39.634104 
54.449532 
65.165641 
73.836643 
82.209505 
91.414309 
101.885893 
113.503592 
125.876600 
138.590944 
151.336824 
163.936727 
176.321386 
188.489367 
200.469195 
212.292728 
223.981189 
235.541316 
246.967763 
258.248544 
269.370816 
280.325404 
291.110199 
301.732084 
312.206708 
322.556116 
332.804519 
342.973012 
353.078528 
363.142696 
373.206522 
383.327705 
393.541256 
403.879115 
414.567293 
426.114679 
438.568185 
449.909535 
458.573087 
463.258114 
462.895870 
463.464692 
460.985722 
450.839125 
439.724653 
436.485929 
425.845360 
390.340018 
331.696448 
311.518983 
333.379947 
390.547808 
409.810376 
399.225057 
386.994476 
378.200658 
386.291024 
413.547871 
423.458482 
415.951908 
403.836786 
383.090433 
372.802748 
360.899987 
356.848133 
364.360299 
375.811788 
386.083452 
409.696715 
415.789143 
408.774545 
401.765641 
402.483289 
396.219566 
389.259906 
386.771128 
395.022612 
404.777507 
402.214775 
383.837471 
376.537739 
390.724560 
299.142537 
172.297161 
161.680426 
185.238777 
195.013054 
195.989196 
195.167903 
196.647938 
196.796856 
188.746407 
169.840572 
141.627431 
111.040701 
133.778994 
304.299531 
329.488837 
221.633086 
308.623593 
336.436360 
243.523783 
192.304281 
254.685099 
324.749952 
353.046219 
350.654355 
176.518527 
172.525558 
169.067332 
166.110055 
163.619479 
161.560674 
159.898518 
158.598417 
157.626697 
156.950870 
156.539894 
156.364379 
156.396728 
156.611222 
156.984051 
157.493295 
158.118876 
158.842468 
159.647403 
160.518550 
161.442195 
162.405922 
163.398490 
164.409719 
165.430381 
166.452099 
167.467256 
168.468911 
169.450728 
170.406907 
171.332133 
172.221525 
173.070593 
173.875199 
174.631517 
175.335997 
175.985329 
176.576428 
177.106427 
177.572698 
177.972897 
178.305065 
178.567945 
178.760612 
178.880846 
178.926465 
178.898534 
178.799010 
178.629236 
178.391235 
178.088227 
177.724477 
177.305466 
176.838010 
176.330399 
175.792519 
175.235930 
174.673872 
174.121186 
173.594178 
173.110572 
172.687629 
172.342189 
172.094471 
171.972293 
172.000698 
172.197806 
172.584065 
173.186026 
174.034553 
175.165366 
176.626477 
178.485511 
180.834431 
183.805558 
187.615083 
192.652281 
199.673244 
210.288468 
228.700568 
258.722256 
290.636577 
305.261673 
305.184310 
300.573737 
208.063722 
162.417727 
135.559917 
144.505399 
213.064914 
48.826063 
14.827361 
18.537968 
37.083947 
50.742161 
59.447200 
65.667096 
71.670748 
79.166647 
88.765779 
100.139550 
112.563912 
125.369185 
138.119846 
150.611531 
162.800134 
174.725476 
186.452350 
198.035218 
209.503297 
220.859871 
232.089322 
243.167034 
254.068407 
264.775062 
275.278735 
285.583043 
295.702294 
305.658613 
315.478246 
325.188301 
334.815940 
344.390867 
353.948388 
363.524926 
373.154433 
382.896061 
392.881872 
403.282223 
414.242599 
425.172309 
435.485877 
443.216732 
448.116980 
451.503614 
453.316219 
448.133489 
442.544448 
438.050659 
431.895283 
406.466193 
376.129361 
357.661977 
326.867449 
296.293333 
331.408290 
388.490801 
406.365323 
380.487986 
357.988733 
378.624760 
396.816823 
408.110928 
416.548598 
408.289633 
394.977350 
372.808744 
361.552035 
355.897389 
354.437124 
362.872971 
389.635701 
413.469771 
423.389359 
421.673311 
421.562444 
408.726425 
392.771055 
382.703885 
396.410998 
416.643561 
403.362959 
377.654806 
406.954634 
351.483264 
196.810362 
150.199668 
181.086067 
203.343721 
209.317469 
206.779423 
204.318776 
204.196226 
203.195175 
191.516195 
164.722950 
133.349136 
150.070047 
276.826561 
311.299054 
175.937781 
187.516234 
315.315095 
305.000665 
203.450321 
177.999040 
246.820004 
319.926618 
351.861964 
352.470971 
171.338684 
167.582795 
164.369118 
161.661190 
159.422316 
157.615778 
156.204944 
155.153596 
154.426493 
153.989832 
153.811496 
153.861261 
154.110925 
154.534377 
155.107599 
155.808624 
156.617449 
157.515930 
158.487650 
159.517788 
160.592975 
161.701157 
162.831464 
163.974084 
165.120145 
166.261614 
167.391193 
168.502239 
169.588685 
170.644978 
171.666019 
172.647119 
173.583961 
174.472557 
175.309211 
176.090471 
176.813084 
177.473972 
178.070230 
178.599153 
179.058293 
179.445545 
179.759195 
179.997784 
180.159136 
180.241663 
180.245659 
180.172200 
180.022134 
179.797193 
179.500110 
179.134700 
178.705983 
178.220349 
177.685729 
177.111765 
176.509923 
175.893517 
175.277635 
174.678982 
174.115758 
173.606332 
173.167258 
172.817193 
172.581227 
172.483748 
172.541458 
172.770968 
173.193216 
173.831974 
174.714587 
175.875589 
177.363661 
179.242844 
181.600414 
184.566862 
188.368459 
193.433970 
200.691216 
212.993412 
234.512571 
257.888363 
260.826720 
233.680936 
253.631357 
215.877812 
130.716973 
113.077065 
93.249352 
188.477942 
111.306807 
17.533597 
21.891277 
38.485074 
50.541790 
57.098126 
60.335142 
63.069297 
68.055470 
76.394382 
87.464513 
99.977659 
112.875318 
125.570518 
137.854520 
149.739989 
161.332105 
172.744707 
184.057297 
195.302399 
206.471612 
217.530362 
228.434328 
239.142195 
249.623448 
259.862453 
269.859708 
279.629545 
289.196414 
298.591075 
307.847096 
316.998698 
326.079818 
335.124146 
344.165328 
353.239966 
362.395376 
371.701365 
381.231577 
390.988492 
400.780963 
410.496247 
418.982925 
425.968256 
432.360063 
437.043953 
438.841437 
438.997286 
436.851322 
431.726447 
416.778132 
406.866743 
405.809266 
379.273885 
322.087446 
287.726294 
303.660701 
372.748676 
419.776597 
409.247972 
382.598125 
365.399952 
376.062858 
400.007676 
422.782964 
421.011880 
403.416590 
387.416556 
374.987194 
366.760164 
369.890540 
388.656928 
394.315038 
402.499164 
410.302339 
420.750134 
415.563546 
412.566613 
401.783345 
400.628766 
398.060202 
384.378692 
387.707043 
385.188636 
241.847615 
146.474481 
167.171983 
198.784867 
215.762891 
217.887588 
212.617521 
204.159860 
198.188318 
193.959508 
181.577280 
162.915048 
197.397334 
264.126148 
265.539001 
162.667682 
103.976260 
158.713096 
258.060477 
285.098979 
215.331702 
194.719033 
265.996735 
337.903130 
364.734339 
358.054759 
166.114111 
162.598826 
159.633654 
157.179006 
155.195293 
153.643557 
152.485504 
151.683543 
151.200984 
151.002693 
151.055517 
151.328456 
151.792779 
152.422069 
153.192190 
154.081214 
155.069302 
156.138567 
157.272917 
158.457899 
159.680540 
160.929192 
162.193392 
163.463722 
164.731693 
165.989627 
167.230561 
168.448158 
169.636627 
170.790658 
171.905367 
172.976253 
173.999166 
174.970270 
175.886003 
176.743025 
177.538146 
178.268287 
178.930478 
179.521908 
180.039991 
180.482408 
180.847075 
181.132008 
181.335127 
181.454903 
181.490936 
181.443404 
181.312760 
181.100210 
180.807878 
180.438965 
179.997866 
179.490349 
178.923775 
178.307345 
177.652276 
176.971849 
176.281331 
175.597779 
174.939617 
174.325871 
173.773687 
173.301241 
172.930209 
172.682944 
172.574663 
172.618330 
172.828275 
173.220688 
173.813385 
174.628042 
175.695358 
177.055185 
178.753049 
180.842522 
183.398697 
186.539957 
190.483893 
195.347772 
203.638648 
210.611411 
197.582046 
154.974537 
152.208683 
256.430354 
146.145652 
107.746062 
94.281030 
138.198158 
180.636613 
26.068190 
29.547495 
44.041964 
53.927324 
58.182500 
58.207556 
56.843803 
58.259167 
64.814609 
75.569439 
88.261078 
101.250603 
113.792479 
125.722057 
137.156423 
148.297825 
159.323198 
170.336774 
181.365049 
192.375030 
203.301184 
214.070412 
224.619076 
234.901664 
244.894801 
254.597073 
264.024957 
273.207697 
282.182567 
290.990909 
299.674385 
308.272699 
316.822575 
325.360409 
333.922381 
342.545227 
351.269288 
360.125469 
369.087911 
378.042603 
386.815156 
395.106986 
402.777839 
409.915514 
415.937702 
421.470349 
426.190943 
429.455077 
427.829367 
422.406095 
421.068890 
427.426072 
411.271416 
373.547518 
341.912305 
308.647084 
292.714707 
311.747607 
376.538217 
422.924298 
411.378379 
373.585150 
363.471374 
389.023455 
405.251499 
412.226965 
411.166464 
404.965149 
398.716136 
403.014820 
409.350810 
394.915438 
388.142263 
384.311596 
384.039614 
394.047564 
416.148717 
419.394743 
400.444485 
385.465156 
390.789184 
402.111633 
297.758121 
175.634040 
172.428955 
196.631365 
216.584950 
225.688220 
223.602493 
209.955917 
188.664338 
170.594422 
163.891971 
173.457202 
240.765275 
239.065825 
184.764001 
129.408147 
88.213218 
110.208974 
144.751955 
193.892978 
236.296051 
243.672485 
229.103431 
297.474071 
363.655391 
381.015929 
363.394100 
160.854734 
157.581535 
154.866450 
152.667304 
150.941524 
149.646994 
148.743228 
148.190969 
147.952372 
147.991144 
148.273126 
148.766618 
149.442446 
150.273980 
151.237067 
152.309912 
153.472927 
154.708561 
156.001115 
157.336564 
158.702378 
160.087358 
161.481476 
162.875735 
164.262046 
165.633102 
166.982287 
168.303574 
169.591451 
170.840852 
172.047105 
173.205888 
174.313206 
175.365368 
176.358961 
177.290778 
178.157711 
178.956667 
179.684574 
180.338474 
180.915599 
181.413393 
181.829463 
182.161496 
182.407278 
182.565035 
182.633672 
182.612608 
182.501706 
182.301483 
182.013337 
181.639705 
181.184187 
180.651693 
180.048743 
179.383855 
178.667807 
177.913679 
177.136772 
176.354346 
175.585045 
174.848084 
174.161948 
173.544539 
173.016041 
172.594897 
172.293753 
172.121047 
172.083231 
172.186379 
172.438309 
172.849236 
173.433331 
174.205650 
175.173156 
176.319944 
177.589615 
178.840139 
179.686274 
178.833578 
176.302969 
170.380730 
151.827483 
114.907914 
81.144236 
237.292732 
190.149608 
105.007281 
96.231291 
127.930222 
217.810756 
40.586352 
41.314573 
53.352925 
60.317830 
62.161606 
59.232987 
53.346922 
49.869811 
53.934888 
64.494857 
77.552506 
90.634974 
102.880874 
114.254908 
125.044865 
135.590245 
146.146476 
156.838424 
167.670774 
178.566830 
189.413862 
200.098967 
210.530193 
220.644988 
230.412996 
239.833149 
248.926872 
257.730924 
266.291702 
274.660165 
282.887252 
291.020399 
299.102116 
307.172837 
315.269291 
323.421557 
331.654001 
339.974605 
348.351582 
356.711299 
364.931090 
372.831720 
380.308094 
387.395314 
394.042147 
400.663833 
406.876180 
412.267312 
415.828259 
416.203646 
419.250345 
425.475932 
418.380328 
398.504608 
381.385657 
361.078883 
326.499568 
273.891342 
243.944505 
278.518278 
366.606329 
417.656477 
415.405078 
383.999557 
370.677977 
377.259472 
396.080639 
406.921928 
414.478315 
417.824213 
417.221074 
396.936656 
389.890301 
380.744500 
374.276594 
385.534677 
415.589644 
417.082536 
386.817703 
382.728331 
417.986166 
338.222234 
219.267237 
209.848893 
221.070013 
228.082103 
233.644549 
236.382521 
227.807725 
198.510627 
156.687961 
132.012911 
167.677894 
299.491195 
347.197950 
241.404438 
167.184497 
107.485457 
76.117414 
123.644681 
173.899656 
184.726288 
196.329736 
243.349272 
247.305118 
308.203900 
367.687472 
380.894446 
360.273757 
155.567286 
152.537987 
150.073934 
148.131227 
146.664631 
145.629094 
144.980807 
144.678480 
144.682864 
144.956836 
145.465438 
146.176334 
147.060009 
148.089725 
149.241413 
150.493515 
151.826782 
153.224076 
154.670157 
156.151484 
157.656018 
159.173040 
160.692989 
162.207309 
163.708323 
165.189112 
166.643409 
168.065509 
169.450180 
170.792600 
172.088302 
173.333136 
174.523243 
175.655061 
176.725323 
177.731009 
178.669137 
179.536582 
180.330105 
181.046552 
181.682972 
182.236597 
182.704768 
183.084891 
183.374500 
183.571413 
183.673852 
183.680462 
183.590342 
183.403187 
183.119501 
182.740811 
182.269770 
181.710169 
181.067320 
180.348785 
179.564722 
178.727802 
177.853110 
176.958033 
176.061515 
175.183496 
174.343195 
173.559098 
172.849807 
172.230754 
171.709876 
171.289620 
170.967303 
170.738424 
170.598846 
170.546404 
170.579422 
170.690080 
170.849962 
170.985806 
170.939606 
170.385368 
168.642288 
164.429240 
156.215167 
144.399061 
125.815462 
96.533116 
62.490024 
141.933055 
238.194863 
104.940956 
90.416785 
143.234858 
245.929146 
52.083599 
53.082067 
63.959815 
68.445114 
68.211282 
63.205836 
53.215398 
43.430538 
43.662650 
54.275959 
68.022066 
81.196849 
92.951086 
103.504217 
113.401000 
123.169829 
133.163972 
143.520647 
154.197622 
165.046576 
175.885694 
186.549373 
196.911654 
206.892575 
216.457102 
225.607638 
234.373919 
242.803430 
250.954561 
258.890079 
266.672116 
274.357494 
281.997100 
289.635705 
297.311288 
305.048582 
312.861711 
320.747070 
328.673638 
336.581753 
344.380375 
351.964673 
359.265016 
366.242432 
372.855884 
379.233517 
385.576377 
391.449672 
396.232722 
399.256324 
403.872696 
409.248161 
407.783806 
398.561122 
391.711777 
382.820408 
359.418997 
323.042437 
284.877686 
258.720216 
245.668456 
282.113321 
362.960597 
423.137595 
422.921548 
390.010986 
373.274313 
377.238433 
387.275559 
396.921901 
403.621848 
408.624853 
408.223741 
403.376471 
393.513114 
404.731094 
412.074211 
396.673755 
375.834020 
412.994934 
372.088456 
257.780604 
234.008194 
252.152209 
252.562645 
248.311038 
248.152381 
249.013200 
233.409261 
184.182209 
118.729554 
83.747213 
165.013154 
299.925637 
345.746364 
370.586804 
378.750251 
303.938044 
166.076833 
137.383395 
188.356123 
209.846628 
173.436943 
235.137326 
258.099630 
301.884378 
355.822261 
369.574866 
351.442724 
150.255835 
147.472949 
145.262011 
143.576633 
142.369659 
141.593298 
141.200956 
141.148335 
141.394531 
141.901392 
142.633503 
143.558121 
144.645478 
145.868844 
147.204351 
148.630776 
150.129300 
151.683270 
153.277969 
154.900393 
156.539036 
158.183693 
159.825290 
161.455729 
163.067755 
164.654845 
166.211093 
167.731117 
169.209969 
170.643070 
172.026160 
173.355250 
174.626605 
175.836752 
176.982531 
178.061174 
179.069963 
180.005696 
180.864833 
181.644012 
182.340149 
182.950314 
183.471623 
183.901190 
184.236188 
184.473932 
184.611976 
184.648170 
184.580736 
184.408386 
184.130540 
183.747606 
183.261155 
182.673572 
181.988539 
181.212432 
180.354633 
179.427077 
178.444411 
177.424157 
176.385480 
175.349444 
174.336319 
173.364476 
172.451482 
171.610116 
170.844237 
170.149168 
169.511513 
168.912758 
168.336373 
167.766518 
167.186347 
166.569202 
165.863053 
164.959143 
163.642078 
161.509367 
157.867464 
151.681001 
141.502680 
127.594712 
110.038994 
86.252752 
56.557618 
57.182215 
268.165927 
150.386533 
80.277070 
154.910120 
267.850400 
56.044519 
61.316590 
73.469747 
77.244976 
76.018690 
70.250452 
57.670522 
41.132691 
34.854145 
45.240740 
59.962976 
73.193660 
84.201254 
93.589429 
102.265573 
111.018550 
120.332552 
130.345634 
140.929379 
151.821776 
162.742293 
173.457850 
183.804427 
193.686770 
203.068874 
211.960762 
220.404012 
228.460508 
236.203484 
243.710193 
251.055771 
258.308791 
265.529286 
272.767155 
280.059862 
287.427718 
294.879064 
302.404036 
309.971006 
317.527886 
325.006517 
332.328939 
339.424852 
346.239250 
352.749613 
358.994683 
364.993097 
370.447914 
375.078807 
378.806196 
382.919895 
387.530437 
388.310329 
385.459903 
382.087873 
380.418639 
371.446112 
355.004085 
335.351690 
317.256509 
290.230713 
260.322550 
235.958516 
273.317002 
354.031457 
412.981655 
420.004918 
397.948373 
381.036164 
378.745464 
387.903553 
413.769802 
424.863060 
420.361931 
414.683477 
413.395964 
404.301955 
387.359231 
408.362342 
381.717483 
288.125288 
255.074953 
274.042246 
273.466938 
262.684370 
252.565211 
253.766957 
257.137069 
240.180231 
193.287919 
183.365936 
198.508888 
167.699712 
143.185485 
135.266085 
165.498350 
258.145718 
376.507733 
389.445099 
338.709137 
301.032558 
248.081092 
194.265040 
242.824085 
285.813282 
314.548793 
360.816713 
371.808380 
351.043224 
144.924182 
142.390759 
140.435669 
139.009419 
138.062152 
137.544282 
137.406722 
137.602798 
138.089080 
138.826257 
139.778307 
140.912412 
142.198781 
143.610804 
145.124941 
146.720407 
148.378893 
150.084303 
151.822502 
153.581070 
155.349073 
157.116852 
158.875837 
160.618394 
162.337698 
164.027624 
165.682639 
167.297689 
168.868109 
170.389560 
171.857994 
173.269603 
174.620743 
175.908016 
177.128281 
178.279043 
179.357994 
180.361841 
181.286617 
182.128796 
182.885238 
183.552917 
184.128720 
184.609445 
184.991840 
185.272678 
185.448826 
185.517320 
185.475447 
185.320833 
185.051615 
184.666839 
184.166933 
183.552526 
182.825111 
181.989554 
181.054383 
180.030371 
178.931426 
177.774627 
176.579660 
175.368716 
174.164145 
172.984289 
171.846529 
170.762486 
169.732560 
168.743487 
167.769068 
166.775265 
165.728340 
164.597621 
163.354024 
161.962817 
160.365967 
158.449282 
155.992096 
152.608721 
147.703652 
140.468171 
130.041985 
116.037332 
99.272620 
78.434104 
52.650297 
31.546933 
196.253627 
235.886953 
70.131568 
157.352895 
281.596629 
55.524618 
65.141440 
80.472294 
85.963050 
85.654566 
80.899357 
68.384482 
47.241494 
31.376784 
38.532161 
53.885454 
67.039044 
76.993211 
84.791949 
91.799706 
99.185106 
107.638470 
117.290601 
127.862633 
138.912057 
150.019056 
160.867235 
171.253553 
181.072048 
190.291060 
198.932683 
207.054313 
214.735621 
222.068015 
229.145949 
236.060064 
242.892050 
249.711397 
256.572433 
263.511458 
270.547309 
277.684283 
284.908179 
292.185177 
299.467477 
306.695650 
313.800972 
320.715927 
327.386592 
333.778320 
339.867443 
345.605827 
350.824080 
355.328983 
359.179116 
362.786994 
366.542847 
368.752990 
368.505292 
367.826404 
367.319165 
365.204841 
360.167141 
354.387503 
347.134746 
333.679228 
309.882952 
279.244574 
256.355859 
229.691903 
251.288744 
326.726443 
404.609304 
427.843109 
403.415144 
378.548063 
388.840370 
397.080407 
411.713371 
420.298410 
419.157032 
401.193590 
415.445860 
408.775482 
310.492473 
260.240719 
282.347762 
289.789390 
275.303682 
253.602614 
239.495583 
237.788393 
241.067981 
235.588374 
270.540132 
352.795231 
342.662199 
275.483411 
210.649283 
165.473921 
147.816038 
168.294417 
228.084470 
307.277074 
356.706065 
386.311497 
391.356151 
364.909411 
367.805579 
333.692763 
350.813817 
388.693086 
390.383253 
360.392101 
139.577778 
137.296198 
135.599570 
134.434361 
133.747575 
133.487092 
133.602291 
134.044386 
134.768190 
135.732491 
136.900633 
138.239558 
139.719754 
141.314993 
143.002189 
144.761093 
146.573975 
148.425358 
150.301746 
152.191351 
154.083849 
155.970150 
157.842205 
159.692840 
161.515653 
163.304923 
165.055501 
166.762670 
168.422041 
170.029513 
171.581229 
173.073609 
174.503177 
175.866500 
177.160224 
178.382273 
179.530919 
180.602789 
181.593248 
182.498771 
183.316331 
184.042779 
184.674764 
185.208742 
185.641022 
185.967816 
186.185292 
186.289655 
186.277235 
186.144575 
185.888451 
185.506447 
184.997510 
184.360266 
183.593311 
182.699639 
181.686361 
180.562550 
179.340720 
178.037194 
176.671962 
175.268611 
173.853562 
172.447423 
171.067776 
169.726021 
168.421044 
167.130776 
165.812039 
164.411782 
162.875753 
161.156358 
159.215991 
157.024848 
154.542994 
151.684058 
148.266231 
143.968124 
138.311618 
130.705273 
120.576920 
107.434109 
91.671636 
72.979966 
50.426178 
28.245796 
105.308358 
305.545193 
63.678087 
150.789496 
288.944148 
52.089865 
63.965116 
83.671162 
93.651783 
97.167246 
95.716393 
86.586119 
65.414351 
40.496527 
37.144485 
50.533629 
63.206627 
71.869235 
77.655844 
82.389257 
87.846166 
95.120732 
104.356487 
115.010752 
126.349785 
137.758946 
148.823827 
159.305381 
169.093360 
178.166613 
186.563731 
194.361888 
201.662055 
208.576827 
215.220840 
221.702540 
228.118209 
234.546698 
241.047189 
247.656152 
254.392032 
261.255324 
268.227232 
275.270568 
282.337685 
289.372023 
296.309374 
303.085210 
309.643894 
315.938334 
321.919907 
327.523058 
332.647296 
337.201216 
341.232955 
344.935381 
348.333623 
350.983646 
352.405019 
352.916579 
353.106443 
352.813493 
350.952779 
348.380919 
346.442890 
343.172391 
334.028492 
320.264273 
302.208581 
271.941307 
242.024053 
221.226052 
241.720821 
308.683376 
376.379558 
409.588447 
413.188693 
390.232168 
389.454338 
407.180213 
415.650192 
428.600098 
441.193788 
381.613414 
300.073362 
288.008886 
292.236256 
281.817366 
256.154279 
226.403605 
202.660066 
188.543551 
186.567232 
217.564072 
326.145054 
398.390893 
357.069134 
310.577835 
277.802946 
258.683055 
235.946365 
221.378290 
227.318499 
258.282523 
292.544491 
332.937673 
352.118373 
371.873373 
421.860903 
359.881323 
371.193447 
403.533116 
401.704163 
368.075411 
134.222424 
132.194728 
130.758484 
129.855929 
129.430377 
129.426770 
129.792154 
130.476676 
131.433707 
132.621083 
134.000862 
135.539687 
137.208129 
138.980710 
140.835063 
142.751510 
144.712966 
146.704650 
148.713751 
150.729155 
152.741179 
154.741331 
156.722095 
158.676754 
160.599294 
162.484385 
164.327299 
166.123689 
167.869386 
169.560507 
171.193434 
172.764768 
174.271057 
175.708772 
177.074869 
178.367372 
179.585469 
180.725407 
181.782111 
182.751700 
183.631500 
184.418279 
185.108454 
185.698151 
186.183262 
186.559458 
186.822218 
186.966892 
186.988827 
186.883488 
186.646361 
186.273490 
185.762018 
185.108284 
184.307545 
183.360208 
182.271242 
181.047438 
179.699094 
178.241139 
176.693841 
175.082984 
173.439584 
171.790190 
170.154191 
168.544203 
166.960246 
165.372350 
163.717836 
161.918698 
159.893819 
157.574277 
154.918687 
151.916763 
148.571594 
144.857425 
140.662909 
135.745196 
129.723787 
122.133014 
112.516228 
100.523550 
86.143714 
69.551373 
50.101696 
29.825975 
62.123068 
335.739531 
59.745677 
132.121413 
289.541570 
47.374214 
57.186747 
82.837775 
100.670544 
111.228088 
115.113956 
112.076593 
96.422893 
63.636692 
43.863622 
50.399234 
61.971610 
69.435530 
73.003033 
74.758653 
77.383952 
82.893238 
91.569861 
102.401589 
114.174567 
126.005029 
137.369899 
148.000980 
157.791416 
166.736030 
174.893684 
182.364568 
189.273972 
195.759090 
201.957755 
207.999323 
213.995972 
220.037536 
226.188429 
232.486882 
238.950036 
245.574330 
252.335126 
259.191236 
266.093101 
272.983969 
279.801336 
286.482061 
292.968690 
299.208153 
305.144493 
310.718246 
315.870012 
320.564931 
324.821940 
328.708725 
332.203508 
335.102166 
337.207397 
338.576630 
339.282098 
339.145403 
337.966931 
336.037866 
334.545228 
333.959292 
330.658874 
326.964567 
320.523714 
305.966704 
285.605539 
263.685261 
236.887509 
204.442107 
203.243702 
275.761273 
368.604876 
421.771201 
427.404821 
405.642007 
397.549800 
405.111079 
401.705773 
371.278874 
350.216960 
320.741915 
291.052234 
259.295442 
224.320603 
186.158579 
150.484685 
124.946046 
127.622603 
236.011263 
224.757237 
314.977639 
354.901371 
346.834318 
324.960376 
311.989715 
287.940889 
226.564626 
192.252511 
191.881713 
214.538875 
248.137587 
258.711764 
272.854505 
342.665920 
345.259410 
345.953172 
384.340915 
390.174652 
367.917227 
128.865095 
127.092640 
125.917865 
125.278732 
125.114849 
125.367412 
125.980770 
126.903406 
128.088435 
129.493088 
131.079206 
132.812441 
134.663417 
136.607261 
138.622535 
140.690327 
142.794314 
144.920447 
147.056645 
149.192503 
151.319000 
153.428265 
155.513345 
157.567984 
159.586490 
161.563862 
163.495852 
165.378563 
167.207999 
168.980343 
170.692038 
172.339789 
173.920511 
175.430859 
176.868069 
178.230615 
179.518154 
180.726799 
181.850605 
182.885469 
183.828924 
184.677848 
185.428467 
186.076656 
186.617945 
187.047524 
187.360226 
187.550554 
187.612791 
187.541288 
187.330491 
186.974718 
186.468479 
185.805662 
184.978660 
183.984880 
182.826105 
181.506201 
180.032252 
178.417526 
176.681785 
174.852445 
172.964802 
171.055039 
169.148440 
167.261019 
165.398888 
163.528584 
161.565000 
159.396877 
156.906546 
153.995677 
150.617436 
146.794740 
142.601775 
138.108007 
133.298322 
128.006809 
121.906204 
114.569170 
105.579430 
94.665982 
81.763738 
67.318980 
50.897604 
32.687542 
44.675489 
338.989342 
58.121589 
100.488709 
284.378220 
46.523758 
45.582749 
79.132723 
108.237783 
128.983706 
139.610904 
142.790670 
138.737383 
97.703523 
56.197189 
52.229232 
62.538457 
69.749288 
71.692895 
70.046437 
68.518407 
71.169764 
78.971346 
90.063112 
102.417556 
114.786153 
126.532799 
137.369088 
147.198414 
156.035145 
163.960795 
171.100437 
177.606541 
183.644771 
189.380478 
194.966922 
200.535208 
206.187545 
211.994777 
217.997467 
224.210356 
230.624475 
237.209068 
243.918198 
250.698168 
257.490092 
264.231108 
270.858596 
277.314244 
283.543810 
289.493621 
295.113960 
300.368279 
305.234881 
309.705479 
313.787516 
317.446240 
320.582948 
323.079291 
324.867463 
325.885670 
326.046786 
325.329854 
323.959523 
322.311751 
320.641680 
318.582891 
317.231230 
314.389979 
308.724903 
300.828395 
289.544570 
267.368010 
231.208226 
194.626985 
180.410984 
199.087917 
289.982412 
400.373996 
449.606705 
404.389103 
377.716677 
364.634025 
373.173864 
357.445356 
316.482161 
268.052716 
225.535905 
183.881904 
139.462206 
97.676934 
76.529329 
175.165388 
210.223783 
143.701146 
186.732163 
254.796417 
300.602801 
332.450275 
340.530728 
344.629548 
288.063760 
200.912176 
154.386816 
123.477880 
120.433686 
132.400865 
155.261416 
213.220971 
264.830998 
292.342270 
340.021589 
362.139145 
361.120627 
123.512865 
121.996679 
121.084157 
120.709120 
120.806764 
121.314333 
122.173098 
123.329834 
124.736909 
126.352099 
128.136982 
130.057401 
132.084260 
134.193427 
136.363494 
138.576237 
140.816490 
143.071071 
145.328659 
147.579556 
149.815413 
152.028990 
154.213927 
156.364498 
158.475275 
160.541469 
162.559338 
164.525406 
166.435588 
168.286039 
170.073671 
171.795455 
173.448680 
175.030492 
176.538667 
177.971583 
179.328431 
180.605747 
181.797299 
182.898598 
183.907072 
184.819984 
185.633429 
186.343086 
186.944201 
187.431571 
187.799488 
188.041687 
188.151382 
188.121860 
187.946638 
187.618158 
187.127636 
186.466101 
185.623726 
184.594535 
183.376601 
181.970045 
180.377570 
178.608772 
176.682129 
174.625673 
172.478559 
170.289338 
168.095885 
165.922112 
163.785019 
161.655363 
159.428650 
156.950616 
154.049878 
150.578703 
146.474950 
141.804629 
136.747942 
131.515501 
126.219485 
120.763619 
114.823770 
107.938080 
99.662705 
89.729727 
78.164227 
65.648378 
51.889338 
35.586396 
38.331430 
331.911495 
58.491125 
72.418463 
276.804931 
57.207399 
30.256471 
72.075200 
115.946984 
151.337942 
171.069810 
177.394349 
188.106674 
139.361860 
67.970362 
53.337940 
63.467244 
71.923169 
74.018912 
69.842360 
63.024266 
60.681383 
66.651918 
77.992630 
91.072541 
104.096700 
116.312571 
127.419720 
137.335963 
146.096085 
153.804022 
160.610385 
166.698312 
172.267134 
177.514690 
182.622962 
187.745386 
192.999168 
198.463226 
204.180232 
210.161186 
216.390508 
222.829968 
229.427153 
236.122883 
242.854237 
249.556843 
256.167872 
262.629434 
268.888937 
274.896210 
280.607869 
285.994424 
291.032488 
295.698119 
299.970437 
303.817869 
307.169526 
309.928637 
312.001049 
313.311139 
313.813318 
313.526737 
312.581320 
311.200493 
309.507262 
307.351434 
304.828467 
301.926384 
298.714741 
293.679293 
286.863066 
274.982677 
252.915507 
227.242517 
206.217400 
184.649748 
176.152414 
232.505399 
370.769454 
439.047327 
425.490485 
387.547228 
359.926078 
327.281371 
277.293776 
222.829388 
175.141759 
130.749228 
87.932127 
55.934712 
105.418398 
242.281614 
190.875310 
154.569365 
145.680417 
141.897547 
144.703079 
184.949123 
200.042463 
220.547164 
310.247532 
352.063443 
273.842885 
157.684722 
106.088809 
95.920603 
85.724091 
108.429022 
176.793961 
243.922755 
301.439753 
336.843207 
352.288720 
118.171056 
116.913158 
116.264577 
116.154613 
116.513213 
117.273918 
118.375153 
119.761776 
121.385390 
123.203377 
125.178106 
127.276509 
129.471004 
131.737833 
134.055920 
136.407434 
138.777892 
141.154933 
143.528163 
145.888661 
148.228741 
150.541781 
152.822050 
155.064343 
157.263351 
159.414568 
161.514873 
163.560987 
165.548774 
167.474510 
169.335812 
171.130191 
172.855545 
174.509190 
176.088567 
177.591634 
179.017097 
180.362281 
181.621393 
182.789747 
183.864525 
184.843184 
185.721854 
186.496036 
187.160797 
187.710658 
188.139495 
188.440438 
188.605730 
188.627715 
188.499127 
188.210628 
187.749647 
187.104056 
186.262117 
185.214410 
183.954715 
182.478122 
180.781190 
178.867718 
176.753728 
174.466003 
172.046642 
169.556320 
167.052599 
164.575599 
162.161981 
159.798981 
157.371816 
154.676114 
151.460223 
147.490817 
142.659905 
137.080948 
131.087325 
125.102059 
119.415445 
113.993750 
108.452051 
102.214927 
94.751170 
85.767097 
75.361860 
64.332983 
52.435332 
37.486779 
36.932893 
323.312603 
59.920575 
64.368506 
259.671932 
85.761161 
15.258130 
60.835455 
122.589056 
178.960778 
213.311185 
220.379408 
238.493863 
183.069801 
72.964609 
51.874756 
64.098723 
75.137063 
79.533758 
75.538393 
64.347540 
54.194571 
55.350778 
66.220377 
80.069967 
93.873467 
106.668571 
118.137210 
128.212418 
136.946616 
144.463236 
150.939345 
156.593204 
161.664177 
166.389861 
170.987106 
175.637175 
180.476045 
185.592235 
191.029591 
196.794100 
202.861053 
209.182870 
215.698805 
222.342281 
229.045313 
235.741007 
242.365941 
248.863198 
255.182101 
261.274740 
267.099672 
272.628643 
277.834574 
282.684372 
287.148222 
291.195283 
294.758492 
297.754225 
300.094968 
301.724840 
302.615552 
302.785282 
302.316049 
301.316139 
299.827191 
297.859345 
295.437303 
292.354396 
288.395029 
283.569952 
278.380364 
270.596848 
257.008373 
242.067272 
225.843617 
206.230301 
185.345399 
175.327748 
254.078728 
391.362983 
439.877453 
401.154727 
342.601465 
286.648643 
225.618078 
164.593242 
113.001791 
71.188995 
40.908217 
64.103554 
203.312092 
225.030047 
172.994749 
166.213005 
167.602018 
165.355390 
154.714918 
188.149614 
209.559529 
184.105053 
173.251602 
322.599410 
349.267772 
232.570369 
193.612768 
187.614414 
176.572933 
164.599870 
178.562989 
238.925169 
292.847643 
327.083829 
345.276901 
112.842856 
111.846257 
111.463705 
111.618920 
112.237043 
113.248082 
114.588114 
116.200104 
118.034713 
120.049108 
122.205747 
124.473191 
126.825789 
129.241324 
131.698743 
134.181381 
136.675320 
139.168834 
141.652005 
144.116637 
146.555812 
148.963522 
151.334569 
153.663996 
155.946907 
158.179190 
160.358505 
162.481713 
164.544677 
166.544155 
168.478534 
170.345577 
172.142840 
173.867568 
175.517234 
177.089455 
178.582687 
179.994804 
181.321534 
182.557539 
183.699863 
184.745880 
185.692052 
186.533789 
187.266071 
187.883256 
188.378948 
188.745840 
188.975446 
189.059229 
188.988916 
188.754026 
188.339114 
187.728849 
186.908774 
185.865804 
184.588764 
183.066849 
181.288795 
179.250219 
176.962166 
174.447667 
171.748871 
168.935103 
166.085368 
163.269528 
160.559202 
157.980706 
155.428467 
152.646389 
149.267180 
144.909480 
139.358300 
132.759339 
125.664703 
118.831365 
112.822070 
107.655192 
102.780962 
97.396970 
90.835643 
82.783390 
73.347989 
63.206550 
52.022437 
37.536093 
37.561410 
316.792624 
61.786174 
65.688498 
206.779512 
139.430171 
22.893758 
44.702909 
127.487625 
211.725245 
269.287720 
283.452037 
291.073936 
223.541679 
68.704976 
48.221487 
64.780739 
79.171682 
87.709262 
87.571919 
75.883364 
57.329595 
47.751414 
55.049876 
69.288950 
83.985756 
97.508426 
109.470396 
119.815424 
128.606026 
135.977497 
142.134777 
147.338495 
151.877104 
156.037326 
160.080382 
164.222671 
168.623586 
173.382410 
178.543288 
184.104392 
190.029067 
196.257668 
202.718674 
209.336866 
216.037982 
222.751738 
229.414107 
235.969030 
242.367256 
248.561862 
254.511973 
260.188310 
265.559874 
270.591192 
275.252575 
279.511833 
283.304336 
286.551549 
289.188534 
291.180806 
292.511529 
293.189474 
293.258513 
292.779822 
291.792814 
290.314094 
288.303968 
285.677365 
282.381161 
278.349721 
273.448225 
266.955895 
257.577420 
246.158254 
232.874990 
217.827921 
202.368833 
189.643003 
211.057236 
293.529980 
351.972900 
338.187124 
293.287045 
240.414276 
174.451140 
106.772955 
55.440168 
24.696151 
42.180914 
160.496957 
224.684331 
178.313145 
145.583181 
159.052695 
190.612060 
185.964701 
185.406379 
206.888514 
247.085603 
208.134106 
194.053136 
320.506004 
345.619281 
262.642635 
279.648979 
291.948662 
295.205079 
284.132036 
264.557936 
279.813509 
309.222584 
331.304686 
340.425081 
107.533617 
106.799150 
106.682075 
107.099983 
107.974252 
109.231904 
110.806379 
112.638869 
114.679203 
116.884341 
119.217311 
121.647689 
124.150861 
126.705133 
129.292076 
131.896537 
134.505683 
137.108473 
139.695431 
142.258610 
144.791734 
147.289498 
149.747083 
152.159787 
154.523018 
156.833417 
159.089263 
161.287608 
163.424554 
165.497229 
167.503930 
169.442292 
171.309778 
173.103853 
174.822088 
176.462271 
178.022803 
179.501853 
180.895918 
182.200066 
183.411028 
184.526168 
185.542022 
186.454259 
187.257893 
187.947237 
188.515780 
188.955980 
189.258975 
189.415370 
189.416075 
189.249695 
188.899388 
188.346744 
187.574184 
186.564554 
185.301321 
183.767212 
181.941956 
179.811360 
177.376689 
174.653292 
171.677494 
168.520440 
165.279553 
162.064918 
159.004576 
156.195984 
153.584424 
150.882404 
147.572019 
143.025360 
136.795910 
129.000341 
120.498728 
112.601042 
106.324252 
101.712426 
97.851176 
93.528154 
87.886674 
80.652739 
71.954803 
62.116489 
50.483837 
35.565694 
39.758059 
311.159319 
63.457150 
67.506550 
121.152010 
201.780069 
48.808661 
22.855981 
126.372701 
240.251440 
325.628666 
357.726267 
351.802111 
272.498663 
63.204309 
43.300252 
64.903153 
83.811344 
98.344898 
105.534868 
98.640470 
75.278603 
50.069748 
45.912146 
58.625400 
74.237579 
88.675483 
101.325675 
112.111407 
121.085206 
128.383772 
134.245336 
138.983403 
142.948270 
146.489076 
149.923842 
153.513880 
157.447476 
161.836111 
166.721728 
172.091132 
177.891991 
184.049188 
190.478197 
197.093401 
203.813232 
210.564077 
217.280990 
223.908299 
230.397446 
236.702523 
242.782949 
248.607213 
254.143455 
259.358804 
264.226706 
268.714180 
272.758057 
276.286837 
279.257987 
281.657186 
283.481003 
284.721916 
285.411627 
285.594352 
285.306781 
284.557703 
283.344468 
281.651040 
279.446003 
276.666460 
273.099935 
268.156574 
261.287088 
252.919434 
244.057916 
235.325610 
228.428430 
225.441402 
231.131651 
250.848062 
268.758011 
260.321347 
239.583592 
203.985461 
137.769698 
64.603119 
18.137348 
28.229744 
129.915401 
179.836447 
178.528580 
143.870759 
134.030525 
157.599664 
186.538635 
204.156269 
181.048985 
184.077765 
195.565304 
179.911278 
182.208226 
304.859633 
335.252584 
282.613894 
313.913564 
278.797786 
298.817044 
304.838405 
311.714461 
323.959872 
336.867084 
344.133700 
338.787567 
102.251349 
101.776202 
101.921400 
102.598912 
103.725591 
105.225218 
107.028748 
109.076061 
111.316375 
113.706303 
116.209168 
118.795677 
121.442334 
124.128681 
126.837323 
129.555048 
132.270882 
134.975336 
137.659187 
140.314866 
142.936710 
145.519955 
148.060082 
150.552762 
152.993997 
155.380872 
157.711545 
159.983007 
162.191737 
164.335256 
166.411769 
168.418998 
170.354384 
172.215749 
174.001025 
175.708224 
177.335478 
178.881068 
180.342227 
181.714839 
182.995589 
184.181560 
185.269426 
186.255017 
187.133678 
187.899884 
188.547195 
189.068097 
189.453766 
189.694290 
189.779697 
189.697931 
189.432086 
188.961326 
188.264816 
187.321211 
186.109043 
184.604832 
182.779610 
180.606608 
178.071954 
175.176870 
171.945046 
168.440289 
164.766423 
161.072310 
157.559127 
154.436166 
151.772033 
149.317168 
146.402997 
142.020816 
135.256456 
126.020835 
115.584985 
106.222229 
99.764106 
96.189618 
93.823960 
90.774651 
85.951522 
79.219698 
70.890734 
61.198157 
48.981273 
33.538603 
46.125126 
300.932404 
64.595028 
69.027663 
64.742898 
245.545300 
66.510173 
6.657082 
114.531056 
243.778652 
342.134689 
380.561751 
376.617051 
328.715337 
83.526935 
36.491629 
62.503492 
87.878482 
110.604117 
127.939767 
130.949016 
109.505895 
68.758946 
43.276633 
48.416811 
64.463049 
80.009509 
93.572494 
105.049656 
114.385177 
121.715193 
127.318346 
131.577360 
134.920509 
137.776905 
140.537750 
143.522071 
146.953797 
150.956957 
155.568235 
160.757795 
166.452795 
172.558897 
178.975712 
185.605621 
192.359568 
199.160367 
205.942333 
212.649416 
219.233215 
225.649329 
231.858265 
237.827370 
243.527737 
248.931187 
254.014139 
258.742578 
263.056452 
266.895232 
270.235227 
273.083480 
275.440613 
277.295140 
278.672520 
279.613141 
280.152878 
280.313536 
280.124299 
279.606657 
278.756473 
277.512888 
275.710401 
273.117097 
269.730368 
266.062024 
263.191582 
262.631144 
266.042408 
272.173081 
274.362170 
268.151731 
249.147107 
224.751620 
210.944983 
192.815664 
131.809603 
50.543114 
27.823308 
117.025515 
131.621987 
115.624551 
134.935306 
137.180001 
135.295658 
148.972286 
192.463561 
198.163520 
179.542776 
146.079156 
140.682314 
126.114778 
123.396700 
209.628774 
266.735753 
273.049850 
264.639762 
239.281731 
305.681754 
257.767527 
308.677758 
345.390293 
361.691310 
361.520917 
340.902897 
97.004938 
96.786854 
97.192405 
98.126834 
99.501663 
101.236928 
103.262101 
105.516713 
107.949220 
110.515721 
113.180232 
115.914995 
118.697723 
121.509273 
124.334001 
127.159560 
129.976279 
132.775998 
135.550376 
138.292384 
140.997345 
143.661204 
146.279522 
148.848334 
151.364089 
153.824179 
156.226382 
158.567835 
160.845373 
163.056809 
165.200293 
167.273744 
169.275031 
171.202181 
173.053245 
174.826357 
176.519677 
178.131499 
179.659400 
181.100448 
182.451487 
183.709756 
184.871623 
185.933344 
186.890455 
187.737911 
188.469622 
189.078390 
189.555766 
189.891851 
190.076049 
190.095854 
189.934537 
189.570570 
188.980636 
188.139819 
187.022010 
185.598213 
183.831617 
181.681959 
179.116821 
176.117134 
172.685663 
168.862180 
164.738013 
160.480207 
156.359971 
152.730095 
149.878548 
147.743753 
145.607926 
141.979745 
135.071937 
124.133371 
110.898319 
99.391212 
92.995448 
91.294138 
91.062828 
89.465781 
85.281231 
78.603052 
70.489778 
61.469600 
49.484421 
33.877602 
64.727135 
260.173866 
66.809105 
71.981029 
67.443511 
289.796470 
76.025285 
20.221292 
98.085952 
222.584891 
312.700972 
327.940027 
348.487428 
344.655685 
158.980604 
26.475888 
55.504862 
89.174422 
122.340800 
151.750991 
169.021106 
158.976552 
106.135671 
53.749023 
40.440877 
54.425259 
71.285077 
86.100508 
98.562198 
108.491595 
115.986294 
121.387150 
125.160473 
127.829752 
129.925864 
131.935978 
134.253173 
137.145226 
140.748772 
145.089406 
150.113571 
155.721725 
161.795944 
168.217285 
174.875046 
181.672579 
188.529783 
195.380191 
202.166698 
208.841538 
215.362917 
221.693777 
227.802851 
233.665661 
239.258156 
244.558268 
249.531658 
254.125153 
258.291154 
262.022263 
265.343604 
268.256752 
270.752395 
272.850409 
274.594561 
276.023234 
277.177079 
278.106832 
278.858421 
279.452335 
279.870986 
280.089780 
280.154576 
280.331309 
281.261048 
283.971798 
289.615220 
298.708308 
309.216304 
313.244550 
302.129597 
269.804000 
228.176296 
200.337792 
187.257209 
148.631230 
110.671471 
143.696655 
127.834420 
80.247610 
100.114713 
122.863749 
128.304605 
123.823984 
142.980836 
169.983005 
195.869053 
167.582172 
142.326429 
128.810289 
124.293752 
134.174708 
164.152115 
184.130823 
182.032841 
158.390869 
223.735807 
304.258532 
227.010503 
298.841880 
356.383290 
378.814204 
371.744958 
339.431995 
91.805023 
91.843425 
92.507987 
93.696644 
95.315092 
97.279387 
99.517537 
101.968844 
104.582143 
107.314467 
110.130930 
113.004937 
115.915477 
118.844948 
121.779074 
124.706743 
127.619271 
130.509059 
133.368200 
136.191017 
138.974021 
141.713604 
144.405516 
147.046081 
149.632225 
152.161449 
154.631419 
157.039462 
159.382926 
161.659687 
163.867911 
166.005744 
168.071287 
170.062712 
171.978262 
173.816222 
175.574890 
177.252514 
178.847144 
180.356354 
181.777825 
183.108758 
184.346178 
185.486218 
186.524907 
187.457522 
188.278684 
188.981843 
189.559170 
190.001315 
190.297449 
190.435058 
190.398136 
190.165910 
189.714263 
189.015627 
188.040201 
186.754100 
185.115052 
183.070576 
180.569430 
177.567930 
174.039095 
169.983767 
165.451338 
160.586728 
155.690850 
151.251234 
147.850532 
145.835462 
144.717444 
142.615688 
136.438791 
123.743194 
106.373142 
91.716070 
86.158843 
87.667704 
90.173483 
89.997310 
86.180124 
79.219680 
70.853646 
61.759268 
49.941471 
36.413709 
104.882079 
168.813127 
70.896493 
78.567015 
75.479488 
326.008146 
98.723305 
32.255308 
89.365286 
201.782137 
281.029835 
280.358198 
300.143694 
338.956982 
275.882843 
18.223884 
41.834429 
84.566628 
130.842116 
174.898173 
209.474645 
220.096936 
166.051446 
79.275754 
38.545450 
44.030854 
61.959585 
78.676320 
92.539494 
103.344899 
111.174475 
116.457633 
119.751599 
121.692930 
122.943668 
124.116358 
125.701111 
128.018255 
131.214769 
135.296374 
140.175670 
145.718709 
151.779250 
158.218093 
164.911435 
171.755611 
178.667930 
185.581213 
192.439039 
199.195540 
205.812632 
212.256431 
218.498592 
224.517259 
230.291639 
235.801366 
241.016191 
245.889958 
250.386135 
254.514791 
258.308973 
261.774048 
264.904137 
267.718659 
270.263258 
272.577504 
274.721378 
276.755102 
278.738839 
280.716756 
282.728444 
284.854982 
287.273704 
290.333272 
294.594008 
300.756470 
309.324302 
319.843344 
329.824913 
333.884386 
325.216529 
295.676564 
253.122991 
221.665714 
225.143237 
254.306662 
246.745829 
162.217008 
93.846989 
86.214128 
107.161179 
122.805908 
130.646696 
128.141713 
128.644785 
149.547955 
158.034884 
155.086686 
152.971329 
158.630955 
168.248766 
194.729437 
229.325434 
243.203408 
238.961003 
220.218190 
270.992098 
280.252532 
212.581181 
289.492111 
349.011527 
372.310599 
362.780401 
327.796758 
86.658946 
86.953173 
87.874966 
89.314237 
91.170806 
93.357224 
95.799743 
98.437209 
101.219312 
104.105172 
107.062521 
110.066116 
113.095452 
116.134066 
119.169427 
122.191726 
125.193236 
128.166840 
131.105715 
134.004768 
136.861489 
139.672561 
142.434015 
145.142499 
147.795350 
150.390193 
152.924754 
155.396663 
157.803582 
160.143454 
162.414455 
164.614855 
166.742964 
168.797138 
170.775801 
172.677428 
174.500512 
176.243466 
177.904521 
179.481837 
180.973401 
182.377269 
183.690725 
184.910742 
186.033359 
187.054495 
187.969336 
188.772374 
189.456731 
190.013946 
190.433788 
190.704277 
190.810430 
190.733461 
190.450117 
189.932631 
189.148491 
188.061420 
186.625821 
184.782054 
182.462611 
179.600158 
176.132988 
172.011594 
167.217308 
161.821030 
156.074617 
150.515902 
145.996123 
143.430506 
143.032470 
142.910621 
138.423645 
124.418443 
101.943772 
83.550146 
80.472396 
86.576182 
91.841738 
92.620495 
88.629728 
80.824267 
70.727789 
59.253694 
45.816199 
36.187348 
144.276942 
83.193230 
77.493173 
89.775721 
88.327055 
309.815159 
172.907630 
46.382979 
99.487578 
204.733503 
270.107315 
252.679236 
248.041021 
354.112391 
369.700568 
38.606780 
22.941420 
73.250325 
134.611158 
195.151312 
246.393128 
282.761057 
252.122790 
120.555435 
46.303274 
35.092814 
51.892842 
70.818116 
86.715088 
98.807175 
107.210233 
112.506401 
115.347316 
116.505226 
116.813064 
117.053687 
117.842656 
119.561759 
122.360275 
126.209086 
130.973681 
136.476915 
142.540793 
149.005529 
155.735691 
162.621792 
169.579379 
176.542231 
183.456683 
190.280259 
196.979002 
203.522165 
209.883928 
216.044304 
221.986289 
227.692470 
233.135908 
238.278038 
243.094858 
247.610052 
251.859037 
255.849991 
259.579777 
263.073012 
266.367550 
269.509911 
272.564239 
275.595426 
278.665575 
281.837550 
285.181173 
288.812140 
292.922755 
297.794201 
303.776812 
311.173547 
319.935517 
329.212688 
336.904076 
339.528880 
332.604515 
310.481679 
281.129494 
278.233715 
324.096766 
378.878906 
356.469093 
278.197369 
220.807704 
149.264355 
120.983907 
129.417029 
139.434845 
139.170669 
133.389986 
137.480671 
143.832897 
152.226554 
165.906186 
186.324426 
190.589652 
222.516196 
250.357154 
241.483251 
266.140364 
293.140468 
307.206198 
260.493827 
211.730786 
274.895455 
318.462586 
337.504456 
333.412556 
308.837187 
81.572676 
82.121254 
83.297253 
84.982263 
87.070532 
89.471304 
92.109147 
94.922746 
97.863072 
100.891578 
103.978342 
107.100164 
110.237906 
113.376543 
116.504527 
119.613478 
122.696447 
125.747231 
128.760042 
131.730866 
134.657302 
137.535959 
140.363181 
143.136086 
145.852416 
148.509942 
151.106453 
153.639742 
156.107714 
158.508439 
160.840170 
163.101280 
165.290231 
167.405559 
169.445875 
171.409853 
173.296194 
175.103568 
176.830546 
178.475592 
180.037213 
181.513762 
182.903561 
184.204043 
185.412256 
186.524264 
187.536099 
188.443240 
189.240268 
189.919907 
190.473144 
190.889199 
191.154917 
191.253730 
191.165184 
190.863250 
190.316118 
189.487506 
188.332602 
186.790750 
184.785580 
182.232237 
179.038975 
175.107363 
170.340171 
164.691642 
158.276624 
151.537354 
145.426024 
141.374102 
140.508344 
141.908759 
140.815067 
128.811717 
102.405929 
79.564010 
79.004550 
89.266898 
96.315899 
97.251721 
92.381355 
83.125648 
70.459707 
55.087518 
39.393847 
44.830236 
150.696277 
62.777556 
84.495982 
101.126292 
101.379211 
206.772672 
321.605243 
85.442445 
136.596043 
238.952779 
276.553575 
232.929894 
195.944418 
376.830615 
425.545913 
87.091021 
9.768219 
58.386820 
131.193539 
204.337939 
263.534036 
320.516899 
340.535020 
185.547774 
62.795581 
32.183941 
43.599211 
63.468644 
81.154329 
94.680365 
104.016620 
109.501548 
111.935979 
112.241592 
111.487654 
110.693975 
110.637376 
111.761529 
114.199083 
117.863089 
122.554783 
128.046878 
134.128684 
140.621700 
147.381787 
154.296424 
161.281514 
168.273900 
175.224443 
182.094862 
188.854010 
195.474212 
201.932758 
208.212731 
214.300192 
220.180473 
225.830426 
231.219216 
236.336447 
241.213453 
245.884374 
250.355257 
254.627542 
258.726752 
262.686605 
266.549950 
270.380082 
274.240071 
278.186115 
282.277835 
286.580828 
291.187225 
296.224455 
301.834456 
308.126818 
315.065884 
322.273524 
328.815515 
333.073776 
332.818923 
325.448398 
308.958720 
291.476923 
302.318414 
352.205133 
400.456641 
394.694221 
322.408429 
268.141251 
264.953792 
213.762467 
154.710831 
138.514929 
146.497801 
148.271700 
148.717496 
152.423907 
161.090126 
178.498055 
186.163523 
195.881784 
225.454136 
261.671815 
241.562560 
260.432541 
303.801777 
292.897891 
250.283391 
212.211635 
249.104294 
274.891550 
290.923094 
295.949704 
288.434755 
76.553658 
77.354060 
78.780440 
80.705536 
83.017892 
85.623684 
88.446520 
91.425725 
94.513806 
97.674217 
100.879406 
104.108125 
107.343648 
110.572465 
113.784768 
116.972634 
120.130135 
123.251909 
126.333339 
129.370941 
132.362358 
135.304344 
138.193532 
141.027310 
143.803895 
146.521209 
149.177021 
151.769238 
154.295921 
156.755288 
159.145690 
161.465605 
163.713623 
165.888441 
167.988855 
170.013742 
171.962039 
173.832697 
175.624654 
177.336792 
178.967956 
180.517058 
181.982835 
183.363954 
184.658092 
185.862482 
186.973371 
187.987502 
188.901002 
189.708259 
190.401823 
190.972970 
191.410810 
191.701795 
191.828899 
191.770387 
191.498224 
190.979739 
190.175288 
189.029432 
187.468401 
185.402437 
182.725743 
179.308990 
174.993385 
169.615816 
163.105322 
155.687395 
148.224771 
142.448350 
140.837424 
145.121206 
150.617045 
146.322304 
118.284084 
87.927583 
85.116926 
95.643537 
102.924741 
103.468032 
97.491235 
85.702015 
69.432107 
51.556574 
37.591460 
96.448219 
114.050061 
64.827279 
87.464528 
104.929245 
107.377347 
97.280735 
271.164601 
225.838509 
214.568314 
297.155158 
287.358599 
203.617139 
140.278724 
401.455243 
406.831246 
191.229202 
23.349814 
46.619607 
123.605530 
201.399122 
259.585528 
317.334854 
398.871615 
288.692652 
92.815817 
38.797410 
41.282715 
59.490456 
77.291368 
91.361684 
101.525433 
107.455357 
109.518811 
108.858814 
106.885778 
104.954934 
104.034175 
104.611900 
106.765723 
110.318188 
114.990170 
120.500677 
126.609451 
133.124099 
139.896540 
146.815842 
153.801434 
160.795574 
167.754107 
174.642211 
181.431304 
188.097941 
194.622965 
200.992190 
207.194483 
213.217528 
219.041326 
224.644911 
230.028511 
235.226105 
240.267620 
245.154407 
249.889037 
254.496652 
259.007483 
263.457941 
267.905231 
272.400558 
276.985110 
281.695516 
286.565081 
291.629151 
296.916683 
302.416033 
308.023604 
313.461840 
318.177980 
321.275984 
321.548636 
317.641212 
308.455809 
294.766789 
284.201977 
295.698353 
336.539479 
385.997443 
410.113010 
379.487113 
317.062210 
270.418578 
271.137963 
248.385052 
170.727265 
140.482446 
150.103534 
158.361023 
166.193413 
172.048534 
182.066506 
192.441147 
193.700493 
212.803409 
256.720079 
269.247341 
282.625825 
287.138711 
275.175466 
233.603845 
192.097113 
216.166980 
235.595504 
252.556818 
264.655446 
269.580084 
71.609949 
72.659134 
74.331368 
76.489918 
79.017542 
81.817827 
84.814104 
87.946948 
91.171016 
94.452075 
97.764610 
101.089620 
104.412513 
107.722231 
111.009942 
114.269216 
117.494498 
120.681436 
123.826015 
126.925436 
129.977171 
132.978495 
135.925902 
138.817178 
141.650737 
144.424922 
147.137379 
149.786051 
152.369138 
154.884975 
157.332005 
159.708799 
162.014064 
164.246646 
166.405519 
168.489769 
170.498579 
172.431198 
174.286918 
176.065058 
177.764932 
179.385849 
180.927209 
182.388263 
183.768154 
185.064817 
186.275473 
187.397772 
188.429785 
189.367546 
190.205400 
190.937171 
191.555056 
192.048844 
192.405907 
192.609717 
192.639024 
192.468130 
192.066421 
191.390511 
190.379981 
188.957323 
187.025129 
184.456242 
181.075783 
176.656306 
170.979572 
164.034261 
156.521078 
150.799866 
151.348806 
160.885909 
178.614669 
191.045860 
158.896989 
109.416075 
97.565051 
104.454376 
111.039145 
111.838171 
105.202471 
89.032907 
67.432157 
47.597333 
57.690152 
168.901215 
60.973798 
70.910687 
83.946620 
93.038051 
94.769864 
86.959449 
94.017498 
326.049072 
299.441159 
352.669586 
303.509922 
180.414723 
90.379441 
405.307189 
266.066678 
372.248933 
53.334781 
45.683903 
124.759109 
206.267832 
261.837584 
294.736405 
409.304374 
403.978904 
182.807716 
69.351622 
54.404877 
64.824899 
79.107222 
91.223431 
100.395740 
106.387105 
108.136493 
106.299468 
102.895603 
99.734622 
97.992609 
98.141745 
100.137942 
103.675579 
108.384255 
113.935117 
120.067403 
126.583488 
133.337856 
140.226199 
147.175090 
154.133125 
161.061225 
167.928262 
174.709272 
181.384584 
187.938866 
194.359522 
200.636788 
206.759699 
212.714118 
218.488228 
224.090113 
229.549732 
234.890990 
240.109658 
245.209806 
250.216559 
255.158045 
260.057993 
264.959187 
269.896031 
274.886525 
279.932950 
285.024563 
290.130887 
295.180324 
300.026106 
304.403606 
307.881011 
309.821730 
309.406527 
305.759565 
298.233795 
286.989982 
274.461296 
267.509911 
277.473611 
311.815853 
363.314149 
407.858569 
407.002824 
372.480116 
336.364536 
298.489645 
273.452277 
274.383526 
231.872102 
181.566254 
160.425477 
169.587213 
179.980690 
187.803091 
201.684997 
214.023544 
223.149420 
233.712263 
248.702784 
265.650086 
268.054869 
291.597535 
204.465664 
157.300948 
188.741339 
217.133120 
236.485903 
248.309845 
257.031309 
66.749203 
68.043977 
69.957024 
72.341368 
75.074184 
78.057175 
81.214240 
84.487826 
87.835101 
91.224536 
94.633048 
98.043792 
101.444414 
104.825575 
108.180365 
111.503043 
114.789378 
118.035347 
121.237825 
124.394001 
127.501750 
130.558406 
133.560780 
136.506321 
139.394040 
142.222286 
144.988744 
147.691427 
150.328659 
152.898841 
155.400475 
157.832216 
160.192880 
162.481452 
164.697079 
166.839057 
168.906815 
170.899899 
172.817957 
174.660721 
176.427992 
178.119608 
179.735440 
181.275510 
182.739761 
184.127532 
185.437003 
186.667013 
187.817638 
188.886465 
189.869788 
190.763833 
191.564404 
192.265234 
192.858274 
193.333302 
193.676755 
193.872364 
193.901114 
193.736095 
193.339336 
192.659139 
191.629124 
190.159227 
188.116145 
185.297421 
181.441867 
176.391056 
170.772834 
167.909199 
173.244576 
191.429132 
227.431648 
260.920609 
208.886512 
136.672709 
114.561075 
116.247478 
123.417721 
127.084958 
119.505068 
96.512257 
66.788378 
60.241484 
210.499447 
153.410466 
67.514596 
73.135763 
75.225033 
73.754658 
73.333563 
75.211623 
68.545335 
324.150543 
351.947317 
391.209706 
317.775009 
166.788177 
57.312561 
321.265902 
262.249434 
382.682245 
141.771831 
61.773027 
147.100762 
228.509832 
264.931453 
252.313758 
292.351571 
399.941350 
337.146557 
192.125669 
115.256781 
95.642442 
95.866407 
101.088785 
105.860260 
108.435222 
108.112650 
104.540829 
99.414941 
94.958544 
92.535477 
92.460423 
94.470334 
98.096099 
102.883784 
108.474653 
114.603738 
121.080010 
127.769338 
134.578353 
141.442451 
148.316680 
155.167178 
161.966849 
168.694218 
175.333225 
181.870738 
188.294834 
194.597272 
200.769568 
206.803300 
212.695055 
218.455698 
224.107544 
229.665737 
235.126196 
240.493189 
245.791090 
251.040949 
256.252106 
261.448045 
266.645240 
271.836311 
276.988460 
282.045878 
286.917850 
291.451248 
295.401033 
298.400479 
299.934954 
299.344171 
295.891508 
288.952153 
278.391600 
265.221609 
252.623820 
246.486634 
253.817821 
279.741850 
323.112498 
366.734509 
386.792877 
389.285568 
391.244094 
366.340246 
297.696180 
220.732984 
234.209518 
294.634725 
259.775570 
197.831616 
183.258977 
189.117976 
206.099589 
228.066568 
236.934157 
233.139346 
226.648883 
242.552764 
280.926615 
307.178337 
169.620370 
137.932475 
178.321516 
215.511727 
239.734912 
251.870670 
260.256657 
61.979357 
63.515925 
65.663854 
68.265313 
71.192133 
74.344957 
77.649134 
81.049703 
84.506781 
87.991809 
91.484447 
94.970204 
98.438731 
101.882550 
105.295975 
108.674794 
112.015203 
115.314336 
118.569164 
121.777316 
124.936541 
128.044528 
131.098306 
134.095310 
137.034620 
139.914489 
142.732569 
145.486958 
148.176165 
150.798615 
153.352852 
155.837606 
158.251806 
160.594564 
162.865194 
165.063196 
167.188243 
169.240168 
171.218962 
173.124762 
174.957829 
176.718540 
178.407351 
180.024806 
181.571762 
183.048453 
184.454611 
185.790480 
187.057764 
188.255901 
189.382630 
190.436725 
191.417323 
192.322452 
193.148821 
193.892316 
194.547319 
195.107547 
195.566106 
195.914197 
196.138062 
196.219148 
196.133323 
195.848919 
195.313440 
194.425486 
192.992835 
190.799784 
188.239503 
189.025775 
200.249807 
227.739921 
277.972844 
306.316666 
240.077448 
165.192348 
137.131818 
136.789886 
148.547831 
155.321655 
143.585237 
109.395940 
95.008822 
250.202580 
239.014916 
75.320313 
144.715101 
257.345947 
335.484102 
355.819646 
333.293244 
250.547375 
114.631678 
319.052798 
365.699859 
391.653889 
311.855334 
155.694940 
35.571500 
157.686225 
351.661732 
252.909208 
322.067139 
109.361391 
197.164810 
261.228112 
255.627100 
191.464515 
149.648678 
308.253562 
396.696388 
366.649955 
272.688366 
190.321326 
150.895195 
134.068220 
126.370745 
120.315730 
112.623358 
104.275879 
96.462996 
90.700340 
87.848197 
87.824659 
90.024595 
93.809583 
98.676136 
104.266452 
110.332054 
116.702061 
123.260138 
129.926487 
136.645611 
143.378476 
150.095876 
156.774324 
163.395160 
169.944390 
176.410665 
182.783898 
189.057547 
195.225572 
201.283922 
207.234388 
213.086705 
218.853432 
224.543823 
230.155514 
235.692263 
241.173902 
246.611647 
252.000049 
257.344786 
262.646044 
267.874695 
272.966608 
277.829119 
282.327590 
286.256617 
289.316863 
291.097871 
291.067187 
288.590495 
283.016243 
273.871099 
261.247429 
246.434876 
232.576910 
224.618105 
227.236447 
243.084993 
273.079473 
310.984473 
345.622736 
377.423291 
402.608991 
380.712174 
301.220688 
200.704040 
126.671992 
107.495967 
177.507733 
272.552752 
251.223676 
204.476321 
202.010827 
221.323485 
242.373187 
238.850793 
227.049373 
244.024973 
305.198868 
298.932392 
148.351828 
133.650666 
176.636838 
219.593663 
249.803079 
266.250064 
276.771129 
57.308567 
59.082015 
61.457566 
64.266162 
67.374832 
70.683824 
74.120683 
77.633714 
81.186615 
84.754104 
88.318765 
91.868597 
95.395267 
98.892896 
102.357224 
105.784844 
109.173146 
112.519445 
115.821619 
119.077023 
122.283502 
125.438707 
128.540238 
131.585925 
134.574473 
137.503580 
140.370846 
143.174706 
145.913770 
148.586429 
151.191272 
153.727115 
156.192983 
158.588116 
160.911977 
163.164266 
165.344885 
167.453942 
169.491758 
171.458849 
173.355922 
175.183857 
176.943703 
178.636656 
180.264143 
181.827571 
183.327791 
184.766464 
186.146428 
187.469043 
188.733937 
189.941998 
191.095423 
192.195806 
193.244343 
194.242470 
195.191666 
196.094319 
196.954614 
197.778536 
198.573768 
199.349990 
200.121895 
200.910636 
201.738801 
202.608891 
203.429298 
203.792544 
203.603689 
206.624446 
220.581652 
252.999906 
293.572249 
297.507717 
242.443742 
187.577248 
162.852251 
166.767021 
186.504776 
198.925848 
183.923515 
176.558386 
299.554760 
233.052929 
78.136013 
263.566756 
347.767083 
227.987070 
127.487640 
89.208364 
93.819984 
177.398687 
257.913637 
360.199969 
422.798436 
391.849483 
296.322945 
148.558474 
19.485193 
73.423121 
305.862531 
204.906771 
315.719247 
224.452927 
259.380456 
295.794360 
250.713233 
154.763017 
78.683813 
175.798080 
318.760293 
395.814433 
390.079087 
328.124604 
255.343482 
204.337330 
170.580565 
145.263852 
124.186544 
106.998148 
94.603487 
87.343012 
84.399740 
84.686435 
87.167175 
91.092554 
95.966711 
101.465402 
107.372698 
113.545319 
119.887784 
126.333120 
132.834012 
139.356612 
145.875794 
152.371064 
158.825406 
165.226435 
171.564209 
177.830599 
184.020240 
190.128169 
196.151935 
202.095526 
207.965815 
213.766959 
219.504258 
225.177954 
230.789019 
236.349219 
241.858653 
247.303735 
252.673525 
257.955828 
263.102372 
268.028833 
272.619219 
276.716248 
280.094148 
282.443626 
283.364640 
282.366919 
278.896393 
272.409569 
262.523393 
249.298813 
233.730934 
218.329471 
207.128734 
204.283639 
211.382415 
230.280081 
262.746112 
303.240747 
348.162633 
378.398589 
353.518338 
282.720622 
200.879646 
136.618103 
97.514120 
73.971136 
82.738673 
183.455748 
283.492966 
261.659469 
219.441038 
230.776533 
234.011217 
224.156395 
241.775630 
290.553453 
283.152915 
137.444140 
135.031400 
174.102691 
214.671161 
247.576001 
271.566708 
289.715068 
52.745544 
54.749864 
57.344347 
60.348610 
63.625585 
67.076020 
70.630306 
74.240738 
77.875026 
81.511602 
85.136089 
88.739015 
92.314054 
95.856874 
99.364368 
102.834148 
106.264055 
109.652305 
112.996700 
116.295290 
119.545186 
122.744189 
125.890395 
128.981956 
132.016967 
134.992589 
137.906435 
140.757285 
143.543993 
146.264777 
148.918239 
151.503263 
154.018959 
156.464669 
158.840002 
161.144841 
163.379306 
165.543763 
167.638833 
169.665393 
171.624561 
173.517695 
175.346389 
177.112482 
178.818034 
180.465245 
182.056115 
183.593345 
185.080594 
186.521003 
187.916284 
189.269206 
190.584335 
191.866164 
193.119471 
194.349689 
195.563673 
196.770373 
197.981594 
199.213191 
200.485091 
201.823927 
203.264156 
204.850621 
206.630981 
208.630636 
210.741029 
212.232324 
212.563985 
214.825527 
227.193519 
253.393909 
275.759560 
268.090432 
234.387783 
198.759643 
182.888048 
194.478112 
230.102205 
268.175350 
324.578241 
355.886925 
288.443802 
222.802381 
277.655269 
250.266646 
76.529791 
31.293846 
19.160851 
14.425426 
14.982013 
25.497073 
93.437486 
311.234594 
450.646206 
396.491064 
272.117323 
141.510919 
38.865376 
26.082543 
106.874242 
276.764818 
240.345778 
348.030284 
347.298610 
333.799178 
256.728548 
139.301520 
46.028736 
86.984159 
187.454472 
281.014193 
333.278149 
345.043406 
315.961368 
264.996147 
215.106297 
172.534849 
137.163032 
110.669692 
94.052875 
85.617808 
82.932808 
83.616980 
86.289355 
90.209009 
94.938751 
100.205068 
105.830515 
111.698207 
117.729131 
123.865849 
130.067126 
136.303576 
142.552941 
148.796829 
155.019836 
161.210511 
167.359794 
173.460385 
179.505793 
185.490444 
191.413411 
197.279347 
203.090890 
208.845647 
214.546098 
220.192940 
225.784464 
231.322266 
236.800563 
242.197833 
247.493422 
252.663148 
257.647920 
262.353502 
266.656637 
270.398148 
273.361149 
275.263862 
275.761939 
274.459044 
270.936141 
264.810231 
255.821759 
243.958918 
229.634769 
214.184985 
200.961974 
195.094840 
198.338793 
213.124154 
240.789942 
281.436939 
322.375739 
350.118639 
330.209019 
274.157266 
210.147610 
157.292513 
119.846476 
91.277589 
68.709036 
55.130102 
86.680821 
220.290297 
292.573342 
249.656690 
221.210650 
204.198771 
214.925548 
296.083266 
264.748250 
121.202502 
129.801477 
169.993591 
206.581544 
235.259856 
257.676397 
277.102150 
48.299948 
50.527869 
53.331186 
56.517918 
59.947947 
63.523646 
67.179198 
70.871375 
74.572385 
78.264521 
81.936648 
85.581771 
89.195525 
92.775041 
96.318274 
99.823575 
103.289438 
106.714219 
110.096443 
113.433813 
116.723512 
119.962991 
123.150943 
126.285713 
129.364462 
132.384010 
135.341886 
138.237476 
141.069596 
143.836443 
146.536588 
149.168955 
151.732686 
154.227223 
156.652315 
159.008014 
161.294641 
163.512796 
165.663378 
167.747588 
169.766919 
171.723157 
173.618383 
175.454974 
177.235579 
178.963069 
180.640453 
182.271166 
183.859636 
185.410111 
186.926513 
188.413124 
189.876394 
191.322366 
192.758433 
194.192674 
195.635010 
197.097438 
198.595395 
200.148142 
201.778627 
203.514406 
205.387000 
207.426796 
209.647299 
211.998762 
214.221453 
215.442767 
214.875567 
215.067629 
223.126147 
240.760319 
254.429317 
251.974590 
235.287064 
214.318607 
205.342052 
224.507650 
291.518523 
407.058110 
464.142263 
441.635118 
365.980901 
346.294092 
222.738120 
77.409264 
38.031663 
29.764067 
27.688393 
27.462619 
30.223184 
40.359584 
66.207996 
136.439199 
255.945176 
283.842166 
209.358885 
122.684077 
59.799392 
20.050424 
16.353732 
151.576110 
285.306257 
428.098839 
442.939188 
366.101388 
257.584831 
134.074842 
36.419897 
36.542712 
89.086703 
162.383148 
224.089549 
259.009025 
265.574443 
247.626797 
213.192817 
173.508405 
137.558123 
110.317075 
93.710297 
86.194458 
84.142786 
85.046461 
87.645801 
91.317596 
95.700225 
100.568730 
105.776264 
111.224709 
116.844209 
122.582364 
128.401770 
134.275521 
140.182702 
146.105830 
152.030242 
157.944492 
163.839538 
169.707391 
175.540322 
181.333000 
187.084668 
192.799099 
198.473101 
204.100561 
209.680355 
215.214410 
220.696566 
226.120553 
231.475903 
236.738511 
241.882051 
246.872623 
251.646724 
256.110736 
260.148090 
263.614568 
266.324084 
268.048440 
268.528571 
267.494184 
264.697325 
259.962344 
253.238058 
244.610586 
234.190304 
222.237987 
212.035444 
208.361056 
216.662725 
236.577529 
270.569692 
304.912779 
332.754352 
348.752466 
332.434144 
283.547461 
225.790756 
176.965965 
139.056149 
109.244640 
85.018219 
63.059292 
43.579130 
46.779289 
140.683726 
295.662980 
268.835553 
188.569523 
198.782036 
314.728739 
247.952877 
104.408663 
125.539178 
170.137723 
203.728414 
224.881836 
245.157695 
272.339590 
43.982009 
46.424456 
49.424862 
52.779191 
56.345471 
60.028944 
63.768524 
67.526219 
71.278995 
75.013193 
78.720846 
82.397460 
86.040483 
89.648422 
93.220178 
96.754710 
100.250872 
103.707331 
107.122543 
110.494456 
113.819973 
117.096554 
120.323354 
123.498352 
126.618306 
129.679498 
132.679480 
135.617792 
138.493356 
141.304458 
144.049522 
146.727471 
149.337511 
151.879202 
154.352431 
156.757395 
159.094596 
161.364849 
163.569302 
165.709441 
167.787088 
169.804399 
171.763867 
173.668317 
175.520897 
177.325046 
179.084522 
180.803522 
182.486920 
184.139976 
185.767787 
187.376056 
188.971833 
190.562675 
192.157360 
193.764858 
195.395993 
197.062584 
198.780052 
200.565175 
202.435178 
204.406600 
206.490585 
208.679418 
210.921388 
213.061520 
214.718533 
215.146061 
213.757226 
212.767262 
217.931213 
231.439067 
245.701872 
251.549014 
248.576837 
239.496629 
235.539383 
259.745737 
337.344567 
419.343147 
399.839905 
352.619461 
382.426295 
382.791239 
243.002853 
123.041611 
77.992655 
63.893960 
60.115766 
58.542834 
59.873090 
68.640275 
88.081772 
113.257267 
147.022360 
166.463033 
146.143591 
104.922815 
66.408770 
34.299119 
16.151155 
46.852106 
139.619581 
327.352015 
418.889145 
344.411693 
231.383762 
127.232668 
53.872288 
15.177454 
35.730699 
79.164178 
128.072454 
166.633215 
184.698726 
183.701124 
169.380683 
147.011886 
123.428513 
104.986960 
94.217416 
89.427478 
88.176277 
89.000635 
91.230238 
94.410676 
98.254328 
102.572205 
107.236860 
112.158975 
117.271631 
122.524843 
127.882949 
133.319541 
138.813287 
144.346210 
149.903399 
155.472687 
161.044189 
166.609102 
172.159512 
177.689020 
183.196965 
188.682852 
194.140090 
199.560254 
204.941351 
210.281632 
215.571233 
220.799163 
225.954429 
231.011299 
235.940112 
240.700942 
245.233306 
249.452114 
253.257049 
256.529874 
259.127277 
260.886088 
261.641639 
261.252362 
259.636931 
256.820106 
252.971896 
248.384768 
243.220852 
237.539302 
234.131471 
238.379749 
256.929420 
293.467650 
338.163757 
365.203658 
365.693465 
360.330396 
343.359729 
298.235899 
242.448302 
194.300407 
155.630950 
124.388072 
99.590637 
77.340607 
54.340194 
35.096553 
31.340764 
100.015845 
296.092391 
255.665655 
188.524339 
326.880098 
247.133737 
98.684446 
127.195431 
179.073751 
214.334113 
232.261816 
248.207751 
273.653149 
39.806991 
42.450026 
45.631894 
49.136919 
52.821492 
56.594148 
60.399597 
64.205928 
67.995303 
71.758065 
75.489352 
79.186964 
82.850111 
86.478488 
90.071821 
93.629552 
97.150758 
100.634130 
104.078092 
107.480322 
110.837920 
114.148468 
117.411076 
120.623391 
123.781664 
126.882250 
129.922618 
132.901971 
135.819044 
138.672408 
141.460634 
144.182436 
146.837126 
149.424409 
151.944290 
154.397083 
156.783441 
159.104370 
161.361245 
163.555796 
165.690124 
167.766691 
169.788328 
171.758228 
173.679939 
175.557374 
177.394830 
179.197074 
180.969379 
182.717488 
184.447271 
186.165191 
187.878505 
189.595136 
191.323940 
193.074197 
194.855667 
196.678013 
198.553137 
200.491993 
202.500735 
204.579852 
206.714667 
208.858549 
210.907159 
212.652736 
213.734651 
213.699102 
212.520600 
212.195541 
217.170938 
229.634609 
244.970799 
256.228713 
260.698372 
258.451155 
254.897673 
271.567313 
323.021444 
359.914837 
346.021198 
347.805809 
388.950314 
381.384918 
273.144719 
170.869665 
122.553451 
104.220560 
97.511287 
93.502325 
91.341131 
93.904646 
103.645897 
117.922047 
131.766758 
138.023086 
129.187802 
106.239367 
77.591558 
52.558858 
43.374778 
62.256791 
94.402809 
162.533017 
244.032245 
246.590952 
183.034696 
114.849506 
65.572854 
30.023662 
16.172969 
40.031222 
70.229115 
98.972428 
118.933346 
127.127952 
125.554232 
118.130631 
109.094176 
101.861036 
97.528105 
95.324753 
94.551397 
95.108693 
96.788020 
99.324119 
102.501466 
106.161568 
110.189718 
114.499703 
119.025766 
123.719161 
128.544637 
133.474798 
138.486925 
143.562092 
148.684578 
153.841209 
159.020949 
164.214490 
169.413218 
174.609543 
179.800244 
184.981482 
190.145329 
195.283404 
200.391249 
205.462529 
210.484205 
215.445165 
220.332502 
225.121568 
229.780410 
234.270261 
238.536829 
242.510127 
246.110205 
249.249355 
251.829030 
253.749090 
254.928660 
255.330109 
254.993314 
254.072810 
252.859431 
251.743922 
250.968058 
250.918957 
253.559026 
263.725916 
291.146439 
340.328869 
389.017474 
397.463317 
376.146508 
355.214135 
339.253256 
297.777922 
250.326558 
207.948336 
172.232614 
141.615416 
116.262272 
92.709592 
68.016816 
43.904277 
25.139774 
24.060615 
97.727599 
307.991219 
224.871767 
283.688433 
270.505301 
97.413026 
131.976019 
196.635095 
246.250338 
271.636137 
294.502168 
330.121620 
35.791180 
38.618924 
41.961848 
45.596560 
49.379322 
53.221407 
57.073680 
60.911339 
64.722001 
68.499929 
72.243116 
75.951553 
79.625970 
83.267152 
86.875439 
90.450623 
93.991890 
97.497856 
100.966658 
104.395931 
107.782658 
111.124422 
114.419708 
117.665972 
120.859819 
123.997512 
127.076352 
130.094464 
133.050752 
135.944309 
138.773782 
141.537732 
144.235522 
146.867009 
149.432255 
151.931655 
154.365991 
156.736444 
159.044577 
161.292339 
163.482053 
165.616429 
167.698560 
169.731924 
171.720383 
173.668187 
175.579998 
177.460920 
179.316499 
181.152685 
182.975719 
184.792249 
186.609323 
188.434634 
190.276224 
192.142275 
194.040377 
195.977405 
197.960290 
199.992191 
202.067961 
204.173019 
206.273271 
208.299469 
210.133028 
211.590387 
212.443916 
212.578396 
212.441110 
213.748160 
219.355909 
230.625157 
244.624748 
256.292377 
262.221138 
261.372593 
256.638880 
262.021868 
286.513241 
309.550948 
315.837826 
329.703722 
354.642002 
340.587988 
267.478255 
198.390579 
160.258423 
143.050867 
133.425675 
126.068305 
120.089856 
116.454839 
118.547103 
127.160785 
137.799236 
142.972358 
138.037625 
122.437095 
100.212446 
80.306330 
72.279558 
81.205813 
99.097903 
123.155987 
152.976577 
162.512007 
141.615497 
107.135720 
74.026625 
45.836487 
30.646396 
37.515905 
54.169750 
72.161475 
87.581651 
97.828360 
103.024165 
104.831733 
105.140927 
104.884238 
104.197969 
103.218823 
102.612250 
102.845171 
103.946930 
105.802942 
108.270994 
111.225908 
114.566187 
118.210215 
122.094705 
126.172752 
130.408638 
134.773648 
139.243877 
143.799629 
148.424482 
153.104456 
157.827718 
162.584473 
167.364899 
172.159083 
176.961193 
181.766046 
186.565606 
191.350657 
196.113949 
200.843429 
205.527570 
210.156502 
214.715980 
219.180985 
223.521427 
227.703042 
231.682114 
235.404629 
238.812234 
241.846849 
244.449802 
246.572810 
248.195329 
249.344499 
250.120178 
250.717234 
251.419420 
252.550560 
254.363878 
257.487753 
263.189929 
277.185625 
308.474285 
359.220372 
392.212365 
385.637691 
364.034656 
354.150638 
342.734780 
306.704274 
259.233171 
221.005509 
189.842374 
161.232830 
136.048099 
111.480343 
84.145223 
56.145103 
31.632993 
17.340711 
27.197771 
142.970697 
290.999201 
214.187564 
284.159727 
90.796725 
129.885907 
214.216210 
293.644359 
346.074318 
381.983564 
414.932454 
31.945707 
34.943366 
38.426859 
42.167705 
46.024048 
49.912952 
53.792069 
57.643524 
61.460201 
65.239981 
68.983557 
72.692879 
76.370094 
80.016789 
83.633777 
87.220967 
90.777519 
94.301872 
97.791885 
101.244914 
104.657877 
108.028072 
111.353183 
114.630649 
117.857041 
121.029345 
124.144027 
127.198667 
130.191973 
133.123834 
135.992798 
138.797412 
141.537005 
144.211550 
146.821119 
149.366168 
151.847608 
154.266774 
156.625398 
158.925595 
161.169873 
163.361124 
165.502635 
167.598087 
169.651554 
171.667502 
173.650793 
175.606689 
177.540827 
179.459166 
181.367934 
183.273625 
185.182915 
187.102642 
189.039487 
190.999985 
192.989275 
195.010723 
197.065679 
199.150412 
201.251621 
203.345385 
205.388734 
207.310878 
209.013751 
210.383556 
211.347865 
212.033002 
213.037846 
215.631741 
221.346207 
230.609248 
241.508304 
250.571846 
254.987191 
253.820936 
248.678236 
247.210920 
257.109381 
272.074865 
282.267900 
293.027423 
302.007033 
289.192854 
250.175491 
213.004200 
189.868691 
175.216401 
163.252691 
153.257991 
145.029683 
138.814225 
136.970290 
141.568522 
149.340246 
153.996017 
151.091402 
139.953665 
123.685103 
107.173816 
96.284232 
95.368005 
104.555197 
119.652517 
134.172661 
138.947502 
131.043050 
112.829287 
89.640696 
67.544774 
54.259266 
53.784088 
62.109900 
73.544299 
84.731708 
94.094279 
101.321062 
106.760105 
110.552033 
112.558235 
112.900616 
112.356585 
111.810036 
111.756708 
112.350858 
113.579268 
115.366460 
117.623954 
120.268430 
123.227386 
126.443699 
129.873328 
133.480949 
137.237034 
141.117432 
145.102238 
149.174778 
153.320704 
157.528027 
161.786689 
166.085507 
170.412756 
174.760361 
179.123156 
183.492234 
187.857514 
192.207453 
196.528531 
200.812267 
205.049605 
209.224023 
213.312789 
217.290215 
221.128969 
224.796067 
228.253382 
231.463153 
234.392803 
237.015588 
239.320132 
241.321505 
243.075201 
244.693786 
246.353504 
248.272190 
250.676291 
253.839648 
258.497585 
265.741348 
281.161454 
313.684194 
356.461187 
372.635526 
361.395968 
357.767658 
368.001956 
369.307929 
336.177571 
281.488856 
241.395363 
210.647823 
183.403551 
158.227863 
132.873114 
103.555481 
72.617378 
44.763810 
26.273415 
28.378469 
57.072555 
228.007720 
235.495147 
284.881799 
82.214949 
123.293517 
215.684221 
308.454951 
380.313902 
426.562955 
455.817965 
28.259676 
31.424139 
35.034874 
38.859202 
42.763285 
46.673246 
50.556972 
54.403989 
58.211361 
61.979851 
65.712510 
69.413117 
73.084982 
76.730333 
80.350109 
83.944170 
87.511410 
91.049981 
94.557403 
98.030736 
101.466750 
104.862302 
108.214521 
111.520424 
114.777086 
117.981127 
121.128908 
124.217569 
127.246393 
130.215244 
133.122207 
135.965969 
138.746261 
141.462969 
144.116078 
146.706128 
149.234169 
151.701677 
154.110514 
156.462923 
158.761538 
161.009382 
163.209869 
165.366806 
167.484380 
169.567159 
171.620073 
173.648395 
175.657695 
177.653783 
179.642639 
181.630321 
183.622845 
185.626032 
187.645200 
189.684815 
191.747523 
193.833355 
195.939368 
198.056571 
200.167527 
202.244671 
204.246502 
206.115768 
207.790418 
209.227830 
210.463229 
211.717501 
213.509381 
216.633339 
221.780866 
228.836119 
236.438404 
242.433701 
244.912505 
243.147864 
238.399564 
234.879610 
237.505929 
245.155588 
251.639458 
256.065752 
258.373835 
252.328578 
238.011662 
222.572583 
209.720418 
197.464634 
185.806809 
175.428897 
166.666607 
160.197775 
157.294106 
158.798800 
162.963898 
165.424441 
162.693233 
154.329323 
142.095507 
128.436353 
116.577438 
110.530552 
113.641570 
124.379117 
135.755443 
140.921104 
137.685804 
126.214467 
109.164119 
91.932004 
79.858268 
75.748842 
78.778748 
85.884855 
94.373837 
102.660764 
110.009187 
115.945933 
120.061428 
122.149875 
122.647071 
122.305380 
121.794215 
121.535137 
121.726831 
122.422385 
123.600403 
125.208565 
127.184900 
129.471085 
132.019150 
134.790115 
137.750327 
140.871042 
144.128835 
147.504445 
150.981598 
154.546254 
158.186896 
161.893365 
165.653982 
169.455731 
173.289958 
177.150814 
181.028555 
184.911900 
188.786845 
192.640574 
196.466888 
200.256299 
203.992831 
207.656775 
211.228895 
214.688865 
218.014502 
221.182742 
224.173774 
226.975495 
229.585329 
232.015829 
234.299774 
236.499076 
238.718916 
241.105041 
243.830768 
247.110731 
251.310125 
257.215194 
266.072977 
284.273410 
316.102815 
349.798222 
354.825870 
348.291358 
354.513309 
371.653002 
379.833734 
359.976622 
310.079262 
266.690662 
234.774643 
206.488302 
180.598176 
155.491550 
125.997536 
94.170183 
65.523806 
46.049887 
49.214984 
84.401034 
174.651513 
356.229740 
340.154417 
107.865363 
117.801937 
196.985929 
274.068633 
336.300550 
375.834712 
402.149871 
24.729777 
28.056285 
31.782616 
35.669947 
39.595911 
43.502798 
47.370092 
51.194405 
54.977059 
58.721367 
62.432216 
66.114931 
69.773777 
73.411278 
77.028307 
80.624337 
84.197866 
87.746592 
91.267654 
94.757757 
98.213393 
101.631069 
105.007436 
108.339261 
111.623409 
114.856625 
118.035082 
121.155950 
124.219037 
127.223512 
130.167078 
133.048523 
135.868335 
138.626495 
141.322651 
143.957436 
146.532047 
149.048069 
151.507445 
153.912500 
156.265946 
158.570882 
160.830793 
163.049532 
165.231321 
167.380726 
169.502637 
171.602222 
173.684866 
175.756098 
177.821488 
179.886519 
181.956416 
184.035907 
186.128873 
188.237879 
190.363443 
192.503105 
194.650697 
196.794658 
198.916292 
200.989499 
202.979894 
204.848918 
206.567053 
208.139303 
209.646222 
211.297990 
213.454313 
216.539495 
220.782485 
225.881372 
230.870463 
234.388418 
235.254732 
233.099935 
228.888448 
225.096532 
224.535406 
226.955135 
229.799767 
231.768076 
233.515149 
233.931416 
231.817979 
227.293161 
220.298323 
211.497675 
202.128130 
193.127333 
185.278518 
179.368462 
176.162695 
175.752483 
176.770813 
176.762137 
173.631829 
166.736889 
156.857419 
145.589854 
135.105064 
128.254980 
128.058318 
134.622414 
143.364537 
148.847301 
147.823826 
139.805499 
127.339113 
114.329612 
104.137108 
98.829089 
98.683015 
102.459250 
108.518603 
115.412541 
121.921942 
127.178551 
130.707426 
132.535044 
133.082604 
132.875524 
132.399945 
132.004906 
131.893898 
132.157242 
132.813425 
133.841370 
135.201402 
136.851237 
138.753738 
140.876603 
143.189606 
145.666424 
148.285436 
151.029001 
153.882104 
156.831879 
159.867453 
162.978635 
166.153684 
169.380490 
172.650686 
175.956668 
179.288519 
182.634178 
185.979670 
189.314085 
192.631355 
195.921952 
199.171783 
202.366544 
205.492566 
208.536727 
211.487364 
214.335222 
217.076035 
219.713892 
222.263913 
224.754820 
227.229379 
229.751516 
232.420153 
235.366644 
238.763959 
242.882825 
248.227472 
255.738707 
267.080261 
287.553002 
319.611633 
348.645324 
354.111548 
353.740175 
362.081110 
368.396304 
363.115603 
345.922390 
316.386401 
286.430283 
259.127174 
230.870074 
204.937215 
180.174313 
150.474597 
119.333470 
91.918330 
72.737655 
74.425168 
116.077204 
211.972154 
360.488905 
361.560397 
158.213594 
120.462551 
173.788865 
226.474722 
272.137893 
308.749294 
341.129490 
21.363515 
24.841077 
28.663024 
32.588927 
36.513779 
40.396540 
44.229055 
48.014438 
51.758238 
55.466415 
59.145305 
62.801633 
66.440311 
70.063908 
73.672885 
77.266194 
80.841702 
84.396601 
87.927541 
91.430855 
94.902686 
98.339176 
101.736594 
105.091399 
108.400397 
111.660116 
114.867002 
118.018410 
121.114338 
124.153268 
127.132098 
130.049887 
132.908284 
135.707431 
138.446583 
141.126364 
143.748118 
146.313478 
148.824427 
151.283331 
153.692935 
156.056366 
158.377117 
160.659037 
162.906298 
165.123383 
167.315050 
169.486275 
171.642169 
173.787884 
175.928498 
178.068848 
180.213328 
182.365607 
184.528266 
186.702304 
188.886500 
191.076704 
193.265091 
195.439266 
197.581515 
199.669344 
201.677323 
203.582518 
205.376822 
207.085298 
208.789717 
210.644675 
212.861266 
215.625985 
218.946551 
222.497085 
225.596764 
227.390233 
227.194128 
224.884001 
221.172494 
217.534263 
215.576504 
215.713536 
217.095360 
219.209908 
222.118344 
225.549009 
228.125306 
228.222161 
225.420927 
220.294187 
213.814865 
207.000435 
200.726215 
195.729211 
192.471291 
190.826417 
189.881341 
188.215854 
184.586990 
178.493734 
170.310059 
161.128858 
152.634102 
146.862908 
145.479734 
148.735186 
154.413415 
158.476341 
157.933579 
152.454287 
143.689353 
134.094422 
125.985516 
120.885227 
119.297650 
120.893896 
124.802863 
129.873607 
134.949228 
139.140313 
142.025211 
143.610958 
144.157335 
144.026735 
143.574783 
143.084395 
142.745538 
142.663609 
142.882343 
143.404883 
144.211750 
145.276310 
146.572391 
148.074645 
149.757716 
151.598892 
153.579423 
155.684074 
157.899901 
160.215924 
162.622205 
165.108703 
167.664042 
170.278001 
172.942614 
175.650216 
178.390757 
181.153014 
183.923887 
186.693830 
189.455641 
192.201745 
194.922167 
197.607453 
200.248689 
202.839889 
205.379604 
207.871329 
210.324409 
212.756320 
215.196818 
217.688391 
220.284418 
223.055938 
226.106550 
229.573981 
233.652742 
238.659838 
245.154785 
254.087064 
267.263024 
288.279828 
316.861462 
340.849406 
349.850272 
359.379540 
368.315263 
365.122887 
349.248489 
330.412921 
315.690361 
300.381453 
281.208858 
255.828401 
232.364833 
206.841664 
175.793626 
144.883725 
119.364370 
100.607685 
95.670343 
124.439887 
198.599396 
289.109069 
282.061615 
167.917335 
127.854244 
160.064206 
201.051515 
241.445800 
280.751383 
321.512416 
18.184692 
21.790284 
25.678913 
29.615484 
33.514079 
37.352923 
41.133767 
44.865487 
48.557278 
52.217853 
55.855331 
59.477374 
63.089323 
66.693319 
70.289165 
73.875066 
77.448252 
81.005265 
84.542256 
88.055091 
91.539553 
94.991441 
98.406712 
101.781579 
105.112603 
108.396484 
111.629714 
114.809961 
117.936664 
121.008129 
124.020931 
126.974228 
129.870788 
132.711046 
135.493877 
138.219637 
140.889823 
143.506088 
146.070444 
148.585268 
151.053298 
153.477635 
155.861733 
158.209376 
160.524631 
162.811816 
165.075486 
167.320353 
169.551191 
171.772720 
173.989481 
176.205654 
178.424832 
180.649736 
182.881846 
185.120955 
187.364649 
189.607758 
191.841833 
194.054735 
196.230698 
198.351414 
200.398704 
202.359663 
204.235520 
206.052807 
207.872984 
209.790327 
211.907180 
214.275023 
216.810054 
219.226104 
221.053564 
221.764118 
220.985159 
218.725876 
215.513197 
212.311295 
210.151379 
209.645833 
210.802530 
213.389276 
217.240993 
221.811736 
225.919490 
228.309407 
228.328505 
226.129410 
222.357475 
217.812478 
213.257882 
209.297218 
206.252833 
204.020878 
202.039890 
199.488974 
195.646296 
190.208402 
183.429850 
176.102402 
169.426870 
164.749682 
163.087306 
164.431726 
167.315224 
169.406664 
168.828587 
165.070537 
158.952492 
151.988032 
145.726882 
141.316705 
139.309523 
139.674880 
141.919525 
145.255780 
148.823078 
151.922035 
154.155157 
155.436276 
155.897400 
155.772248 
155.312917 
154.741134 
154.222304 
153.861720 
153.715469 
153.803519 
154.122770 
154.659637 
155.397729 
156.318366 
157.401683 
158.629404 
159.986389 
161.460171 
163.040467 
164.718537 
166.485859 
168.332770 
170.249326 
172.226975 
174.258428 
176.336517 
178.453210 
180.598043 
182.759064 
184.926700 
187.094737 
189.258293 
191.413089 
193.553510 
195.674596 
197.776919 
199.869019 
201.966275 
204.090411 
206.271636 
208.553513 
210.993840 
213.661755 
216.644840 
220.062165 
224.070903 
228.887229 
234.838444 
242.445624 
252.542127 
266.446474 
285.799124 
309.695069 
328.972353 
339.909289 
350.412222 
360.639402 
358.542643 
347.073226 
334.155675 
329.223518 
321.763786 
302.351485 
278.264619 
257.183945 
230.571334 
197.784080 
167.466216 
143.250866 
123.796118 
110.280126 
115.366815 
151.673145 
196.373399 
190.435086 
142.186436 
131.870387 
158.157875 
196.014951 
242.303513 
294.830973 
349.401209 
15.209694 
18.915656 
22.837639 
26.755268 
30.603727 
34.377316 
38.088623 
41.751374 
45.378930 
48.980811 
52.567606 
56.147664 
59.726493 
63.305460 
66.883134 
70.456877 
74.023225 
77.578134 
81.117131 
84.635612 
88.128937 
91.592608 
95.022333 
98.414137 
101.764404 
105.069823 
108.327133 
111.534003 
114.689415 
117.791644 
120.837514 
123.826288 
126.761456 
129.643496 
132.471214 
135.244620 
137.965251 
140.634789 
143.255272 
145.829053 
148.358813 
150.847580 
153.298715 
155.715884 
158.102992 
160.464136 
162.803594 
165.125760 
167.435023 
169.735638 
172.031597 
174.326441 
176.623036 
178.923284 
181.227790 
183.535477 
185.843166 
188.145187 
190.433075 
192.695504 
194.918721 
197.087812 
199.189162 
201.214463 
203.166153 
205.062697 
206.940241 
208.844431 
210.808252 
212.815046 
214.754672 
216.400440 
217.436973 
217.547112 
216.546328 
214.514481 
211.864273 
209.282116 
207.530417 
207.181318 
208.477051 
211.384869 
215.620578 
220.564494 
225.280011 
228.816030 
230.583462 
230.507407 
228.923500 
226.372870 
223.419533 
220.523739 
217.934423 
215.620199 
213.271793 
210.432276 
206.707396 
201.956693 
196.397116 
190.599600 
185.385084 
181.612126 
179.836247 
179.939045 
181.008844 
181.694764 
180.860985 
178.085183 
173.730504 
168.675228 
163.926855 
160.311182 
158.301369 
157.976900 
159.068566 
161.068528 
163.384805 
165.501425 
167.084014 
168.005867 
168.306196 
168.119523 
167.615578 
166.960355 
166.289691 
165.698734 
165.246242 
164.962515 
164.856148 
164.923641 
165.156051 
165.540618 
166.062866 
166.709385 
167.469000 
168.332550 
169.292551 
170.342416 
171.475092 
172.682547 
173.957002 
175.291059 
176.677059 
178.109782 
179.584110 
181.090860 
182.618258 
184.156707 
185.702070 
187.254672 
188.815524 
190.381814 
191.952117 
193.533542 
195.143880 
196.809077 
198.561709 
200.444733 
202.516700 
204.853892 
207.548175 
210.711188 
214.486888 
219.058058 
224.659810 
231.609336 
240.354913 
251.534313 
265.958119 
284.016308 
304.119963 
320.692479 
332.928474 
344.404968 
353.934401 
353.645874 
349.065404 
349.386483 
352.988355 
344.436771 
315.166832 
290.282194 
270.938348 
244.683191 
213.443447 
184.714437 
160.681432 
138.411241 
117.094481 
102.034362 
105.232284 
121.589659 
127.356959 
126.654607 
140.312442 
165.331318 
199.967040 
244.776272 
296.724003 
351.387394 
12.452287 
16.228829 
20.146713 
24.011099 
27.782011 
31.468714 
35.093270 
38.674683 
42.225837 
45.759860 
49.287619 
52.818962 
56.358515 
59.906869 
63.461240 
67.017873 
70.572647 
74.120896 
77.657581 
81.177517 
84.675674 
88.147239 
91.587738 
94.993055 
98.359469 
101.683648 
104.962608 
108.193976 
111.376450 
114.508404 
117.587453 
120.612824 
123.587513 
126.512286 
129.386192 
132.209375 
134.983181 
137.709239 
140.389546 
143.026381 
145.622309 
148.180230 
150.703359 
153.195185 
155.659403 
158.099833 
160.520419 
162.925176 
165.318071 
167.702873 
170.083026 
172.461470 
174.840416 
177.221085 
179.603403 
181.985681 
184.364293 
186.733403 
189.084822 
191.408122 
193.691163 
195.921230 
198.086934 
200.180825 
202.202206 
204.158745 
206.064526 
207.931671 
209.754071 
211.485924 
213.021792 
214.193395 
214.796129 
214.649623 
213.683130 
212.013650 
209.979917 
208.101830 
206.961301 
207.044031 
208.620736 
211.698960 
216.006043 
220.990595 
225.913073 
230.047576 
232.894061 
234.283589 
234.348047 
233.407956 
231.841486 
229.974912 
228.006421 
225.961284 
223.697757 
220.987013 
217.638047 
213.619040 
209.121949 
204.556649 
200.469372 
197.384545 
195.594284 
194.975878 
194.971375 
194.792125 
193.755328 
191.556977 
188.351302 
184.637261 
181.048686 
178.151049 
176.307968 
175.627007 
175.970809 
177.023072 
178.389422 
179.703704 
180.702927 
181.256421 
181.351603 
181.055390 
180.475144 
179.729448 
178.923529 
178.137268 
177.426004 
176.824435 
176.348647 
176.002269 
175.781605 
175.678763 
175.684074 
175.788456 
175.985026 
176.268191 
176.633918 
177.076912 
177.590876 
178.170477 
178.812070 
179.509703 
180.255035 
181.043888 
181.873253 
182.735913 
183.619527 
184.516442 
185.424329 
186.349931 
187.298373 
188.269587 
189.264455 
190.297952 
191.397029 
192.596229 
193.936645 
195.473013 
197.278859 
199.450363 
202.107210 
205.393193 
209.483915 
214.591862 
220.970962 
228.924163 
238.820275 
251.078048 
265.991787 
283.305445 
301.668075 
318.121996 
331.426340 
342.379840 
349.070983 
347.329382 
344.768260 
349.701796 
356.092853 
342.161707 
311.163689 
291.029882 
274.553352 
250.441626 
222.399910 
196.193937 
170.896215 
144.460101 
116.740015 
90.277937 
75.059761 
82.898136 
104.979612 
128.958438 
151.410815 
173.101347 
198.228640 
228.278382 
258.608117 
290.351240 
9.922637 
13.738938 
17.611251 
21.385243 
25.047597 
28.624157 
32.145139 
35.632650 
39.099674 
42.557080 
46.019677 
49.496524 
52.991767 
56.504264 
60.029973 
63.564375 
67.102600 
70.639335 
74.168942 
77.685770 
81.184341 
84.659597 
88.106891 
91.522055 
94.901359 
98.241520 
101.539745 
104.793826 
108.002264 
111.163831 
114.276564 
117.339982 
120.355633 
123.324665 
126.246756 
129.122556 
131.953124 
134.739934 
137.484850 
140.190006 
142.857769 
145.490855 
148.092269 
150.665266 
153.213278 
155.739804 
158.248383 
160.742597 
163.225949 
165.701706 
168.172768 
170.641506 
173.109545 
175.577532 
178.044869 
180.509441 
182.967373 
185.412840 
187.838013 
190.233218 
192.587415 
194.889059 
197.127371 
199.293793 
201.383109 
203.393233 
205.322321 
207.162061 
208.887298 
210.444793 
211.746114 
212.672583 
213.098069 
212.931503 
212.170265 
210.947313 
209.546455 
208.373270 
207.877820 
208.449339 
210.317966 
213.494891 
217.751094 
222.639553 
227.585130 
232.024689 
235.538879 
237.923372 
239.188865 
239.499837 
239.088782 
238.175591 
236.911948 
235.353019 
233.460210 
231.143472 
228.335202 
225.065906 
221.502884 
217.939709 
214.734176 
212.203616 
210.501395 
209.532345 
208.958704 
208.316004 
207.192528 
205.383257 
202.949636 
200.174212 
197.447887 
195.144226 
193.525389 
192.691460 
192.577789 
192.991244 
193.674435 
194.373098 
194.888737 
195.104321 
194.983808 
194.552951 
193.876044 
193.033287 
192.102613 
191.147503 
190.216250 
189.343130 
188.548024 
187.838707 
187.215441 
186.674384 
186.209793 
185.815936 
185.489162 
185.228389 
185.032749 
184.898160 
184.818307 
184.791539 
184.818769 
184.896979 
185.019185 
185.180633 
185.378019 
185.604206 
185.850090 
186.109340 
186.382875 
186.681085 
187.013790 
187.380195 
187.785057 
188.250545 
188.814613 
189.518229 
190.408402 
191.548548 
193.025156 
194.952753 
197.479071 
200.783400 
205.078613 
210.612087 
217.659821 
226.513003 
237.459264 
250.721398 
266.266609 
283.495777 
301.080632 
317.198543 
330.361870 
340.423597 
345.182729 
342.602808 
339.318624 
342.240391 
340.388852 
319.505017 
294.064913 
282.975421 
270.362753 
249.559054 
225.145202 
200.628438 
174.058564 
144.744784 
113.581898 
83.736573 
66.469192 
77.872756 
107.252051 
136.125917 
157.986163 
174.219489 
188.672572 
201.258799 
207.750355 
216.382021 
7.627086 
11.449573 
15.233938 
18.879061 
22.404035 
25.847952 
29.248887 
32.630564 
36.003001 
39.376919 
42.767258 
46.185533 
49.631694 
53.103498 
56.595664 
60.102642 
63.619125 
67.139094 
70.656414 
74.165017 
77.659147 
81.133485 
84.583317 
88.004463 
91.393296 
94.746684 
98.062029 
101.337309 
104.571037 
107.762101 
110.909256 
114.011928 
117.070891 
120.087045 
123.060913 
125.993395 
128.885436 
131.738341 
134.553852 
137.333887 
140.080500 
142.796126 
145.483507 
148.145611 
150.785547 
153.406431 
156.011333 
158.603341 
161.185451 
163.760403 
166.330550 
168.897713 
171.462983 
174.026508 
176.587266 
179.142838 
181.689211 
184.220643 
186.729638 
189.207090 
191.642630 
194.025206 
196.343817 
198.588189 
200.748981 
202.816906 
204.780141 
206.619753 
208.303856 
209.782635 
210.987678 
211.839786 
212.267675 
212.237310 
211.785774 
211.048005 
210.263445 
209.752753 
209.864362 
210.899098 
213.037036 
216.285103 
220.461521 
225.216158 
230.105483 
234.688312 
238.613628 
241.671680 
243.804127 
245.073994 
245.610459 
245.553198 
245.013950 
244.056293 
242.696910 
240.926174 
238.747189 
236.222235 
233.493872 
230.772594 
228.293939 
226.252760 
224.733840 
223.672973 
222.867309 
222.041309 
220.946047 
219.447872 
217.568586 
215.468283 
213.385338 
211.561305 
210.176609 
209.312021 
208.939711 
208.943513 
209.156717 
209.405052 
209.542434 
209.471762 
209.150004 
208.580478 
207.798427 
206.856162 
205.808963 
204.705754 
203.586472 
202.481501 
201.411070 
200.384813 
199.405772 
198.473705 
197.586444 
196.740560 
195.934367 
195.170341 
194.450590 
193.772612 
193.131107 
192.527760 
191.967981 
191.451834 
190.975828 
190.535618 
190.123818 
189.732944 
189.357956 
188.996718 
188.652617 
188.338160 
188.066176 
187.835271 
187.651975 
187.543106 
187.558388 
187.744387 
188.151990 
188.848399 
189.927558 
191.516622 
193.785549 
196.947771 
201.255226 
206.997279 
214.482485 
224.003168 
235.787168 
249.911070 
266.129510 
283.715076 
301.463102 
317.864094 
331.205744 
340.835408 
345.248102 
344.478325 
342.467015 
341.424779 
330.894728 
305.493211 
285.096720 
276.231177 
264.321616 
245.131422 
223.277658 
199.440075 
172.597933 
143.169326 
112.831169 
86.482767 
76.008824 
89.900202 
116.443330 
141.473780 
158.539328 
168.273668 
173.986789 
175.639795 
168.861970 
162.033996 
5.579046 
9.362542 
13.011113 
16.492535 
19.855162 
23.148751 
26.414497 
29.676892 
32.944753 
36.225215 
39.537940 
42.892058 
46.285864 
49.711929 
53.165021 
56.639072 
60.128090 
63.625519 
67.124755 
70.619466 
74.103713 
77.572117 
81.019906 
84.443016 
87.837967 
91.201868 
94.532355 
97.827592 
101.086228 
104.307254 
107.489862 
110.633676 
113.739010 
116.806595 
119.837249 
122.831878 
125.791435 
128.717102 
131.610569 
134.473435 
137.307368 
140.114352 
142.896804 
145.657375 
148.398792 
151.123700 
153.834633 
156.534119 
159.224593 
161.908234 
164.586833 
167.261664 
169.933306 
172.601454 
175.264722 
177.920449 
180.564541 
183.191354 
185.793677 
188.362816 
190.888818 
193.360804 
195.767337 
198.096647 
200.336448 
202.473025 
204.489377 
206.362527 
208.060769 
209.542388 
210.757969 
211.658446 
212.209937 
212.413886 
212.328131 
212.081978 
211.877158 
211.968722 
212.625561 
214.076840 
216.457873 
219.772481 
223.878975 
228.508001 
233.316635 
237.956965 
242.135767 
245.653202 
248.415365 
250.422274 
251.733629 
252.431786 
252.594518 
252.282210 
251.535620 
250.385899 
248.873640 
247.073759 
245.105572 
243.121625 
241.280598 
239.707033 
238.453300 
237.480412 
236.667684 
235.850904 
234.879776 
233.669002 
232.224110 
230.636109 
229.049564 
227.617875 
226.461548 
225.640194 
225.143771 
224.902260 
224.807802 
224.741510 
224.597512 
224.299055 
223.804805 
223.106701 
222.221952 
221.182969 
220.028046 
218.794078 
217.512842 
216.209593 
214.902223 
213.600371 
212.308697 
211.030074 
209.764977 
208.512358 
207.271936 
206.047938 
204.844382 
203.660460 
202.494410 
201.351875 
200.240213 
199.162479 
198.119593 
197.108066 
196.117340 
195.138370 
194.169361 
193.211895 
192.272912 
191.366993 
190.509605 
189.701894 
188.949507 
188.280456 
187.749544 
187.410802 
187.315609 
187.529019 
188.143433 
189.291036 
191.153372 
193.966028 
198.017126 
203.646173 
211.214573 
221.051770 
233.379070 
248.200856 
265.170673 
283.513596 
302.068077 
319.414087 
333.960103 
344.544695 
350.562730 
351.978009 
351.011007 
346.300867 
330.413957 
305.165869 
286.894126 
275.196116 
260.297480 
241.771804 
221.155272 
197.585958 
171.448518 
143.937740 
117.390816 
97.567638 
93.025543 
105.414384 
125.794458 
144.467750 
155.297467 
158.347596 
157.534627 
154.091189 
142.187465 
124.332731 
3.794041 
7.477647 
10.939400 
14.223966 
17.402913 
20.531897 
23.650098 
26.781094 
29.933311 
33.114000 
36.342853 
39.628912 
42.963276 
46.337983 
49.745637 
53.180124 
56.635082 
60.103362 
63.578026 
67.052528 
70.520919 
73.977875 
77.418780 
80.839696 
84.237407 
87.609278 
90.953238 
94.267689 
97.551455 
100.803701 
104.023878 
107.211775 
110.367626 
113.491945 
116.585500 
119.649150 
122.683782 
125.690476 
128.670742 
131.625904 
134.557108 
137.465763 
140.353828 
143.223637 
146.077472 
148.917397 
151.745327 
154.563162 
157.372719 
160.175563 
162.972896 
165.765428 
168.553227 
171.335548 
174.110664 
176.875703 
179.626508 
182.357536 
185.061818 
187.731000 
190.355448 
192.924421 
195.426214 
197.848176 
200.176447 
202.395280 
204.485951 
206.425491 
208.185901 
209.734874 
211.039269 
212.072379 
212.825146 
213.319938 
213.623640 
213.855512 
214.184894 
214.815175 
215.954054 
217.774940 
220.378415 
223.765225 
227.826346 
232.356379 
237.089388 
241.748049 
246.087593 
249.925735 
253.153709 
255.734874 
257.685131 
259.045388 
259.866429 
260.199508 
260.091787 
259.590465 
258.751692 
257.651502 
256.388793 
255.076931 
253.826511 
252.721948 
251.800023 
251.040222 
250.371695 
249.697115 
248.926023 
248.004734 
246.932695 
245.761744 
244.579176 
243.481023 
242.545599 
241.814592 
241.285451 
240.915335 
240.633901 
240.359999 
240.017701 
239.548136 
238.915421 
238.106823 
237.128740 
236.000568 
234.748168 
233.398835 
231.977226 
230.503536 
228.992000 
227.451508 
225.887187 
224.303520 
222.702751 
221.085653 
219.454354 
217.812639 
216.165850 
214.515699 
212.865558 
211.224603 
209.601844 
208.002288 
206.429283 
204.881263 
203.346273 
201.816128 
200.289229 
198.768446 
197.262748 
195.790108 
194.368983 
193.009443 
191.715806 
190.515394 
189.458962 
188.605367 
188.005511 
187.717945 
187.818525 
188.430553 
189.735110 
191.971417 
195.448182 
200.558453 
207.745593 
217.434108 
229.921858 
245.238471 
263.014223 
282.435877 
302.291462 
321.097742 
337.293166 
349.576258 
357.260281 
360.154541 
358.321159 
349.880654 
331.865235 
309.738142 
292.311572 
276.561738 
259.105455 
241.089773 
221.229061 
198.485468 
173.767897 
149.007351 
127.083437 
112.901975 
110.912836 
119.916808 
133.765257 
145.778902 
150.445688 
147.490700 
141.781861 
135.514261 
122.049568 
96.864574 
2.300376 
5.794471 
9.016853 
12.074901 
15.051415 
18.001475 
20.961923 
23.952844 
26.982322 
30.057086 
33.197063 
36.406039 
39.673966 
42.988722 
46.344160 
49.731865 
53.144955 
56.576481 
60.019200 
63.466513 
66.912523 
70.352160 
73.781085 
77.195675 
80.592960 
83.970651 
87.326977 
90.660634 
93.970669 
97.256434 
100.517560 
103.753943 
106.965729 
110.153294 
113.317229 
116.458283 
119.577169 
122.674771 
125.752231 
128.810581 
131.850583 
134.872868 
137.878596 
140.869744 
143.848214 
146.815343 
149.772335 
152.720392 
155.660641 
158.593979 
161.520966 
164.441717 
167.355765 
170.261914 
173.158099 
176.041240 
178.907121 
181.750297 
184.564034 
187.340308 
190.069842 
192.742173 
195.345691 
197.867593 
200.293690 
202.608038 
204.792477 
206.826349 
208.686857 
210.350759 
211.798064 
213.018128 
214.017915 
214.831252 
215.526870 
216.211900 
217.027878 
218.137380 
219.701529 
221.851832 
224.662651 
228.132402 
232.177600 
236.641763 
241.318341 
245.983893 
250.434551 
254.507370 
258.091504 
261.131370 
263.616830 
265.559535 
266.988126 
267.942888 
268.468934 
268.615591 
268.440511 
268.013990 
267.417910 
266.738787 
266.056976 
265.433061 
264.895723 
264.436771 
264.016251 
263.577171 
263.065315 
262.447208 
261.720441 
260.914554 
260.081876 
259.281569 
258.563360 
257.955136 
257.456690 
257.041002 
256.661563 
256.262731 
255.790375 
255.200282 
254.462981 
253.564850 
252.506637 
251.299535 
249.960846 
248.510183 
246.966473 
245.345111 
243.657260 
241.910519 
240.109992 
238.260189 
236.363390 
234.421963 
232.439337 
230.419630 
228.368802 
226.292369 
224.198959 
222.100903 
220.008707 
217.929166 
215.867026 
213.819984 
211.779394 
209.738036 
207.694614 
205.649480 
203.612090 
201.600502 
199.639556 
197.749202 
195.941200 
194.242470 
192.695265 
191.352437 
190.266514 
189.485413 
189.058938 
189.082015 
189.714981 
191.171976 
193.756237 
197.899433 
204.149171 
213.095997 
225.226535 
240.718387 
259.257065 
279.975796 
301.511205 
322.192561 
340.313834 
354.453410 
363.752803 
367.480524 
364.653220 
354.021969 
335.950985 
316.141289 
298.255776 
279.953549 
261.278589 
243.289859 
224.184373 
202.563143 
179.753552 
157.975725 
140.102000 
129.420768 
127.529432 
132.429305 
140.053231 
145.827412 
145.252663 
137.681359 
128.186521 
119.795241 
105.606732 
75.803717 
1.171738 
4.307422 
7.241736 
10.049943 
12.809153 
15.570119 
18.363824 
21.207446 
24.107094 
27.070491 
30.112837 
33.235919 
36.425678 
39.672045 
42.965790 
46.298594 
49.661361 
53.047295 
56.449799 
59.862227 
63.278887 
66.695072 
70.106935 
73.511232 
76.905369 
80.287363 
83.655822 
87.009728 
90.348379 
93.671294 
96.978208 
100.269047 
103.543868 
106.802844 
110.046321 
113.274824 
116.488816 
119.688776 
122.875375 
126.049378 
129.211357 
132.360920 
135.497934 
138.623733 
141.740094 
144.847626 
147.946657 
151.037603 
154.120818 
157.196459 
160.264384 
163.324063 
166.374452 
169.413878 
172.439917 
175.449272 
178.437666 
181.399751 
184.329045 
187.217905 
190.057528 
192.837958 
195.548097 
198.175676 
200.707178 
203.127757 
205.421230 
207.570401 
209.558071 
211.369025 
212.993450 
214.432009 
215.701554 
216.841287 
217.917578 
219.025008 
220.281574 
221.817648 
223.758894 
226.205724 
229.213586 
232.779370 
236.838513 
241.271001 
245.916085 
250.593729 
255.133628 
259.392342 
263.263300 
266.683278 
269.627342 
272.088111 
274.076239 
275.620345 
276.759956 
277.539619 
278.010937 
278.234747 
278.278351 
278.209190 
278.087710 
277.959425 
277.848099 
277.753293 
277.653907 
277.517233 
277.311028 
277.014428 
276.624800 
276.158761 
275.647236 
275.126009 
274.625855 
274.164548 
273.742012 
273.340461 
272.928552 
272.467849 
271.919880 
271.252078 
270.441119 
269.474448 
268.350224 
267.075182 
265.660944 
264.121478 
262.470849 
260.720867 
258.880369 
256.955721 
254.951621 
252.871128 
250.715646 
248.487796 
246.191532 
243.831474 
241.414730 
238.951156 
236.453654 
233.937020 
231.414112 
228.893947 
226.381761 
223.875662 
221.369048 
218.856555 
216.335589 
213.804877 
211.270992 
208.751890 
206.278002 
203.876806 
201.574573 
199.403559 
197.401383 
195.603646 
194.062325 
192.820403 
191.896990 
191.343944 
191.272319 
191.837377 
193.289456 
196.052854 
200.767281 
208.244495 
219.300223 
234.438692 
253.529328 
275.656486 
299.197222 
322.141120 
342.511109 
358.686585 
369.512267 
374.084808 
371.322891 
360.654440 
344.003469 
325.534174 
306.793962 
287.105809 
267.640230 
249.136944 
229.970925 
209.454826 
188.721494 
169.757387 
154.830532 
145.722615 
142.464626 
142.914604 
144.499882 
144.396434 
139.293429 
128.405331 
116.034668 
105.610745 
90.277494 
58.025342 
0.751348 
3.012041 
5.613045 
8.154884 
10.688696 
13.253190 
15.873047 
18.561672 
21.324854 
24.168607 
27.103895 
30.128317 
33.229361 
36.394471 
39.616095 
42.882676 
46.185516 
49.516315 
52.869338 
56.238668 
59.618660 
63.005272 
66.395265 
69.785861 
73.174868 
76.560716 
79.942309 
83.318956 
86.690149 
90.055536 
93.414874 
96.768029 
100.114905 
103.455413 
106.789531 
110.117409 
113.439132 
116.754671 
120.064069 
123.367816 
126.666398 
129.958451 
133.241638 
136.516587 
139.784909 
143.046815 
146.301582 
149.548657 
152.787531 
156.017543 
159.237782 
162.447006 
165.643545 
168.825207 
171.989176 
175.131918 
178.249080 
181.335422 
184.384752 
187.389892 
190.342657 
193.233853 
196.053284 
198.789787 
201.431266 
203.964812 
206.377047 
208.654757 
210.786143 
212.762708 
214.582386 
216.253513 
217.798834 
219.259057 
220.696097 
222.192542 
223.846735 
225.763666 
228.042043 
230.759207 
233.957017 
237.632026 
241.733226 
246.167511 
250.808827 
255.513514 
260.139254 
264.560924 
268.679131 
272.429365 
275.778237 
278.708056 
281.215553 
283.318169 
285.047132 
286.439918 
287.538940 
288.393952 
289.059253 
289.587732 
290.025789 
290.408597 
290.756207 
291.072437 
291.347247 
291.562355 
291.698628 
291.743063 
291.693139 
291.557849 
291.354898 
291.105374 
290.827697 
290.532480 
290.219016 
289.875020 
289.478953 
289.004040 
288.423007 
287.712277 
286.854032 
285.837774 
284.660974 
283.328141 
281.847513 
280.229336 
278.484308 
276.621741 
274.648938 
272.571021 
270.391384 
268.111478 
265.731345 
263.252697 
260.678936 
258.015409 
255.270823 
252.457964 
249.592827 
246.692935 
243.774190 
240.848683 
237.922368 
234.994770 
232.060433 
229.113929 
226.149439 
223.163993 
220.161519 
217.163179 
214.203178 
211.314664 
208.532413 
205.904787 
203.469400 
201.250952 
199.291669 
197.633516 
196.275569 
195.225193 
194.523440 
194.232870 
194.492914 
195.633006 
198.295346 
203.499695 
212.520994 
226.451751 
245.594714 
269.061030 
294.848651 
320.373235 
343.157138 
361.323251 
373.647699 
379.252223 
377.468423 
368.419165 
353.953268 
336.633660 
317.675703 
297.646487 
277.671943 
258.216986 
238.737366 
219.066542 
200.118173 
183.397867 
170.306065 
161.447162 
155.971577 
151.834287 
147.506105 
141.735089 
132.411379 
118.771667 
104.039391 
92.225919 
76.463389 
44.598797 
1.120193 
1.906251 
4.136713 
6.401956 
8.704342 
11.066023 
13.504040 
16.028760 
18.646486 
21.361581 
24.177571 
27.091276 
30.089889 
33.162205 
36.297173 
39.485706 
42.716077 
45.981030 
49.274694 
52.592511 
55.928815 
59.279949 
62.643943 
66.018373 
69.401574 
72.792349 
76.189896 
79.593682 
83.003395 
86.418708 
89.839305 
93.264873 
96.695055 
100.129390 
103.567386 
107.008611 
110.452649 
113.898870 
117.346555 
120.795754 
124.246761 
127.697288 
131.142685 
134.582235 
138.017496 
141.448279 
144.872920 
148.289692 
151.697072 
155.093510 
158.477251 
161.846276 
165.198229 
168.530345 
171.839374 
175.121508 
178.372307 
181.586649 
184.758674 
187.881756 
190.948477 
193.950631 
196.879258 
199.724725 
202.476902 
205.125390 
207.660023 
210.071643 
212.353394 
214.502373 
216.522231 
218.426489 
220.241085 
222.006260 
223.778601 
225.629762 
227.641834 
229.899851 
232.482016 
235.448558 
238.831513 
242.627678 
246.796530 
251.264426 
255.932209 
260.685252 
265.405859 
269.985331 
274.333326 
278.386175 
282.106505 
285.471191 
288.468566 
291.105182 
293.402635 
295.390334 
297.101023 
298.573361 
299.849520 
300.970484 
301.971833 
302.880831 
303.714093 
304.477110 
305.165840 
305.770206 
306.278783 
306.683199 
306.981026 
307.176551 
307.279359 
307.301288 
307.252796 
307.139523 
306.960062 
306.705542 
306.360936 
305.907491 
305.325958 
304.599518 
303.715202 
302.665054 
301.447083 
300.064792 
298.524778 
296.835358 
295.005317 
293.042720 
290.953752 
288.742432 
286.410576 
283.957926 
281.383355 
278.686855 
275.870980 
272.941009 
269.906298 
266.780793 
263.582496 
260.332002 
257.049685 
253.751234 
250.444400 
247.128858 
243.800836 
240.452769 
237.074547 
233.656435 
230.202577 
226.740663 
223.314710 
219.958331 
216.710599 
213.629325 
210.763770 
208.140983 
205.799140 
203.772031 
202.053268 
200.619663 
199.447328 
198.500110 
197.767131 
197.376795 
197.792513 
200.068191 
205.929580 
217.347726 
235.514831 
259.863772 
287.946215 
316.266955 
341.504217 
361.426605 
375.017118 
381.920506 
381.974329 
375.497681 
363.709538 
348.178389 
330.084415 
310.456631 
290.281114 
270.173994 
250.336904 
231.129839 
213.424272 
198.246692 
186.170900 
176.822681 
168.686564 
159.953951 
149.928309 
138.827787 
125.326326 
109.019794 
92.528979 
79.819344 
64.438995 
35.082881 
1.551904 
1.006579 
2.806185 
4.796452 
6.868736 
9.022623 
11.268489 
13.617564 
16.077140 
18.650137 
21.334681 
24.124268 
27.007948 
29.973177 
33.009105 
36.104411 
39.250248 
42.436740 
45.660963 
48.918635 
52.204492 
55.514994 
58.849907 
62.207378 
65.586059 
68.985124 
72.403849 
75.841779 
79.298579 
82.773910 
86.267231 
89.777906 
93.305151 
96.848004 
100.405361 
103.976065 
107.558993 
111.152816 
114.755961 
118.367669 
121.987869 
125.613406 
129.237699 
132.858392 
136.476187 
140.090601 
143.699267 
147.299312 
150.887912 
154.462529 
158.020502 
161.558965 
165.074808 
168.564632 
172.024699 
175.450887 
178.838651 
182.182983 
185.478387 
188.718854 
191.897859 
195.008365 
198.042909 
200.993742 
203.853048 
206.613225 
209.267466 
211.810570 
214.240024 
216.557679 
218.771596 
220.898806 
222.966759 
225.014323 
227.092687 
229.263893 
231.596678 
234.160491 
237.017962 
240.216622 
243.781425 
247.709625 
251.969174 
256.501347 
261.227235 
266.054978 
270.888271 
275.633707 
280.210241 
284.556373 
288.632653 
292.413375 
295.882873 
299.037992 
301.890423 
304.460501 
306.772461 
308.854178 
310.736670 
312.450431 
314.022017 
315.471925 
316.813183 
318.051127 
319.184456 
320.207403 
321.112764 
321.894703 
322.550662 
323.081963 
323.493130 
323.790217 
323.978521 
324.060432 
324.033988 
323.892570 
323.625590 
323.219958 
322.662265 
321.940740 
321.046524 
319.974403 
318.723652 
317.297568 
315.702313 
313.945558 
312.035781 
309.980665 
307.786172 
305.455647 
302.989770 
300.387039 
297.644895 
294.761617 
291.738197 
288.579284 
285.293170 
281.892499 
278.395306 
274.825223 
271.208529 
267.566905 
263.910080 
260.236657 
256.543061 
252.820760 
249.051201 
245.215675 
241.317962 
237.397991 
233.509447 
229.692377 
225.981099 
222.434622 
219.123137 
216.090346 
213.375256 
211.008383 
208.985395 
207.273200 
205.814602 
204.506817 
203.211315 
201.821874 
200.438340 
199.794772 
201.692272 
208.917809 
224.157713 
247.995828 
277.850523 
308.965754 
336.534499 
357.838951 
372.521162 
381.161582 
384.039915 
381.175481 
372.917312 
360.098313 
343.811271 
325.186483 
305.275014 
284.885986 
264.690967 
245.504457 
228.357375 
214.062305 
202.564600 
192.498617 
181.431684 
167.380463 
150.733825 
133.832681 
116.654048 
98.266103 
80.311868 
67.444680 
53.259778 
29.754264 
1.855092 
0.495110 
1.633861 
3.348632 
5.195644 
7.133215 
9.175363 
11.334013 
13.619588 
16.034144 
18.572057 
21.223816 
23.977860 
26.821744 
29.743205 
32.732504 
35.779216 
38.876026 
42.019189 
45.208511 
48.437847 
51.704723 
55.009757 
58.352208 
61.730675 
65.144476 
68.592879 
72.075216 
75.591021 
79.139607 
82.720145 
86.331522 
89.972348 
93.640945 
97.335453 
101.053855 
104.794093 
108.554002 
112.331065 
116.123487 
119.930452 
123.748034 
127.568317 
131.386961 
135.203258 
139.015945 
142.822385 
146.618794 
150.400862 
154.164801 
157.906993 
161.623657 
165.310859 
168.964492 
172.580270 
176.153710 
179.680120 
183.154589 
186.571981 
189.926935 
193.213882 
196.427128 
199.560958 
202.609631 
205.567787 
208.430793 
211.195133 
213.859411 
216.425166 
218.898407 
221.290828 
223.621882 
225.919612 
228.221215 
230.572949 
233.028718 
235.646525 
238.483750 
241.591268 
245.007240 
248.751587 
252.822243 
257.193955 
261.819982 
266.636772 
271.570334 
276.541667 
281.472005 
286.288817 
290.934034 
295.366850 
299.560495 
303.496721 
307.165559 
310.568605 
313.717119 
316.627143 
319.316859 
321.807071 
324.118626 
326.269987 
328.275370 
330.144004 
331.879845 
333.482228 
334.947239 
336.269672 
337.444830 
338.469801 
339.343955 
340.068658 
340.646297 
341.078908 
341.366830 
341.507833 
341.496863 
341.326442 
340.987594 
340.471220 
339.769479 
338.876826 
337.790664 
336.511768 
335.044083 
333.394021 
331.569806 
329.580407 
327.434366 
325.138455 
322.696632 
320.109505 
317.374711 
314.488290 
311.446907 
308.250278 
304.901617 
301.406493 
297.773216 
294.015804 
290.157857 
286.232399 
282.271644 
278.290680 
274.285961 
270.249450 
266.170262 
262.018776 
257.769551 
253.427952 
249.046266 
244.687299 
240.395023 
236.203824 
232.170158 
228.375996 
224.902473 
221.793500 
219.075731 
216.748651 
214.799383 
213.175420 
211.754272 
210.353719 
208.754586 
206.749765 
204.653241 
203.463201 
205.515471 
214.653785 
234.237102 
263.683827 
296.903324 
326.204457 
348.143798 
363.998658 
375.553765 
382.947642 
385.232931 
381.686615 
372.564206 
358.898207 
341.967569 
322.920653 
302.706178 
282.214605 
262.592741 
245.250721 
231.302262 
220.445677 
210.020612 
195.410321 
173.738785 
147.957858 
123.836505 
103.062321 
83.804172 
66.464222 
53.439102 
40.586044 
28.338864 
2.023179 
0.737122 
0.683521 
2.066790 
3.684252 
5.401976 
7.223794 
9.176642 
11.271984 
13.511168 
15.885446 
18.383049 
20.990994 
23.696159 
26.486897 
29.353670 
32.288491 
35.283352 
38.336481 
41.449804 
44.619136 
47.843002 
51.121747 
54.455226 
57.841831 
61.280891 
64.771491 
68.312643 
71.903269 
75.542099 
79.227725 
82.958506 
86.732265 
90.546359 
94.397978 
98.284111 
102.201605 
106.147256 
110.117548 
114.109554 
118.121367 
122.148264 
126.181264 
130.214353 
134.244832 
138.270162 
142.287483 
146.292342 
150.279174 
154.242632 
158.178012 
162.080542 
165.945372 
169.767619 
173.542377 
177.264735 
180.929790 
184.532666 
188.068538 
191.532696 
194.920571 
198.227915 
201.450769 
204.585518 
207.629119 
210.579992 
213.438044 
216.205617 
218.888139 
221.495323 
224.042115 
226.549779 
229.046698 
231.568398 
234.157140 
236.860303 
239.727585 
242.807196 
246.141277 
249.761201 
253.683465 
257.906905 
262.411788 
267.161004 
272.103208 
277.178064 
282.320700 
287.464619 
292.545495 
297.509163 
302.314303 
306.932608 
311.343654 
315.532890 
319.492802 
323.225476 
326.738601 
330.042021 
333.147114 
336.065772 
338.808672 
341.384237 
343.797703 
346.050856 
348.142318 
350.068487 
351.824754 
353.406690 
354.810888 
356.035374 
357.079485 
357.943304 
358.626855 
359.129294 
359.448350 
359.580156 
359.519498 
359.260430 
358.797140 
358.124886 
357.240816 
356.144551 
354.838475 
353.327593 
351.619200 
349.722489 
347.647844 
345.405622 
343.004862 
340.451826 
337.748714 
334.893387 
331.880805 
328.706454 
325.369723 
321.873328 
318.219248 
314.407574 
310.440772 
306.333449 
302.121885 
297.858328 
293.575227 
289.264852 
284.900888 
280.461600 
275.920786 
271.249123 
266.452546 
261.590763 
256.736201 
251.952114 
247.266334 
242.716528 
238.396723 
234.413737 
230.836895 
227.700888 
225.009425 
222.763501 
220.950911 
219.449686 
218.076801 
216.714974 
215.319137 
214.377945 
214.086387 
214.607169 
217.811763 
227.851825 
247.973488 
276.459771 
304.690640 
327.401923 
346.131168 
363.349579 
378.289154 
387.972696 
390.436810 
385.758711 
375.328792 
360.793430 
343.471717 
324.256124 
303.952442 
283.777056 
265.688284 
251.953474 
243.259652 
234.609999 
214.815917 
178.972777 
138.131045 
106.593937 
84.589037 
66.324858 
50.421063 
38.413981 
27.863184 
19.901147 
2.072793 
1.180958 
0.573126 
0.978806 
2.303678 
3.801837 
5.402505 
7.135027 
9.026725 
11.073850 
13.266540 
15.590787 
18.032592 
20.579421 
23.220420 
25.948106 
28.756359 
31.640319 
34.597590 
37.632834 
40.743763 
43.929778 
47.190484 
50.525532 
53.933564 
57.413479 
60.963773 
64.582812 
68.268587 
72.018757 
75.831004 
79.703002 
83.631652 
87.613198 
91.643631 
95.718815 
99.834396 
103.985980 
108.169005 
112.379441 
116.614135 
120.867160 
125.128693 
129.391388 
133.650849 
137.902585 
142.142887 
146.367027 
150.568519 
154.740440 
158.876719 
162.971474 
167.018858 
171.013138 
174.948713 
178.820133 
182.622165 
186.349889 
189.998725 
193.564540 
197.043693 
200.433288 
203.731067 
206.935358 
210.045624 
213.063356 
215.992015 
218.837627 
221.609441 
224.320632 
226.989075 
229.637926 
232.296053 
234.997921 
237.782838 
240.693443 
243.773378 
247.064202 
250.601837 
254.412989 
258.512050 
262.899003 
267.558716 
272.461748 
277.566596 
282.823613 
288.178804 
293.575325 
298.956296 
304.271197 
309.478987 
314.548436 
319.456670 
324.185138 
328.719388 
333.052128 
337.182316 
341.112319 
344.845092 
348.383963 
351.732258 
354.893017 
357.867500 
360.654775 
363.251954 
365.654810 
367.858533 
369.858464 
371.650658 
373.232177 
374.601045 
375.755925 
376.695652 
377.418765 
377.923136 
378.205871 
378.263484 
378.092309 
377.689067 
377.051501 
376.178964 
375.072904 
373.737169 
372.177946 
370.403573 
368.424465 
366.252697 
363.901214 
361.382667 
358.707705 
355.882756 
352.908332 
349.779617 
346.491433 
343.044668 
339.445150 
335.693472 
331.777070 
327.677078 
323.380470 
318.904838 
314.339673 
309.777323 
305.199526 
300.518208 
295.686752 
290.714936 
285.584291 
280.292616 
274.913202 
269.548316 
264.254541 
259.086241 
254.026128 
249.139430 
244.526629 
240.327340 
236.632011 
233.458209 
230.825482 
228.683482 
226.804650 
224.991973 
223.259889 
222.171045 
223.493436 
228.584955 
236.286094 
245.927703 
251.534204 
253.458204 
256.787678 
270.582010 
290.963040 
316.231248 
344.626464 
371.424343 
390.763553 
399.923615 
399.710537 
392.614991 
381.062831 
366.575831 
349.785966 
331.002484 
311.130837 
292.577824 
280.616395 
278.263521 
274.493155 
245.403585 
182.143379 
122.296515 
84.445430 
63.515056 
48.371705 
35.964214 
26.721598 
17.459292 
11.503833 
1.974809 
1.591688 
1.233500 
0.600577 
1.080920 
2.303518 
3.684563 
5.197136 
6.872300 
8.711245 
10.700631 
12.828059 
15.079824 
17.445485 
19.917465 
22.489989 
25.160826 
27.927598 
30.790739 
33.752400 
36.813793 
39.973048 
43.230120 
46.583719 
50.032814 
53.575437 
57.208758 
60.929942 
64.735762 
68.622473 
72.586338 
76.624021 
80.731496 
84.903823 
89.135649 
93.421562 
97.755950 
102.133199 
106.547721 
110.994596 
115.469114 
119.963831 
124.467979 
128.973725 
133.474967 
137.965349 
142.439446 
146.892402 
151.316928 
155.704727 
160.048120 
164.340002 
168.573444 
172.741787 
176.838621 
180.857822 
184.793674 
188.641038 
192.395446 
196.053173 
199.611313 
203.067948 
206.422415 
209.675054 
212.827981 
215.885664 
218.855110 
221.745992 
224.571251 
227.347575 
230.095890 
232.841627 
235.614829 
238.449815 
241.384337 
244.458152 
247.711018 
251.180196 
254.897651 
258.887281 
263.162554 
267.724893 
272.563087 
277.653831 
282.963322 
288.450184 
294.068461 
299.768452 
305.498822 
311.212211 
316.867390 
322.429683 
327.872061 
333.171928 
338.309355 
343.268105 
348.038470 
352.614980 
356.993318 
361.168795 
365.138219 
368.899539 
372.450131 
375.786109 
378.902686 
381.794579 
384.456383 
386.882994 
389.069960 
391.013665 
392.711299 
394.160682 
395.360007 
396.307561 
397.001486 
397.439726 
397.620168 
397.540913 
397.200663 
396.599148 
395.737509 
394.618710 
393.247796 
391.631963 
389.780398 
387.704503 
385.417841 
382.935858 
380.275312 
377.453006 
374.483196 
371.373924 
368.125260 
364.733400 
361.201265 
357.542274 
353.762797 
349.844420 
345.734834 
341.353742 
336.650904 
331.760958 
326.934694 
322.163791 
317.190996 
311.911372 
306.374573 
300.620880 
294.759465 
288.864809 
283.000558 
277.242077 
271.632828 
266.109680 
260.636630 
255.268012 
250.193783 
245.687982 
241.843943 
238.740044 
236.023384 
233.174804 
230.127784 
226.806886 
224.155767 
224.934284 
234.120208 
254.760523 
285.516057 
311.674401 
306.552637 
267.964890 
241.853993 
253.759265 
284.391278 
325.773548 
366.708208 
396.118842 
410.872256 
413.698622 
409.125568 
400.728900 
390.256750 
377.826269 
362.806216 
345.026878 
327.381124 
316.739840 
320.977091 
327.874618 
288.385286 
185.863669 
104.705459 
64.963303 
47.449996 
36.781296 
27.541651 
17.765651 
11.300158 
8.163862 
1.737911 
1.894039 
1.811100 
1.268957 
0.600775 
0.978020 
2.066187 
3.348936 
4.798427 
6.406515 
8.163346 
10.064132 
12.097027 
14.257341 
16.541390 
18.947121 
21.475434 
24.127465 
26.904208 
29.807741 
32.837997 
35.993117 
39.271143 
42.670169 
46.188451 
49.822699 
53.568469 
57.421089 
61.375819 
65.427275 
69.570053 
73.799364 
78.110263 
82.496621 
86.951785 
91.469010 
96.041459 
100.662342 
105.325217 
110.024299 
114.753204 
119.502614 
124.261400 
129.021218 
133.774582 
138.513380 
143.230464 
147.920316 
152.574694 
157.183971 
161.738943 
166.231314 
170.652984 
174.996145 
179.253404 
183.417893 
187.483137 
191.443545 
195.294530 
199.032332 
202.654419 
206.159667 
209.548804 
212.824250 
215.990696 
219.055447 
222.028720 
224.923832 
227.757558 
230.550385 
233.326736 
236.115049 
238.947570 
241.859832 
244.889741 
248.076222 
251.457448 
255.068750 
258.940342 
263.095122 
267.546796 
272.298581 
277.342678 
282.660592 
288.224244 
293.998186 
299.941872 
306.010093 
312.154673 
318.329678 
324.492692 
330.605113 
336.633991 
342.551551 
348.332445 
353.953111 
359.394943 
364.644511 
369.690594 
374.521877 
379.129517 
383.506712 
387.647121 
391.544030 
395.190783 
398.580921 
401.708367 
404.567567 
407.153671 
409.462620 
411.491124 
413.236554 
414.696805 
415.870147 
416.755064 
417.350246 
417.654694 
417.667911 
417.390162 
416.822758 
415.968311 
414.831000 
413.416818 
411.733626 
409.791102 
407.601002 
405.177413 
402.536982 
399.699227 
396.686613 
393.523390 
390.232401 
386.829128 
383.325302 
379.735343 
376.068256 
372.325438 
368.497031 
364.537044 
360.191793 
355.387369 
350.451443 
345.350663 
340.118747 
334.826142 
329.099116 
322.724499 
316.133240 
309.597389 
303.283210 
297.047024 
290.917716 
284.924864 
278.986880 
272.945762 
266.821563 
260.798925 
255.114845 
250.087409 
246.053424 
242.332377 
237.865146 
232.807980 
227.744218 
222.381404 
219.481051 
225.503654 
248.149609 
292.418805 
352.125002 
383.257453 
334.027762 
244.125522 
234.992143 
265.527223 
316.434783 
369.221418 
406.003190 
422.800104 
425.518356 
421.673920 
416.055102 
410.306685 
404.023378 
395.089111 
380.703973 
359.854105 
334.935873 
327.640566 
339.806273 
309.399092 
189.377268 
100.730582 
63.776270 
46.691250 
31.078927 
18.826069 
12.185257 
9.010465 
6.011434 
1.398142 
1.977580 
2.118421 
1.811812 
1.234752 
0.574088 
0.681939 
1.632532 
2.805910 
4.138015 
5.616795 
7.249436 
9.030409 
10.961347 
13.044751 
15.282662 
17.677810 
20.232513 
22.947162 
25.821945 
28.854817 
32.041864 
35.378683 
38.861159 
42.485419 
46.246741 
50.139005 
54.155589 
58.289889 
62.534929 
66.883599 
71.329564 
75.866750 
80.488005 
85.185571 
89.951580 
94.778084 
99.657226 
104.581797 
109.544962 
114.538897 
119.552731 
124.575358 
129.597544 
134.610441 
139.604516 
144.571604 
149.504451 
154.393600 
159.227991 
163.997332 
168.692159 
173.303131 
177.820852 
182.236783 
186.543080 
190.732420 
194.798235 
198.735404 
202.539686 
206.208445 
209.741138 
213.139605 
216.408175 
219.553714 
222.586049 
225.518436 
228.367820 
231.154984 
233.904723 
236.645733 
239.410481 
242.234820 
245.157286 
248.218088 
251.457759 
254.915505 
258.627332 
262.624097 
266.929628 
271.559137 
276.518082 
281.801637 
287.394815 
293.273244 
299.404875 
305.751757 
312.270173 
318.912160 
325.630398 
332.379512 
339.115868 
345.799506 
352.395534 
358.872150 
365.199506 
371.351093 
377.305733 
383.045274 
388.553402 
393.816553 
398.823855 
403.565622 
408.032875 
412.217345 
416.111581 
419.708953 
423.003609 
425.990466 
428.665246 
431.024441 
433.065245 
434.785486 
436.183552 
437.258301 
438.009071 
438.435767 
438.539008 
438.320298 
437.782216 
436.928577 
435.764586 
434.296985 
432.534073 
430.485614 
428.162991 
425.579452 
422.750495 
419.694725 
416.435230 
413.002073 
409.435534 
405.786036 
402.121687 
398.478362 
394.827439 
391.118208 
387.367296 
383.558228 
379.269434 
374.900389 
370.460178 
365.135839 
358.919338 
352.909975 
346.670529 
339.464420 
331.831506 
324.759681 
318.190967 
311.776800 
305.382383 
299.037010 
292.621107 
286.038368 
279.484628 
272.856352 
265.935462 
259.008262 
252.973004 
247.335080 
240.140415 
232.438340 
225.483654 
217.997036 
212.855827 
214.645569 
227.732812 
255.309814 
309.786810 
377.236647 
386.509943 
275.635242 
204.716587 
226.910786 
298.685497 
374.270168 
418.826203 
432.614199 
431.029458 
426.919120 
423.836335 
421.893534 
421.534043 
420.323384 
408.378706 
368.224150 
295.945828 
231.227792 
215.802992 
212.468157 
115.526046 
79.817444 
51.552177 
31.331999 
19.202634 
13.004287 
9.847696 
7.453297 
3.900804 
0.874829 
1.653494 
1.977854 
1.894925 
1.593184 
1.182885 
0.739051 
0.494508 
1.004129 
1.904050 
3.010756 
4.308057 
5.798375 
7.486640 
9.379134 
11.476832 
13.779316 
16.283340 
18.985773 
21.883194 
24.970017 
28.238782 
31.682495 
35.293902 
39.065818 
42.991713 
47.064476 
51.275928 
55.617593 
60.081070 
64.657974 
69.340537 
74.121481 
78.992821 
83.946148 
88.972809 
94.063935 
99.210711 
104.404999 
109.638983 
114.903721 
120.187686 
125.479803 
130.769234 
136.045728 
141.298960 
146.519931 
151.699359 
156.826047 
161.887578 
166.872622 
171.770917 
176.571517 
181.263046 
185.835294 
190.279472 
194.587021 
198.750022 
202.762204 
206.618116 
210.314619 
213.851417 
217.231029 
220.458885 
223.543609 
226.497222 
229.335861 
232.079868 
234.754316 
237.388894 
240.017567 
242.678208 
245.412119 
248.263160 
251.276587 
254.497594 
257.969623 
261.732509 
265.820593 
270.260923 
275.071724 
280.261257 
285.827196 
291.756577 
298.026341 
304.604824 
311.453211 
318.525627 
325.770490 
333.135561 
340.569565 
348.022022 
355.444885 
362.794255 
370.030465 
377.117394 
384.022587 
390.717687 
397.178497 
403.384587 
409.319110 
414.968117 
420.319557 
425.362912 
430.088846 
434.489266 
438.557264 
442.286911 
445.673095 
448.711515 
451.398652 
453.731725 
455.708648 
457.328003 
458.589008 
459.491533 
460.036181 
460.224420 
460.058716 
459.542666 
458.681099 
457.480166 
455.947375 
454.091479 
451.922284 
449.450503 
446.687672 
443.646142 
440.339505 
436.783994 
433.004866 
429.048404 
425.019379 
421.087464 
417.357186 
413.701271 
409.922842 
406.090676 
402.061542 
397.775628 
394.240477 
391.572279 
386.247960 
378.097581 
370.827675 
364.117290 
356.237099 
347.906499 
340.546115 
333.956081 
327.479416 
320.885240 
314.166124 
307.097936 
299.952025 
293.401202 
287.257195 
279.648934 
270.448020 
261.264759 
252.462450 
241.491100 
229.790002 
219.539833 
210.401508 
207.368295 
222.059241 
253.581869 
284.254892 
291.412256 
314.474172 
348.910433 
271.389866 
147.759084 
121.529388 
225.189663 
373.332349 
429.395209 
433.105853 
428.643963 
427.550539 
426.799078 
426.590319 
426.806078 
430.473620 
423.035647 
353.668370 
194.378252 
82.023301 
63.761937 
113.013432 
34.786699 
32.384624 
25.375038 
18.049716 
13.058392 
9.914446 
7.662591 
4.608494 
1.290171 
0.245756 
0.874806 
1.398243 
1.738470 
1.976157 
2.075073 
2.026343 
1.858868 
1.555764 
1.123584 
0.751936 
1.166886 
2.294176 
3.788411 
5.575918 
7.629142 
9.933086 
12.472608 
15.239938 
18.227392 
21.427254 
24.828985 
28.424387 
32.203434 
36.156384 
40.274775 
44.551475 
48.977409 
53.542871 
58.238453 
63.054873 
67.983268 
73.015376 
78.142541 
83.356136 
88.646971 
94.005508 
99.422083 
104.887469 
110.392999 
115.928868 
121.483700 
127.046136 
132.603588 
138.144475 
143.657825 
149.133486 
154.560272 
159.925178 
165.214644 
170.416008 
175.518183 
180.508198 
185.372606 
190.098984 
194.677356 
199.097243 
203.349040 
207.424665 
211.316831 
215.021407 
218.537528 
221.867589 
225.017282 
227.996160 
230.817994 
233.501449 
236.069991 
238.553164 
240.986106 
243.409193 
245.867427 
248.409928 
251.088889 
253.958179 
257.071643 
260.481141 
264.234432 
268.373024 
272.930132 
277.928918 
283.381132 
289.286300 
295.631518 
302.391883 
309.532001 
317.007501 
324.765580 
332.746271 
340.888077 
349.129743 
357.411029 
365.673906 
373.864494 
381.934169 
389.840512 
397.546528 
405.018255 
412.227151 
419.149947 
425.768097 
432.066093 
438.030895 
443.651382 
448.917948 
453.822339 
458.357713 
462.518259 
466.299017 
469.695835 
472.705356 
475.324981 
477.552832 
479.387735 
480.829210 
481.877499 
482.533661 
482.799711 
482.678781 
482.175243 
481.294828 
480.044677 
478.433325 
476.470443 
474.166499 
471.532286 
468.578349 
465.314317 
461.748425 
457.888377 
453.751204 
449.381112 
444.932436 
440.659106 
436.749093 
432.976405 
428.984732 
424.892955 
420.340523 
416.037776 
413.041439 
412.370466 
407.232016 
397.256496 
388.871950 
381.830530 
373.487823 
365.045262 
357.565051 
351.074642 
344.533459 
337.810698 
330.790546 
323.145282 
315.594428 
309.211377 
304.147338 
296.520558 
285.707307 
273.593661 
261.255384 
246.493210 
230.328708 
216.212731 
207.213555 
211.596684 
257.293579 
341.394013 
399.729403 
376.566594 
340.040885 
347.825644 
301.399855 
184.562143 
105.390364 
57.594402 
348.419239 
435.085670 
429.995600 
435.898753 
437.629008 
438.504799 
438.043578 
436.809324 
431.633908 
436.774132 
326.251758 
24.392945 
16.437025 
17.681590 
93.216415 
20.735724 
17.742184 
14.746959 
11.799054 
8.871745 
6.336830 
3.958588 
1.266268 
0.252607 
