# vtk DataFile Version 1.0 
Bar_TO_3D 
ASCII 
DATASET UNSTRUCTURED_GRID 
POINTS 1701 float 
0.000000 0.000000 
0.000000 0.000000 2.000000 
0.000000 0.000000 4.000000 
0.000000 0.000000 6.000000 
0.000000 0.000000 8.000000 
0.000000 0.000000 10.000000 
0.000000 0.000000 12.000000 
0.000000 0.000000 14.000000 
0.000000 0.000000 16.000000 
0.000000 0.000000 18.000000 
0.000000 0.000000 20.000000 
0.000000 0.000000 22.000000 
0.000000 0.000000 24.000000 
0.000000 0.000000 26.000000 
0.000000 0.000000 28.000000 
0.000000 0.000000 30.000000 
0.000000 0.000000 32.000000 
0.000000 0.000000 34.000000 
0.000000 0.000000 36.000000 
0.000000 0.000000 38.000000 
0.000000 0.000000 40.000000 
0.000000 0.000000 42.000000 
0.000000 0.000000 44.000000 
0.000000 0.000000 46.000000 
0.000000 0.000000 48.000000 
0.000000 0.000000 50.000000 
0.000000 0.000000 52.000000 
0.000000 0.000000 54.000000 
0.000000 0.000000 56.000000 
0.000000 0.000000 58.000000 
0.000000 0.000000 60.000000 
0.000000 0.000000 62.000000 
0.000000 0.000000 64.000000 
0.000000 0.000000 66.000000 
0.000000 0.000000 68.000000 
0.000000 0.000000 70.000000 
0.000000 0.000000 72.000000 
0.000000 0.000000 74.000000 
0.000000 0.000000 76.000000 
0.000000 0.000000 78.000000 
0.000000 0.000000 80.000000 
0.000000 0.000000 82.000000 
0.000000 0.000000 84.000000 
0.000000 0.000000 86.000000 
0.000000 0.000000 88.000000 
0.000000 0.000000 90.000000 
0.000000 0.000000 92.000000 
0.000000 0.000000 94.000000 
0.000000 0.000000 96.000000 
0.000000 0.000000 98.000000 
0.000000 0.000000 100.000000 
0.000000 2.000000 0.000000 
0.000000 2.000000 2.000000 
0.000000 2.000000 4.000000 
0.000000 2.000000 6.000000 
0.000000 2.000000 8.000000 
0.000000 2.000000 10.000000 
0.000000 2.000000 12.000000 
0.000000 2.000000 14.000000 
0.000000 2.000000 16.000000 
0.000000 2.000000 18.000000 
0.000000 2.000000 20.000000 
0.000000 2.000000 22.000000 
0.000000 2.000000 24.000000 
0.000000 2.000000 26.000000 
0.000000 2.000000 28.000000 
0.000000 2.000000 30.000000 
0.000000 2.000000 32.000000 
0.000000 2.000000 34.000000 
0.000000 2.000000 36.000000 
0.000000 2.000000 38.000000 
0.000000 2.000000 40.000000 
0.000000 2.000000 42.000000 
0.000000 2.000000 44.000000 
0.000000 2.000000 46.000000 
0.000000 2.000000 48.000000 
0.000000 2.000000 50.000000 
0.000000 2.000000 52.000000 
0.000000 2.000000 54.000000 
0.000000 2.000000 56.000000 
0.000000 2.000000 58.000000 
0.000000 2.000000 60.000000 
0.000000 2.000000 62.000000 
0.000000 2.000000 64.000000 
0.000000 2.000000 66.000000 
0.000000 2.000000 68.000000 
0.000000 2.000000 70.000000 
0.000000 2.000000 72.000000 
0.000000 2.000000 74.000000 
0.000000 2.000000 76.000000 
0.000000 2.000000 78.000000 
0.000000 2.000000 80.000000 
0.000000 2.000000 82.000000 
0.000000 2.000000 84.000000 
0.000000 2.000000 86.000000 
0.000000 2.000000 88.000000 
0.000000 2.000000 90.000000 
0.000000 2.000000 92.000000 
0.000000 2.000000 94.000000 
0.000000 2.000000 96.000000 
0.000000 2.000000 98.000000 
0.000000 2.000000 100.000000 
0.000000 4.000000 0.000000 
0.000000 4.000000 2.000000 
0.000000 4.000000 4.000000 
0.000000 4.000000 6.000000 
0.000000 4.000000 8.000000 
0.000000 4.000000 10.000000 
0.000000 4.000000 12.000000 
0.000000 4.000000 14.000000 
0.000000 4.000000 16.000000 
0.000000 4.000000 18.000000 
0.000000 4.000000 20.000000 
0.000000 4.000000 22.000000 
0.000000 4.000000 24.000000 
0.000000 4.000000 26.000000 
0.000000 4.000000 28.000000 
0.000000 4.000000 30.000000 
0.000000 4.000000 32.000000 
0.000000 4.000000 34.000000 
0.000000 4.000000 36.000000 
0.000000 4.000000 38.000000 
0.000000 4.000000 40.000000 
0.000000 4.000000 42.000000 
0.000000 4.000000 44.000000 
0.000000 4.000000 46.000000 
0.000000 4.000000 48.000000 
0.000000 4.000000 50.000000 
0.000000 4.000000 52.000000 
0.000000 4.000000 54.000000 
0.000000 4.000000 56.000000 
0.000000 4.000000 58.000000 
0.000000 4.000000 60.000000 
0.000000 4.000000 62.000000 
0.000000 4.000000 64.000000 
0.000000 4.000000 66.000000 
0.000000 4.000000 68.000000 
0.000000 4.000000 70.000000 
0.000000 4.000000 72.000000 
0.000000 4.000000 74.000000 
0.000000 4.000000 76.000000 
0.000000 4.000000 78.000000 
0.000000 4.000000 80.000000 
0.000000 4.000000 82.000000 
0.000000 4.000000 84.000000 
0.000000 4.000000 86.000000 
0.000000 4.000000 88.000000 
0.000000 4.000000 90.000000 
0.000000 4.000000 92.000000 
0.000000 4.000000 94.000000 
0.000000 4.000000 96.000000 
0.000000 4.000000 98.000000 
0.000000 4.000000 100.000000 
0.000000 6.000000 0.000000 
0.000000 6.000000 2.000000 
0.000000 6.000000 4.000000 
0.000000 6.000000 6.000000 
0.000000 6.000000 8.000000 
0.000000 6.000000 10.000000 
0.000000 6.000000 12.000000 
0.000000 6.000000 14.000000 
0.000000 6.000000 16.000000 
0.000000 6.000000 18.000000 
0.000000 6.000000 20.000000 
0.000000 6.000000 22.000000 
0.000000 6.000000 24.000000 
0.000000 6.000000 26.000000 
0.000000 6.000000 28.000000 
0.000000 6.000000 30.000000 
0.000000 6.000000 32.000000 
0.000000 6.000000 34.000000 
0.000000 6.000000 36.000000 
0.000000 6.000000 38.000000 
0.000000 6.000000 40.000000 
0.000000 6.000000 42.000000 
0.000000 6.000000 44.000000 
0.000000 6.000000 46.000000 
0.000000 6.000000 48.000000 
0.000000 6.000000 50.000000 
0.000000 6.000000 52.000000 
0.000000 6.000000 54.000000 
0.000000 6.000000 56.000000 
0.000000 6.000000 58.000000 
0.000000 6.000000 60.000000 
0.000000 6.000000 62.000000 
0.000000 6.000000 64.000000 
0.000000 6.000000 66.000000 
0.000000 6.000000 68.000000 
0.000000 6.000000 70.000000 
0.000000 6.000000 72.000000 
0.000000 6.000000 74.000000 
0.000000 6.000000 76.000000 
0.000000 6.000000 78.000000 
0.000000 6.000000 80.000000 
0.000000 6.000000 82.000000 
0.000000 6.000000 84.000000 
0.000000 6.000000 86.000000 
0.000000 6.000000 88.000000 
0.000000 6.000000 90.000000 
0.000000 6.000000 92.000000 
0.000000 6.000000 94.000000 
0.000000 6.000000 96.000000 
0.000000 6.000000 98.000000 
0.000000 6.000000 100.000000 
0.000000 8.000000 0.000000 
0.000000 8.000000 2.000000 
0.000000 8.000000 4.000000 
0.000000 8.000000 6.000000 
0.000000 8.000000 8.000000 
0.000000 8.000000 10.000000 
0.000000 8.000000 12.000000 
0.000000 8.000000 14.000000 
0.000000 8.000000 16.000000 
0.000000 8.000000 18.000000 
0.000000 8.000000 20.000000 
0.000000 8.000000 22.000000 
0.000000 8.000000 24.000000 
0.000000 8.000000 26.000000 
0.000000 8.000000 28.000000 
0.000000 8.000000 30.000000 
0.000000 8.000000 32.000000 
0.000000 8.000000 34.000000 
0.000000 8.000000 36.000000 
0.000000 8.000000 38.000000 
0.000000 8.000000 40.000000 
0.000000 8.000000 42.000000 
0.000000 8.000000 44.000000 
0.000000 8.000000 46.000000 
0.000000 8.000000 48.000000 
0.000000 8.000000 50.000000 
0.000000 8.000000 52.000000 
0.000000 8.000000 54.000000 
0.000000 8.000000 56.000000 
0.000000 8.000000 58.000000 
0.000000 8.000000 60.000000 
0.000000 8.000000 62.000000 
0.000000 8.000000 64.000000 
0.000000 8.000000 66.000000 
0.000000 8.000000 68.000000 
0.000000 8.000000 70.000000 
0.000000 8.000000 72.000000 
0.000000 8.000000 74.000000 
0.000000 8.000000 76.000000 
0.000000 8.000000 78.000000 
0.000000 8.000000 80.000000 
0.000000 8.000000 82.000000 
0.000000 8.000000 84.000000 
0.000000 8.000000 86.000000 
0.000000 8.000000 88.000000 
0.000000 8.000000 90.000000 
0.000000 8.000000 92.000000 
0.000000 8.000000 94.000000 
0.000000 8.000000 96.000000 
0.000000 8.000000 98.000000 
0.000000 8.000000 100.000000 
0.000000 10.000000 0.000000 
0.000000 10.000000 2.000000 
0.000000 10.000000 4.000000 
0.000000 10.000000 6.000000 
0.000000 10.000000 8.000000 
0.000000 10.000000 10.000000 
0.000000 10.000000 12.000000 
0.000000 10.000000 14.000000 
0.000000 10.000000 16.000000 
0.000000 10.000000 18.000000 
0.000000 10.000000 20.000000 
0.000000 10.000000 22.000000 
0.000000 10.000000 24.000000 
0.000000 10.000000 26.000000 
0.000000 10.000000 28.000000 
0.000000 10.000000 30.000000 
0.000000 10.000000 32.000000 
0.000000 10.000000 34.000000 
0.000000 10.000000 36.000000 
0.000000 10.000000 38.000000 
0.000000 10.000000 40.000000 
0.000000 10.000000 42.000000 
0.000000 10.000000 44.000000 
0.000000 10.000000 46.000000 
0.000000 10.000000 48.000000 
0.000000 10.000000 50.000000 
0.000000 10.000000 52.000000 
0.000000 10.000000 54.000000 
0.000000 10.000000 56.000000 
0.000000 10.000000 58.000000 
0.000000 10.000000 60.000000 
0.000000 10.000000 62.000000 
0.000000 10.000000 64.000000 
0.000000 10.000000 66.000000 
0.000000 10.000000 68.000000 
0.000000 10.000000 70.000000 
0.000000 10.000000 72.000000 
0.000000 10.000000 74.000000 
0.000000 10.000000 76.000000 
0.000000 10.000000 78.000000 
0.000000 10.000000 80.000000 
0.000000 10.000000 82.000000 
0.000000 10.000000 84.000000 
0.000000 10.000000 86.000000 
0.000000 10.000000 88.000000 
0.000000 10.000000 90.000000 
0.000000 10.000000 92.000000 
0.000000 10.000000 94.000000 
0.000000 10.000000 96.000000 
0.000000 10.000000 98.000000 
0.000000 10.000000 100.000000 
0.000000 12.000000 0.000000 
0.000000 12.000000 2.000000 
0.000000 12.000000 4.000000 
0.000000 12.000000 6.000000 
0.000000 12.000000 8.000000 
0.000000 12.000000 10.000000 
0.000000 12.000000 12.000000 
0.000000 12.000000 14.000000 
0.000000 12.000000 16.000000 
0.000000 12.000000 18.000000 
0.000000 12.000000 20.000000 
0.000000 12.000000 22.000000 
0.000000 12.000000 24.000000 
0.000000 12.000000 26.000000 
0.000000 12.000000 28.000000 
0.000000 12.000000 30.000000 
0.000000 12.000000 32.000000 
0.000000 12.000000 34.000000 
0.000000 12.000000 36.000000 
0.000000 12.000000 38.000000 
0.000000 12.000000 40.000000 
0.000000 12.000000 42.000000 
0.000000 12.000000 44.000000 
0.000000 12.000000 46.000000 
0.000000 12.000000 48.000000 
0.000000 12.000000 50.000000 
0.000000 12.000000 52.000000 
0.000000 12.000000 54.000000 
0.000000 12.000000 56.000000 
0.000000 12.000000 58.000000 
0.000000 12.000000 60.000000 
0.000000 12.000000 62.000000 
0.000000 12.000000 64.000000 
0.000000 12.000000 66.000000 
0.000000 12.000000 68.000000 
0.000000 12.000000 70.000000 
0.000000 12.000000 72.000000 
0.000000 12.000000 74.000000 
0.000000 12.000000 76.000000 
0.000000 12.000000 78.000000 
0.000000 12.000000 80.000000 
0.000000 12.000000 82.000000 
0.000000 12.000000 84.000000 
0.000000 12.000000 86.000000 
0.000000 12.000000 88.000000 
0.000000 12.000000 90.000000 
0.000000 12.000000 92.000000 
0.000000 12.000000 94.000000 
0.000000 12.000000 96.000000 
0.000000 12.000000 98.000000 
0.000000 12.000000 100.000000 
0.000000 14.000000 0.000000 
0.000000 14.000000 2.000000 
0.000000 14.000000 4.000000 
0.000000 14.000000 6.000000 
0.000000 14.000000 8.000000 
0.000000 14.000000 10.000000 
0.000000 14.000000 12.000000 
0.000000 14.000000 14.000000 
0.000000 14.000000 16.000000 
0.000000 14.000000 18.000000 
0.000000 14.000000 20.000000 
0.000000 14.000000 22.000000 
0.000000 14.000000 24.000000 
0.000000 14.000000 26.000000 
0.000000 14.000000 28.000000 
0.000000 14.000000 30.000000 
0.000000 14.000000 32.000000 
0.000000 14.000000 34.000000 
0.000000 14.000000 36.000000 
0.000000 14.000000 38.000000 
0.000000 14.000000 40.000000 
0.000000 14.000000 42.000000 
0.000000 14.000000 44.000000 
0.000000 14.000000 46.000000 
0.000000 14.000000 48.000000 
0.000000 14.000000 50.000000 
0.000000 14.000000 52.000000 
0.000000 14.000000 54.000000 
0.000000 14.000000 56.000000 
0.000000 14.000000 58.000000 
0.000000 14.000000 60.000000 
0.000000 14.000000 62.000000 
0.000000 14.000000 64.000000 
0.000000 14.000000 66.000000 
0.000000 14.000000 68.000000 
0.000000 14.000000 70.000000 
0.000000 14.000000 72.000000 
0.000000 14.000000 74.000000 
0.000000 14.000000 76.000000 
0.000000 14.000000 78.000000 
0.000000 14.000000 80.000000 
0.000000 14.000000 82.000000 
0.000000 14.000000 84.000000 
0.000000 14.000000 86.000000 
0.000000 14.000000 88.000000 
0.000000 14.000000 90.000000 
0.000000 14.000000 92.000000 
0.000000 14.000000 94.000000 
0.000000 14.000000 96.000000 
0.000000 14.000000 98.000000 
0.000000 14.000000 100.000000 
0.000000 16.000000 0.000000 
0.000000 16.000000 2.000000 
0.000000 16.000000 4.000000 
0.000000 16.000000 6.000000 
0.000000 16.000000 8.000000 
0.000000 16.000000 10.000000 
0.000000 16.000000 12.000000 
0.000000 16.000000 14.000000 
0.000000 16.000000 16.000000 
0.000000 16.000000 18.000000 
0.000000 16.000000 20.000000 
0.000000 16.000000 22.000000 
0.000000 16.000000 24.000000 
0.000000 16.000000 26.000000 
0.000000 16.000000 28.000000 
0.000000 16.000000 30.000000 
0.000000 16.000000 32.000000 
0.000000 16.000000 34.000000 
0.000000 16.000000 36.000000 
0.000000 16.000000 38.000000 
0.000000 16.000000 40.000000 
0.000000 16.000000 42.000000 
0.000000 16.000000 44.000000 
0.000000 16.000000 46.000000 
0.000000 16.000000 48.000000 
0.000000 16.000000 50.000000 
0.000000 16.000000 52.000000 
0.000000 16.000000 54.000000 
0.000000 16.000000 56.000000 
0.000000 16.000000 58.000000 
0.000000 16.000000 60.000000 
0.000000 16.000000 62.000000 
0.000000 16.000000 64.000000 
0.000000 16.000000 66.000000 
0.000000 16.000000 68.000000 
0.000000 16.000000 70.000000 
0.000000 16.000000 72.000000 
0.000000 16.000000 74.000000 
0.000000 16.000000 76.000000 
0.000000 16.000000 78.000000 
0.000000 16.000000 80.000000 
0.000000 16.000000 82.000000 
0.000000 16.000000 84.000000 
0.000000 16.000000 86.000000 
0.000000 16.000000 88.000000 
0.000000 16.000000 90.000000 
0.000000 16.000000 92.000000 
0.000000 16.000000 94.000000 
0.000000 16.000000 96.000000 
0.000000 16.000000 98.000000 
0.000000 16.000000 100.000000 
0.000000 18.000000 0.000000 
0.000000 18.000000 2.000000 
0.000000 18.000000 4.000000 
0.000000 18.000000 6.000000 
0.000000 18.000000 8.000000 
0.000000 18.000000 10.000000 
0.000000 18.000000 12.000000 
0.000000 18.000000 14.000000 
0.000000 18.000000 16.000000 
0.000000 18.000000 18.000000 
0.000000 18.000000 20.000000 
0.000000 18.000000 22.000000 
0.000000 18.000000 24.000000 
0.000000 18.000000 26.000000 
0.000000 18.000000 28.000000 
0.000000 18.000000 30.000000 
0.000000 18.000000 32.000000 
0.000000 18.000000 34.000000 
0.000000 18.000000 36.000000 
0.000000 18.000000 38.000000 
0.000000 18.000000 40.000000 
0.000000 18.000000 42.000000 
0.000000 18.000000 44.000000 
0.000000 18.000000 46.000000 
0.000000 18.000000 48.000000 
0.000000 18.000000 50.000000 
0.000000 18.000000 52.000000 
0.000000 18.000000 54.000000 
0.000000 18.000000 56.000000 
0.000000 18.000000 58.000000 
0.000000 18.000000 60.000000 
0.000000 18.000000 62.000000 
0.000000 18.000000 64.000000 
0.000000 18.000000 66.000000 
0.000000 18.000000 68.000000 
0.000000 18.000000 70.000000 
0.000000 18.000000 72.000000 
0.000000 18.000000 74.000000 
0.000000 18.000000 76.000000 
0.000000 18.000000 78.000000 
0.000000 18.000000 80.000000 
0.000000 18.000000 82.000000 
0.000000 18.000000 84.000000 
0.000000 18.000000 86.000000 
0.000000 18.000000 88.000000 
0.000000 18.000000 90.000000 
0.000000 18.000000 92.000000 
0.000000 18.000000 94.000000 
0.000000 18.000000 96.000000 
0.000000 18.000000 98.000000 
0.000000 18.000000 100.000000 
0.000000 20.000000 0.000000 
0.000000 20.000000 2.000000 
0.000000 20.000000 4.000000 
0.000000 20.000000 6.000000 
0.000000 20.000000 8.000000 
0.000000 20.000000 10.000000 
0.000000 20.000000 12.000000 
0.000000 20.000000 14.000000 
0.000000 20.000000 16.000000 
0.000000 20.000000 18.000000 
0.000000 20.000000 20.000000 
0.000000 20.000000 22.000000 
0.000000 20.000000 24.000000 
0.000000 20.000000 26.000000 
0.000000 20.000000 28.000000 
0.000000 20.000000 30.000000 
0.000000 20.000000 32.000000 
0.000000 20.000000 34.000000 
0.000000 20.000000 36.000000 
0.000000 20.000000 38.000000 
0.000000 20.000000 40.000000 
0.000000 20.000000 42.000000 
0.000000 20.000000 44.000000 
0.000000 20.000000 46.000000 
0.000000 20.000000 48.000000 
0.000000 20.000000 50.000000 
0.000000 20.000000 52.000000 
0.000000 20.000000 54.000000 
0.000000 20.000000 56.000000 
0.000000 20.000000 58.000000 
0.000000 20.000000 60.000000 
0.000000 20.000000 62.000000 
0.000000 20.000000 64.000000 
0.000000 20.000000 66.000000 
0.000000 20.000000 68.000000 
0.000000 20.000000 70.000000 
0.000000 20.000000 72.000000 
0.000000 20.000000 74.000000 
0.000000 20.000000 76.000000 
0.000000 20.000000 78.000000 
0.000000 20.000000 80.000000 
0.000000 20.000000 82.000000 
0.000000 20.000000 84.000000 
0.000000 20.000000 86.000000 
0.000000 20.000000 88.000000 
0.000000 20.000000 90.000000 
0.000000 20.000000 92.000000 
0.000000 20.000000 94.000000 
0.000000 20.000000 96.000000 
0.000000 20.000000 98.000000 
0.000000 20.000000 100.000000 
0.000000 22.000000 0.000000 
0.000000 22.000000 2.000000 
0.000000 22.000000 4.000000 
0.000000 22.000000 6.000000 
0.000000 22.000000 8.000000 
0.000000 22.000000 10.000000 
0.000000 22.000000 12.000000 
0.000000 22.000000 14.000000 
0.000000 22.000000 16.000000 
0.000000 22.000000 18.000000 
0.000000 22.000000 20.000000 
0.000000 22.000000 22.000000 
0.000000 22.000000 24.000000 
0.000000 22.000000 26.000000 
0.000000 22.000000 28.000000 
0.000000 22.000000 30.000000 
0.000000 22.000000 32.000000 
0.000000 22.000000 34.000000 
0.000000 22.000000 36.000000 
0.000000 22.000000 38.000000 
0.000000 22.000000 40.000000 
0.000000 22.000000 42.000000 
0.000000 22.000000 44.000000 
0.000000 22.000000 46.000000 
0.000000 22.000000 48.000000 
0.000000 22.000000 50.000000 
0.000000 22.000000 52.000000 
0.000000 22.000000 54.000000 
0.000000 22.000000 56.000000 
0.000000 22.000000 58.000000 
0.000000 22.000000 60.000000 
0.000000 22.000000 62.000000 
0.000000 22.000000 64.000000 
0.000000 22.000000 66.000000 
0.000000 22.000000 68.000000 
0.000000 22.000000 70.000000 
0.000000 22.000000 72.000000 
0.000000 22.000000 74.000000 
0.000000 22.000000 76.000000 
0.000000 22.000000 78.000000 
0.000000 22.000000 80.000000 
0.000000 22.000000 82.000000 
0.000000 22.000000 84.000000 
0.000000 22.000000 86.000000 
0.000000 22.000000 88.000000 
0.000000 22.000000 90.000000 
0.000000 22.000000 92.000000 
0.000000 22.000000 94.000000 
0.000000 22.000000 96.000000 
0.000000 22.000000 98.000000 
0.000000 22.000000 100.000000 
0.000000 24.000000 0.000000 
0.000000 24.000000 2.000000 
0.000000 24.000000 4.000000 
0.000000 24.000000 6.000000 
0.000000 24.000000 8.000000 
0.000000 24.000000 10.000000 
0.000000 24.000000 12.000000 
0.000000 24.000000 14.000000 
0.000000 24.000000 16.000000 
0.000000 24.000000 18.000000 
0.000000 24.000000 20.000000 
0.000000 24.000000 22.000000 
0.000000 24.000000 24.000000 
0.000000 24.000000 26.000000 
0.000000 24.000000 28.000000 
0.000000 24.000000 30.000000 
0.000000 24.000000 32.000000 
0.000000 24.000000 34.000000 
0.000000 24.000000 36.000000 
0.000000 24.000000 38.000000 
0.000000 24.000000 40.000000 
0.000000 24.000000 42.000000 
0.000000 24.000000 44.000000 
0.000000 24.000000 46.000000 
0.000000 24.000000 48.000000 
0.000000 24.000000 50.000000 
0.000000 24.000000 52.000000 
0.000000 24.000000 54.000000 
0.000000 24.000000 56.000000 
0.000000 24.000000 58.000000 
0.000000 24.000000 60.000000 
0.000000 24.000000 62.000000 
0.000000 24.000000 64.000000 
0.000000 24.000000 66.000000 
0.000000 24.000000 68.000000 
0.000000 24.000000 70.000000 
0.000000 24.000000 72.000000 
0.000000 24.000000 74.000000 
0.000000 24.000000 76.000000 
0.000000 24.000000 78.000000 
0.000000 24.000000 80.000000 
0.000000 24.000000 82.000000 
0.000000 24.000000 84.000000 
0.000000 24.000000 86.000000 
0.000000 24.000000 88.000000 
0.000000 24.000000 90.000000 
0.000000 24.000000 92.000000 
0.000000 24.000000 94.000000 
0.000000 24.000000 96.000000 
0.000000 24.000000 98.000000 
0.000000 24.000000 100.000000 
0.000000 26.000000 0.000000 
0.000000 26.000000 2.000000 
0.000000 26.000000 4.000000 
0.000000 26.000000 6.000000 
0.000000 26.000000 8.000000 
0.000000 26.000000 10.000000 
0.000000 26.000000 12.000000 
0.000000 26.000000 14.000000 
0.000000 26.000000 16.000000 
0.000000 26.000000 18.000000 
0.000000 26.000000 20.000000 
0.000000 26.000000 22.000000 
0.000000 26.000000 24.000000 
0.000000 26.000000 26.000000 
0.000000 26.000000 28.000000 
0.000000 26.000000 30.000000 
0.000000 26.000000 32.000000 
0.000000 26.000000 34.000000 
0.000000 26.000000 36.000000 
0.000000 26.000000 38.000000 
0.000000 26.000000 40.000000 
0.000000 26.000000 42.000000 
0.000000 26.000000 44.000000 
0.000000 26.000000 46.000000 
0.000000 26.000000 48.000000 
0.000000 26.000000 50.000000 
0.000000 26.000000 52.000000 
0.000000 26.000000 54.000000 
0.000000 26.000000 56.000000 
0.000000 26.000000 58.000000 
0.000000 26.000000 60.000000 
0.000000 26.000000 62.000000 
0.000000 26.000000 64.000000 
0.000000 26.000000 66.000000 
0.000000 26.000000 68.000000 
0.000000 26.000000 70.000000 
0.000000 26.000000 72.000000 
0.000000 26.000000 74.000000 
0.000000 26.000000 76.000000 
0.000000 26.000000 78.000000 
0.000000 26.000000 80.000000 
0.000000 26.000000 82.000000 
0.000000 26.000000 84.000000 
0.000000 26.000000 86.000000 
0.000000 26.000000 88.000000 
0.000000 26.000000 90.000000 
0.000000 26.000000 92.000000 
0.000000 26.000000 94.000000 
0.000000 26.000000 96.000000 
0.000000 26.000000 98.000000 
0.000000 26.000000 100.000000 
0.000000 28.000000 0.000000 
0.000000 28.000000 2.000000 
0.000000 28.000000 4.000000 
0.000000 28.000000 6.000000 
0.000000 28.000000 8.000000 
0.000000 28.000000 10.000000 
0.000000 28.000000 12.000000 
0.000000 28.000000 14.000000 
0.000000 28.000000 16.000000 
0.000000 28.000000 18.000000 
0.000000 28.000000 20.000000 
0.000000 28.000000 22.000000 
0.000000 28.000000 24.000000 
0.000000 28.000000 26.000000 
0.000000 28.000000 28.000000 
0.000000 28.000000 30.000000 
0.000000 28.000000 32.000000 
0.000000 28.000000 34.000000 
0.000000 28.000000 36.000000 
0.000000 28.000000 38.000000 
0.000000 28.000000 40.000000 
0.000000 28.000000 42.000000 
0.000000 28.000000 44.000000 
0.000000 28.000000 46.000000 
0.000000 28.000000 48.000000 
0.000000 28.000000 50.000000 
0.000000 28.000000 52.000000 
0.000000 28.000000 54.000000 
0.000000 28.000000 56.000000 
0.000000 28.000000 58.000000 
0.000000 28.000000 60.000000 
0.000000 28.000000 62.000000 
0.000000 28.000000 64.000000 
0.000000 28.000000 66.000000 
0.000000 28.000000 68.000000 
0.000000 28.000000 70.000000 
0.000000 28.000000 72.000000 
0.000000 28.000000 74.000000 
0.000000 28.000000 76.000000 
0.000000 28.000000 78.000000 
0.000000 28.000000 80.000000 
0.000000 28.000000 82.000000 
0.000000 28.000000 84.000000 
0.000000 28.000000 86.000000 
0.000000 28.000000 88.000000 
0.000000 28.000000 90.000000 
0.000000 28.000000 92.000000 
0.000000 28.000000 94.000000 
0.000000 28.000000 96.000000 
0.000000 28.000000 98.000000 
0.000000 28.000000 100.000000 
0.000000 30.000000 0.000000 
0.000000 30.000000 2.000000 
0.000000 30.000000 4.000000 
0.000000 30.000000 6.000000 
0.000000 30.000000 8.000000 
0.000000 30.000000 10.000000 
0.000000 30.000000 12.000000 
0.000000 30.000000 14.000000 
0.000000 30.000000 16.000000 
0.000000 30.000000 18.000000 
0.000000 30.000000 20.000000 
0.000000 30.000000 22.000000 
0.000000 30.000000 24.000000 
0.000000 30.000000 26.000000 
0.000000 30.000000 28.000000 
0.000000 30.000000 30.000000 
0.000000 30.000000 32.000000 
0.000000 30.000000 34.000000 
0.000000 30.000000 36.000000 
0.000000 30.000000 38.000000 
0.000000 30.000000 40.000000 
0.000000 30.000000 42.000000 
0.000000 30.000000 44.000000 
0.000000 30.000000 46.000000 
0.000000 30.000000 48.000000 
0.000000 30.000000 50.000000 
0.000000 30.000000 52.000000 
0.000000 30.000000 54.000000 
0.000000 30.000000 56.000000 
0.000000 30.000000 58.000000 
0.000000 30.000000 60.000000 
0.000000 30.000000 62.000000 
0.000000 30.000000 64.000000 
0.000000 30.000000 66.000000 
0.000000 30.000000 68.000000 
0.000000 30.000000 70.000000 
0.000000 30.000000 72.000000 
0.000000 30.000000 74.000000 
0.000000 30.000000 76.000000 
0.000000 30.000000 78.000000 
0.000000 30.000000 80.000000 
0.000000 30.000000 82.000000 
0.000000 30.000000 84.000000 
0.000000 30.000000 86.000000 
0.000000 30.000000 88.000000 
0.000000 30.000000 90.000000 
0.000000 30.000000 92.000000 
0.000000 30.000000 94.000000 
0.000000 30.000000 96.000000 
0.000000 30.000000 98.000000 
0.000000 30.000000 100.000000 
0.000000 32.000000 0.000000 
0.000000 32.000000 2.000000 
0.000000 32.000000 4.000000 
0.000000 32.000000 6.000000 
0.000000 32.000000 8.000000 
0.000000 32.000000 10.000000 
0.000000 32.000000 12.000000 
0.000000 32.000000 14.000000 
0.000000 32.000000 16.000000 
0.000000 32.000000 18.000000 
0.000000 32.000000 20.000000 
0.000000 32.000000 22.000000 
0.000000 32.000000 24.000000 
0.000000 32.000000 26.000000 
0.000000 32.000000 28.000000 
0.000000 32.000000 30.000000 
0.000000 32.000000 32.000000 
0.000000 32.000000 34.000000 
0.000000 32.000000 36.000000 
0.000000 32.000000 38.000000 
0.000000 32.000000 40.000000 
0.000000 32.000000 42.000000 
0.000000 32.000000 44.000000 
0.000000 32.000000 46.000000 
0.000000 32.000000 48.000000 
0.000000 32.000000 50.000000 
0.000000 32.000000 52.000000 
0.000000 32.000000 54.000000 
0.000000 32.000000 56.000000 
0.000000 32.000000 58.000000 
0.000000 32.000000 60.000000 
0.000000 32.000000 62.000000 
0.000000 32.000000 64.000000 
0.000000 32.000000 66.000000 
0.000000 32.000000 68.000000 
0.000000 32.000000 70.000000 
0.000000 32.000000 72.000000 
0.000000 32.000000 74.000000 
0.000000 32.000000 76.000000 
0.000000 32.000000 78.000000 
0.000000 32.000000 80.000000 
0.000000 32.000000 82.000000 
0.000000 32.000000 84.000000 
0.000000 32.000000 86.000000 
0.000000 32.000000 88.000000 
0.000000 32.000000 90.000000 
0.000000 32.000000 92.000000 
0.000000 32.000000 94.000000 
0.000000 32.000000 96.000000 
0.000000 32.000000 98.000000 
0.000000 32.000000 100.000000 
0.000000 34.000000 0.000000 
0.000000 34.000000 2.000000 
0.000000 34.000000 4.000000 
0.000000 34.000000 6.000000 
0.000000 34.000000 8.000000 
0.000000 34.000000 10.000000 
0.000000 34.000000 12.000000 
0.000000 34.000000 14.000000 
0.000000 34.000000 16.000000 
0.000000 34.000000 18.000000 
0.000000 34.000000 20.000000 
0.000000 34.000000 22.000000 
0.000000 34.000000 24.000000 
0.000000 34.000000 26.000000 
0.000000 34.000000 28.000000 
0.000000 34.000000 30.000000 
0.000000 34.000000 32.000000 
0.000000 34.000000 34.000000 
0.000000 34.000000 36.000000 
0.000000 34.000000 38.000000 
0.000000 34.000000 40.000000 
0.000000 34.000000 42.000000 
0.000000 34.000000 44.000000 
0.000000 34.000000 46.000000 
0.000000 34.000000 48.000000 
0.000000 34.000000 50.000000 
0.000000 34.000000 52.000000 
0.000000 34.000000 54.000000 
0.000000 34.000000 56.000000 
0.000000 34.000000 58.000000 
0.000000 34.000000 60.000000 
0.000000 34.000000 62.000000 
0.000000 34.000000 64.000000 
0.000000 34.000000 66.000000 
0.000000 34.000000 68.000000 
0.000000 34.000000 70.000000 
0.000000 34.000000 72.000000 
0.000000 34.000000 74.000000 
0.000000 34.000000 76.000000 
0.000000 34.000000 78.000000 
0.000000 34.000000 80.000000 
0.000000 34.000000 82.000000 
0.000000 34.000000 84.000000 
0.000000 34.000000 86.000000 
0.000000 34.000000 88.000000 
0.000000 34.000000 90.000000 
0.000000 34.000000 92.000000 
0.000000 34.000000 94.000000 
0.000000 34.000000 96.000000 
0.000000 34.000000 98.000000 
0.000000 34.000000 100.000000 
0.000000 36.000000 0.000000 
0.000000 36.000000 2.000000 
0.000000 36.000000 4.000000 
0.000000 36.000000 6.000000 
0.000000 36.000000 8.000000 
0.000000 36.000000 10.000000 
0.000000 36.000000 12.000000 
0.000000 36.000000 14.000000 
0.000000 36.000000 16.000000 
0.000000 36.000000 18.000000 
0.000000 36.000000 20.000000 
0.000000 36.000000 22.000000 
0.000000 36.000000 24.000000 
0.000000 36.000000 26.000000 
0.000000 36.000000 28.000000 
0.000000 36.000000 30.000000 
0.000000 36.000000 32.000000 
0.000000 36.000000 34.000000 
0.000000 36.000000 36.000000 
0.000000 36.000000 38.000000 
0.000000 36.000000 40.000000 
0.000000 36.000000 42.000000 
0.000000 36.000000 44.000000 
0.000000 36.000000 46.000000 
0.000000 36.000000 48.000000 
0.000000 36.000000 50.000000 
0.000000 36.000000 52.000000 
0.000000 36.000000 54.000000 
0.000000 36.000000 56.000000 
0.000000 36.000000 58.000000 
0.000000 36.000000 60.000000 
0.000000 36.000000 62.000000 
0.000000 36.000000 64.000000 
0.000000 36.000000 66.000000 
0.000000 36.000000 68.000000 
0.000000 36.000000 70.000000 
0.000000 36.000000 72.000000 
0.000000 36.000000 74.000000 
0.000000 36.000000 76.000000 
0.000000 36.000000 78.000000 
0.000000 36.000000 80.000000 
0.000000 36.000000 82.000000 
0.000000 36.000000 84.000000 
0.000000 36.000000 86.000000 
0.000000 36.000000 88.000000 
0.000000 36.000000 90.000000 
0.000000 36.000000 92.000000 
0.000000 36.000000 94.000000 
0.000000 36.000000 96.000000 
0.000000 36.000000 98.000000 
0.000000 36.000000 100.000000 
0.000000 38.000000 0.000000 
0.000000 38.000000 2.000000 
0.000000 38.000000 4.000000 
0.000000 38.000000 6.000000 
0.000000 38.000000 8.000000 
0.000000 38.000000 10.000000 
0.000000 38.000000 12.000000 
0.000000 38.000000 14.000000 
0.000000 38.000000 16.000000 
0.000000 38.000000 18.000000 
0.000000 38.000000 20.000000 
0.000000 38.000000 22.000000 
0.000000 38.000000 24.000000 
0.000000 38.000000 26.000000 
0.000000 38.000000 28.000000 
0.000000 38.000000 30.000000 
0.000000 38.000000 32.000000 
0.000000 38.000000 34.000000 
0.000000 38.000000 36.000000 
0.000000 38.000000 38.000000 
0.000000 38.000000 40.000000 
0.000000 38.000000 42.000000 
0.000000 38.000000 44.000000 
0.000000 38.000000 46.000000 
0.000000 38.000000 48.000000 
0.000000 38.000000 50.000000 
0.000000 38.000000 52.000000 
0.000000 38.000000 54.000000 
0.000000 38.000000 56.000000 
0.000000 38.000000 58.000000 
0.000000 38.000000 60.000000 
0.000000 38.000000 62.000000 
0.000000 38.000000 64.000000 
0.000000 38.000000 66.000000 
0.000000 38.000000 68.000000 
0.000000 38.000000 70.000000 
0.000000 38.000000 72.000000 
0.000000 38.000000 74.000000 
0.000000 38.000000 76.000000 
0.000000 38.000000 78.000000 
0.000000 38.000000 80.000000 
0.000000 38.000000 82.000000 
0.000000 38.000000 84.000000 
0.000000 38.000000 86.000000 
0.000000 38.000000 88.000000 
0.000000 38.000000 90.000000 
0.000000 38.000000 92.000000 
0.000000 38.000000 94.000000 
0.000000 38.000000 96.000000 
0.000000 38.000000 98.000000 
0.000000 38.000000 100.000000 
0.000000 40.000000 0.000000 
0.000000 40.000000 2.000000 
0.000000 40.000000 4.000000 
0.000000 40.000000 6.000000 
0.000000 40.000000 8.000000 
0.000000 40.000000 10.000000 
0.000000 40.000000 12.000000 
0.000000 40.000000 14.000000 
0.000000 40.000000 16.000000 
0.000000 40.000000 18.000000 
0.000000 40.000000 20.000000 
0.000000 40.000000 22.000000 
0.000000 40.000000 24.000000 
0.000000 40.000000 26.000000 
0.000000 40.000000 28.000000 
0.000000 40.000000 30.000000 
0.000000 40.000000 32.000000 
0.000000 40.000000 34.000000 
0.000000 40.000000 36.000000 
0.000000 40.000000 38.000000 
0.000000 40.000000 40.000000 
0.000000 40.000000 42.000000 
0.000000 40.000000 44.000000 
0.000000 40.000000 46.000000 
0.000000 40.000000 48.000000 
0.000000 40.000000 50.000000 
0.000000 40.000000 52.000000 
0.000000 40.000000 54.000000 
0.000000 40.000000 56.000000 
0.000000 40.000000 58.000000 
0.000000 40.000000 60.000000 
0.000000 40.000000 62.000000 
0.000000 40.000000 64.000000 
0.000000 40.000000 66.000000 
0.000000 40.000000 68.000000 
0.000000 40.000000 70.000000 
0.000000 40.000000 72.000000 
0.000000 40.000000 74.000000 
0.000000 40.000000 76.000000 
0.000000 40.000000 78.000000 
0.000000 40.000000 80.000000 
0.000000 40.000000 82.000000 
0.000000 40.000000 84.000000 
0.000000 40.000000 86.000000 
0.000000 40.000000 88.000000 
0.000000 40.000000 90.000000 
0.000000 40.000000 92.000000 
0.000000 40.000000 94.000000 
0.000000 40.000000 96.000000 
0.000000 40.000000 98.000000 
0.000000 40.000000 100.000000 
0.000000 42.000000 0.000000 
0.000000 42.000000 2.000000 
0.000000 42.000000 4.000000 
0.000000 42.000000 6.000000 
0.000000 42.000000 8.000000 
0.000000 42.000000 10.000000 
0.000000 42.000000 12.000000 
0.000000 42.000000 14.000000 
0.000000 42.000000 16.000000 
0.000000 42.000000 18.000000 
0.000000 42.000000 20.000000 
0.000000 42.000000 22.000000 
0.000000 42.000000 24.000000 
0.000000 42.000000 26.000000 
0.000000 42.000000 28.000000 
0.000000 42.000000 30.000000 
0.000000 42.000000 32.000000 
0.000000 42.000000 34.000000 
0.000000 42.000000 36.000000 
0.000000 42.000000 38.000000 
0.000000 42.000000 40.000000 
0.000000 44.000000 0.000000 
0.000000 44.000000 2.000000 
0.000000 44.000000 4.000000 
0.000000 44.000000 6.000000 
0.000000 44.000000 8.000000 
0.000000 44.000000 10.000000 
0.000000 44.000000 12.000000 
0.000000 44.000000 14.000000 
0.000000 44.000000 16.000000 
0.000000 44.000000 18.000000 
0.000000 44.000000 20.000000 
0.000000 44.000000 22.000000 
0.000000 44.000000 24.000000 
0.000000 44.000000 26.000000 
0.000000 44.000000 28.000000 
0.000000 44.000000 30.000000 
0.000000 44.000000 32.000000 
0.000000 44.000000 34.000000 
0.000000 44.000000 36.000000 
0.000000 44.000000 38.000000 
0.000000 44.000000 40.000000 
0.000000 46.000000 0.000000 
0.000000 46.000000 2.000000 
0.000000 46.000000 4.000000 
0.000000 46.000000 6.000000 
0.000000 46.000000 8.000000 
0.000000 46.000000 10.000000 
0.000000 46.000000 12.000000 
0.000000 46.000000 14.000000 
0.000000 46.000000 16.000000 
0.000000 46.000000 18.000000 
0.000000 46.000000 20.000000 
0.000000 46.000000 22.000000 
0.000000 46.000000 24.000000 
0.000000 46.000000 26.000000 
0.000000 46.000000 28.000000 
0.000000 46.000000 30.000000 
0.000000 46.000000 32.000000 
0.000000 46.000000 34.000000 
0.000000 46.000000 36.000000 
0.000000 46.000000 38.000000 
0.000000 46.000000 40.000000 
0.000000 48.000000 0.000000 
0.000000 48.000000 2.000000 
0.000000 48.000000 4.000000 
0.000000 48.000000 6.000000 
0.000000 48.000000 8.000000 
0.000000 48.000000 10.000000 
0.000000 48.000000 12.000000 
0.000000 48.000000 14.000000 
0.000000 48.000000 16.000000 
0.000000 48.000000 18.000000 
0.000000 48.000000 20.000000 
0.000000 48.000000 22.000000 
0.000000 48.000000 24.000000 
0.000000 48.000000 26.000000 
0.000000 48.000000 28.000000 
0.000000 48.000000 30.000000 
0.000000 48.000000 32.000000 
0.000000 48.000000 34.000000 
0.000000 48.000000 36.000000 
0.000000 48.000000 38.000000 
0.000000 48.000000 40.000000 
0.000000 50.000000 0.000000 
0.000000 50.000000 2.000000 
0.000000 50.000000 4.000000 
0.000000 50.000000 6.000000 
0.000000 50.000000 8.000000 
0.000000 50.000000 10.000000 
0.000000 50.000000 12.000000 
0.000000 50.000000 14.000000 
0.000000 50.000000 16.000000 
0.000000 50.000000 18.000000 
0.000000 50.000000 20.000000 
0.000000 50.000000 22.000000 
0.000000 50.000000 24.000000 
0.000000 50.000000 26.000000 
0.000000 50.000000 28.000000 
0.000000 50.000000 30.000000 
0.000000 50.000000 32.000000 
0.000000 50.000000 34.000000 
0.000000 50.000000 36.000000 
0.000000 50.000000 38.000000 
0.000000 50.000000 40.000000 
0.000000 52.000000 0.000000 
0.000000 52.000000 2.000000 
0.000000 52.000000 4.000000 
0.000000 52.000000 6.000000 
0.000000 52.000000 8.000000 
0.000000 52.000000 10.000000 
0.000000 52.000000 12.000000 
0.000000 52.000000 14.000000 
0.000000 52.000000 16.000000 
0.000000 52.000000 18.000000 
0.000000 52.000000 20.000000 
0.000000 52.000000 22.000000 
0.000000 52.000000 24.000000 
0.000000 52.000000 26.000000 
0.000000 52.000000 28.000000 
0.000000 52.000000 30.000000 
0.000000 52.000000 32.000000 
0.000000 52.000000 34.000000 
0.000000 52.000000 36.000000 
0.000000 52.000000 38.000000 
0.000000 52.000000 40.000000 
0.000000 54.000000 0.000000 
0.000000 54.000000 2.000000 
0.000000 54.000000 4.000000 
0.000000 54.000000 6.000000 
0.000000 54.000000 8.000000 
0.000000 54.000000 10.000000 
0.000000 54.000000 12.000000 
0.000000 54.000000 14.000000 
0.000000 54.000000 16.000000 
0.000000 54.000000 18.000000 
0.000000 54.000000 20.000000 
0.000000 54.000000 22.000000 
0.000000 54.000000 24.000000 
0.000000 54.000000 26.000000 
0.000000 54.000000 28.000000 
0.000000 54.000000 30.000000 
0.000000 54.000000 32.000000 
0.000000 54.000000 34.000000 
0.000000 54.000000 36.000000 
0.000000 54.000000 38.000000 
0.000000 54.000000 40.000000 
0.000000 56.000000 0.000000 
0.000000 56.000000 2.000000 
0.000000 56.000000 4.000000 
0.000000 56.000000 6.000000 
0.000000 56.000000 8.000000 
0.000000 56.000000 10.000000 
0.000000 56.000000 12.000000 
0.000000 56.000000 14.000000 
0.000000 56.000000 16.000000 
0.000000 56.000000 18.000000 
0.000000 56.000000 20.000000 
0.000000 56.000000 22.000000 
0.000000 56.000000 24.000000 
0.000000 56.000000 26.000000 
0.000000 56.000000 28.000000 
0.000000 56.000000 30.000000 
0.000000 56.000000 32.000000 
0.000000 56.000000 34.000000 
0.000000 56.000000 36.000000 
0.000000 56.000000 38.000000 
0.000000 56.000000 40.000000 
0.000000 58.000000 0.000000 
0.000000 58.000000 2.000000 
0.000000 58.000000 4.000000 
0.000000 58.000000 6.000000 
0.000000 58.000000 8.000000 
0.000000 58.000000 10.000000 
0.000000 58.000000 12.000000 
0.000000 58.000000 14.000000 
0.000000 58.000000 16.000000 
0.000000 58.000000 18.000000 
0.000000 58.000000 20.000000 
0.000000 58.000000 22.000000 
0.000000 58.000000 24.000000 
0.000000 58.000000 26.000000 
0.000000 58.000000 28.000000 
0.000000 58.000000 30.000000 
0.000000 58.000000 32.000000 
0.000000 58.000000 34.000000 
0.000000 58.000000 36.000000 
0.000000 58.000000 38.000000 
0.000000 58.000000 40.000000 
0.000000 60.000000 0.000000 
0.000000 60.000000 2.000000 
0.000000 60.000000 4.000000 
0.000000 60.000000 6.000000 
0.000000 60.000000 8.000000 
0.000000 60.000000 10.000000 
0.000000 60.000000 12.000000 
0.000000 60.000000 14.000000 
0.000000 60.000000 16.000000 
0.000000 60.000000 18.000000 
0.000000 60.000000 20.000000 
0.000000 60.000000 22.000000 
0.000000 60.000000 24.000000 
0.000000 60.000000 26.000000 
0.000000 60.000000 28.000000 
0.000000 60.000000 30.000000 
0.000000 60.000000 32.000000 
0.000000 60.000000 34.000000 
0.000000 60.000000 36.000000 
0.000000 60.000000 38.000000 
0.000000 60.000000 40.000000 
0.000000 62.000000 0.000000 
0.000000 62.000000 2.000000 
0.000000 62.000000 4.000000 
0.000000 62.000000 6.000000 
0.000000 62.000000 8.000000 
0.000000 62.000000 10.000000 
0.000000 62.000000 12.000000 
0.000000 62.000000 14.000000 
0.000000 62.000000 16.000000 
0.000000 62.000000 18.000000 
0.000000 62.000000 20.000000 
0.000000 62.000000 22.000000 
0.000000 62.000000 24.000000 
0.000000 62.000000 26.000000 
0.000000 62.000000 28.000000 
0.000000 62.000000 30.000000 
0.000000 62.000000 32.000000 
0.000000 62.000000 34.000000 
0.000000 62.000000 36.000000 
0.000000 62.000000 38.000000 
0.000000 62.000000 40.000000 
0.000000 64.000000 0.000000 
0.000000 64.000000 2.000000 
0.000000 64.000000 4.000000 
0.000000 64.000000 6.000000 
0.000000 64.000000 8.000000 
0.000000 64.000000 10.000000 
0.000000 64.000000 12.000000 
0.000000 64.000000 14.000000 
0.000000 64.000000 16.000000 
0.000000 64.000000 18.000000 
0.000000 64.000000 20.000000 
0.000000 64.000000 22.000000 
0.000000 64.000000 24.000000 
0.000000 64.000000 26.000000 
0.000000 64.000000 28.000000 
0.000000 64.000000 30.000000 
0.000000 64.000000 32.000000 
0.000000 64.000000 34.000000 
0.000000 64.000000 36.000000 
0.000000 64.000000 38.000000 
0.000000 64.000000 40.000000 
0.000000 66.000000 0.000000 
0.000000 66.000000 2.000000 
0.000000 66.000000 4.000000 
0.000000 66.000000 6.000000 
0.000000 66.000000 8.000000 
0.000000 66.000000 10.000000 
0.000000 66.000000 12.000000 
0.000000 66.000000 14.000000 
0.000000 66.000000 16.000000 
0.000000 66.000000 18.000000 
0.000000 66.000000 20.000000 
0.000000 66.000000 22.000000 
0.000000 66.000000 24.000000 
0.000000 66.000000 26.000000 
0.000000 66.000000 28.000000 
0.000000 66.000000 30.000000 
0.000000 66.000000 32.000000 
0.000000 66.000000 34.000000 
0.000000 66.000000 36.000000 
0.000000 66.000000 38.000000 
0.000000 66.000000 40.000000 
0.000000 68.000000 0.000000 
0.000000 68.000000 2.000000 
0.000000 68.000000 4.000000 
0.000000 68.000000 6.000000 
0.000000 68.000000 8.000000 
0.000000 68.000000 10.000000 
0.000000 68.000000 12.000000 
0.000000 68.000000 14.000000 
0.000000 68.000000 16.000000 
0.000000 68.000000 18.000000 
0.000000 68.000000 20.000000 
0.000000 68.000000 22.000000 
0.000000 68.000000 24.000000 
0.000000 68.000000 26.000000 
0.000000 68.000000 28.000000 
0.000000 68.000000 30.000000 
0.000000 68.000000 32.000000 
0.000000 68.000000 34.000000 
0.000000 68.000000 36.000000 
0.000000 68.000000 38.000000 
0.000000 68.000000 40.000000 
0.000000 70.000000 0.000000 
0.000000 70.000000 2.000000 
0.000000 70.000000 4.000000 
0.000000 70.000000 6.000000 
0.000000 70.000000 8.000000 
0.000000 70.000000 10.000000 
0.000000 70.000000 12.000000 
0.000000 70.000000 14.000000 
0.000000 70.000000 16.000000 
0.000000 70.000000 18.000000 
0.000000 70.000000 20.000000 
0.000000 70.000000 22.000000 
0.000000 70.000000 24.000000 
0.000000 70.000000 26.000000 
0.000000 70.000000 28.000000 
0.000000 70.000000 30.000000 
0.000000 70.000000 32.000000 
0.000000 70.000000 34.000000 
0.000000 70.000000 36.000000 
0.000000 70.000000 38.000000 
0.000000 70.000000 40.000000 
0.000000 72.000000 0.000000 
0.000000 72.000000 2.000000 
0.000000 72.000000 4.000000 
0.000000 72.000000 6.000000 
0.000000 72.000000 8.000000 
0.000000 72.000000 10.000000 
0.000000 72.000000 12.000000 
0.000000 72.000000 14.000000 
0.000000 72.000000 16.000000 
0.000000 72.000000 18.000000 
0.000000 72.000000 20.000000 
0.000000 72.000000 22.000000 
0.000000 72.000000 24.000000 
0.000000 72.000000 26.000000 
0.000000 72.000000 28.000000 
0.000000 72.000000 30.000000 
0.000000 72.000000 32.000000 
0.000000 72.000000 34.000000 
0.000000 72.000000 36.000000 
0.000000 72.000000 38.000000 
0.000000 72.000000 40.000000 
0.000000 74.000000 0.000000 
0.000000 74.000000 2.000000 
0.000000 74.000000 4.000000 
0.000000 74.000000 6.000000 
0.000000 74.000000 8.000000 
0.000000 74.000000 10.000000 
0.000000 74.000000 12.000000 
0.000000 74.000000 14.000000 
0.000000 74.000000 16.000000 
0.000000 74.000000 18.000000 
0.000000 74.000000 20.000000 
0.000000 74.000000 22.000000 
0.000000 74.000000 24.000000 
0.000000 74.000000 26.000000 
0.000000 74.000000 28.000000 
0.000000 74.000000 30.000000 
0.000000 74.000000 32.000000 
0.000000 74.000000 34.000000 
0.000000 74.000000 36.000000 
0.000000 74.000000 38.000000 
0.000000 74.000000 40.000000 
0.000000 76.000000 0.000000 
0.000000 76.000000 2.000000 
0.000000 76.000000 4.000000 
0.000000 76.000000 6.000000 
0.000000 76.000000 8.000000 
0.000000 76.000000 10.000000 
0.000000 76.000000 12.000000 
0.000000 76.000000 14.000000 
0.000000 76.000000 16.000000 
0.000000 76.000000 18.000000 
0.000000 76.000000 20.000000 
0.000000 76.000000 22.000000 
0.000000 76.000000 24.000000 
0.000000 76.000000 26.000000 
0.000000 76.000000 28.000000 
0.000000 76.000000 30.000000 
0.000000 76.000000 32.000000 
0.000000 76.000000 34.000000 
0.000000 76.000000 36.000000 
0.000000 76.000000 38.000000 
0.000000 76.000000 40.000000 
0.000000 78.000000 0.000000 
0.000000 78.000000 2.000000 
0.000000 78.000000 4.000000 
0.000000 78.000000 6.000000 
0.000000 78.000000 8.000000 
0.000000 78.000000 10.000000 
0.000000 78.000000 12.000000 
0.000000 78.000000 14.000000 
0.000000 78.000000 16.000000 
0.000000 78.000000 18.000000 
0.000000 78.000000 20.000000 
0.000000 78.000000 22.000000 
0.000000 78.000000 24.000000 
0.000000 78.000000 26.000000 
0.000000 78.000000 28.000000 
0.000000 78.000000 30.000000 
0.000000 78.000000 32.000000 
0.000000 78.000000 34.000000 
0.000000 78.000000 36.000000 
0.000000 78.000000 38.000000 
0.000000 78.000000 40.000000 
0.000000 80.000000 0.000000 
0.000000 80.000000 2.000000 
0.000000 80.000000 4.000000 
0.000000 80.000000 6.000000 
0.000000 80.000000 8.000000 
0.000000 80.000000 10.000000 
0.000000 80.000000 12.000000 
0.000000 80.000000 14.000000 
0.000000 80.000000 16.000000 
0.000000 80.000000 18.000000 
0.000000 80.000000 20.000000 
0.000000 80.000000 22.000000 
0.000000 80.000000 24.000000 
0.000000 80.000000 26.000000 
0.000000 80.000000 28.000000 
0.000000 80.000000 30.000000 
0.000000 80.000000 32.000000 
0.000000 80.000000 34.000000 
0.000000 80.000000 36.000000 
0.000000 80.000000 38.000000 
0.000000 80.000000 40.000000 
0.000000 82.000000 0.000000 
0.000000 82.000000 2.000000 
0.000000 82.000000 4.000000 
0.000000 82.000000 6.000000 
0.000000 82.000000 8.000000 
0.000000 82.000000 10.000000 
0.000000 82.000000 12.000000 
0.000000 82.000000 14.000000 
0.000000 82.000000 16.000000 
0.000000 82.000000 18.000000 
0.000000 82.000000 20.000000 
0.000000 82.000000 22.000000 
0.000000 82.000000 24.000000 
0.000000 82.000000 26.000000 
0.000000 82.000000 28.000000 
0.000000 82.000000 30.000000 
0.000000 82.000000 32.000000 
0.000000 82.000000 34.000000 
0.000000 82.000000 36.000000 
0.000000 82.000000 38.000000 
0.000000 82.000000 40.000000 
0.000000 84.000000 0.000000 
0.000000 84.000000 2.000000 
0.000000 84.000000 4.000000 
0.000000 84.000000 6.000000 
0.000000 84.000000 8.000000 
0.000000 84.000000 10.000000 
0.000000 84.000000 12.000000 
0.000000 84.000000 14.000000 
0.000000 84.000000 16.000000 
0.000000 84.000000 18.000000 
0.000000 84.000000 20.000000 
0.000000 84.000000 22.000000 
0.000000 84.000000 24.000000 
0.000000 84.000000 26.000000 
0.000000 84.000000 28.000000 
0.000000 84.000000 30.000000 
0.000000 84.000000 32.000000 
0.000000 84.000000 34.000000 
0.000000 84.000000 36.000000 
0.000000 84.000000 38.000000 
0.000000 84.000000 40.000000 
0.000000 86.000000 0.000000 
0.000000 86.000000 2.000000 
0.000000 86.000000 4.000000 
0.000000 86.000000 6.000000 
0.000000 86.000000 8.000000 
0.000000 86.000000 10.000000 
0.000000 86.000000 12.000000 
0.000000 86.000000 14.000000 
0.000000 86.000000 16.000000 
0.000000 86.000000 18.000000 
0.000000 86.000000 20.000000 
0.000000 86.000000 22.000000 
0.000000 86.000000 24.000000 
0.000000 86.000000 26.000000 
0.000000 86.000000 28.000000 
0.000000 86.000000 30.000000 
0.000000 86.000000 32.000000 
0.000000 86.000000 34.000000 
0.000000 86.000000 36.000000 
0.000000 86.000000 38.000000 
0.000000 86.000000 40.000000 
0.000000 88.000000 0.000000 
0.000000 88.000000 2.000000 
0.000000 88.000000 4.000000 
0.000000 88.000000 6.000000 
0.000000 88.000000 8.000000 
0.000000 88.000000 10.000000 
0.000000 88.000000 12.000000 
0.000000 88.000000 14.000000 
0.000000 88.000000 16.000000 
0.000000 88.000000 18.000000 
0.000000 88.000000 20.000000 
0.000000 88.000000 22.000000 
0.000000 88.000000 24.000000 
0.000000 88.000000 26.000000 
0.000000 88.000000 28.000000 
0.000000 88.000000 30.000000 
0.000000 88.000000 32.000000 
0.000000 88.000000 34.000000 
0.000000 88.000000 36.000000 
0.000000 88.000000 38.000000 
0.000000 88.000000 40.000000 
0.000000 90.000000 0.000000 
0.000000 90.000000 2.000000 
0.000000 90.000000 4.000000 
0.000000 90.000000 6.000000 
0.000000 90.000000 8.000000 
0.000000 90.000000 10.000000 
0.000000 90.000000 12.000000 
0.000000 90.000000 14.000000 
0.000000 90.000000 16.000000 
0.000000 90.000000 18.000000 
0.000000 90.000000 20.000000 
0.000000 90.000000 22.000000 
0.000000 90.000000 24.000000 
0.000000 90.000000 26.000000 
0.000000 90.000000 28.000000 
0.000000 90.000000 30.000000 
0.000000 90.000000 32.000000 
0.000000 90.000000 34.000000 
0.000000 90.000000 36.000000 
0.000000 90.000000 38.000000 
0.000000 90.000000 40.000000 
0.000000 92.000000 0.000000 
0.000000 92.000000 2.000000 
0.000000 92.000000 4.000000 
0.000000 92.000000 6.000000 
0.000000 92.000000 8.000000 
0.000000 92.000000 10.000000 
0.000000 92.000000 12.000000 
0.000000 92.000000 14.000000 
0.000000 92.000000 16.000000 
0.000000 92.000000 18.000000 
0.000000 92.000000 20.000000 
0.000000 92.000000 22.000000 
0.000000 92.000000 24.000000 
0.000000 92.000000 26.000000 
0.000000 92.000000 28.000000 
0.000000 92.000000 30.000000 
0.000000 92.000000 32.000000 
0.000000 92.000000 34.000000 
0.000000 92.000000 36.000000 
0.000000 92.000000 38.000000 
0.000000 92.000000 40.000000 
0.000000 94.000000 0.000000 
0.000000 94.000000 2.000000 
0.000000 94.000000 4.000000 
0.000000 94.000000 6.000000 
0.000000 94.000000 8.000000 
0.000000 94.000000 10.000000 
0.000000 94.000000 12.000000 
0.000000 94.000000 14.000000 
0.000000 94.000000 16.000000 
0.000000 94.000000 18.000000 
0.000000 94.000000 20.000000 
0.000000 94.000000 22.000000 
0.000000 94.000000 24.000000 
0.000000 94.000000 26.000000 
0.000000 94.000000 28.000000 
0.000000 94.000000 30.000000 
0.000000 94.000000 32.000000 
0.000000 94.000000 34.000000 
0.000000 94.000000 36.000000 
0.000000 94.000000 38.000000 
0.000000 94.000000 40.000000 
0.000000 96.000000 0.000000 
0.000000 96.000000 2.000000 
0.000000 96.000000 4.000000 
0.000000 96.000000 6.000000 
0.000000 96.000000 8.000000 
0.000000 96.000000 10.000000 
0.000000 96.000000 12.000000 
0.000000 96.000000 14.000000 
0.000000 96.000000 16.000000 
0.000000 96.000000 18.000000 
0.000000 96.000000 20.000000 
0.000000 96.000000 22.000000 
0.000000 96.000000 24.000000 
0.000000 96.000000 26.000000 
0.000000 96.000000 28.000000 
0.000000 96.000000 30.000000 
0.000000 96.000000 32.000000 
0.000000 96.000000 34.000000 
0.000000 96.000000 36.000000 
0.000000 96.000000 38.000000 
0.000000 96.000000 40.000000 
0.000000 98.000000 0.000000 
0.000000 98.000000 2.000000 
0.000000 98.000000 4.000000 
0.000000 98.000000 6.000000 
0.000000 98.000000 8.000000 
0.000000 98.000000 10.000000 
0.000000 98.000000 12.000000 
0.000000 98.000000 14.000000 
0.000000 98.000000 16.000000 
0.000000 98.000000 18.000000 
0.000000 98.000000 20.000000 
0.000000 98.000000 22.000000 
0.000000 98.000000 24.000000 
0.000000 98.000000 26.000000 
0.000000 98.000000 28.000000 
0.000000 98.000000 30.000000 
0.000000 98.000000 32.000000 
0.000000 98.000000 34.000000 
0.000000 98.000000 36.000000 
0.000000 98.000000 38.000000 
0.000000 98.000000 40.000000 
0.000000 100.000000 0.000000 
0.000000 100.000000 2.000000 
0.000000 100.000000 4.000000 
0.000000 100.000000 6.000000 
0.000000 100.000000 8.000000 
0.000000 100.000000 10.000000 
0.000000 100.000000 12.000000 
0.000000 100.000000 14.000000 
0.000000 100.000000 16.000000 
0.000000 100.000000 18.000000 
0.000000 100.000000 20.000000 
0.000000 100.000000 22.000000 
0.000000 100.000000 24.000000 
0.000000 100.000000 26.000000 
0.000000 100.000000 28.000000 
0.000000 100.000000 30.000000 
0.000000 100.000000 32.000000 
0.000000 100.000000 34.000000 
0.000000 100.000000 36.000000 
0.000000 100.000000 38.000000 
0.000000 100.000000 40.000000 
0.000000 CELLS 1600 8000 
4 0 51 52 1 
4 1 52 53 2 
4 2 53 54 3 
4 3 54 55 4 
4 4 55 56 5 
4 5 56 57 6 
4 6 57 58 7 
4 7 58 59 8 
4 8 59 60 9 
4 9 60 61 10 
4 10 61 62 11 
4 11 62 63 12 
4 12 63 64 13 
4 13 64 65 14 
4 14 65 66 15 
4 15 66 67 16 
4 16 67 68 17 
4 17 68 69 18 
4 18 69 70 19 
4 19 70 71 20 
4 20 71 72 21 
4 21 72 73 22 
4 22 73 74 23 
4 23 74 75 24 
4 24 75 76 25 
4 25 76 77 26 
4 26 77 78 27 
4 27 78 79 28 
4 28 79 80 29 
4 29 80 81 30 
4 30 81 82 31 
4 31 82 83 32 
4 32 83 84 33 
4 33 84 85 34 
4 34 85 86 35 
4 35 86 87 36 
4 36 87 88 37 
4 37 88 89 38 
4 38 89 90 39 
4 39 90 91 40 
4 40 91 92 41 
4 41 92 93 42 
4 42 93 94 43 
4 43 94 95 44 
4 44 95 96 45 
4 45 96 97 46 
4 46 97 98 47 
4 47 98 99 48 
4 48 99 100 49 
4 49 100 101 50 
4 51 102 103 52 
4 52 103 104 53 
4 53 104 105 54 
4 54 105 106 55 
4 55 106 107 56 
4 56 107 108 57 
4 57 108 109 58 
4 58 109 110 59 
4 59 110 111 60 
4 60 111 112 61 
4 61 112 113 62 
4 62 113 114 63 
4 63 114 115 64 
4 64 115 116 65 
4 65 116 117 66 
4 66 117 118 67 
4 67 118 119 68 
4 68 119 120 69 
4 69 120 121 70 
4 70 121 122 71 
4 71 122 123 72 
4 72 123 124 73 
4 73 124 125 74 
4 74 125 126 75 
4 75 126 127 76 
4 76 127 128 77 
4 77 128 129 78 
4 78 129 130 79 
4 79 130 131 80 
4 80 131 132 81 
4 81 132 133 82 
4 82 133 134 83 
4 83 134 135 84 
4 84 135 136 85 
4 85 136 137 86 
4 86 137 138 87 
4 87 138 139 88 
4 88 139 140 89 
4 89 140 141 90 
4 90 141 142 91 
4 91 142 143 92 
4 92 143 144 93 
4 93 144 145 94 
4 94 145 146 95 
4 95 146 147 96 
4 96 147 148 97 
4 97 148 149 98 
4 98 149 150 99 
4 99 150 151 100 
4 100 151 152 101 
4 102 153 154 103 
4 103 154 155 104 
4 104 155 156 105 
4 105 156 157 106 
4 106 157 158 107 
4 107 158 159 108 
4 108 159 160 109 
4 109 160 161 110 
4 110 161 162 111 
4 111 162 163 112 
4 112 163 164 113 
4 113 164 165 114 
4 114 165 166 115 
4 115 166 167 116 
4 116 167 168 117 
4 117 168 169 118 
4 118 169 170 119 
4 119 170 171 120 
4 120 171 172 121 
4 121 172 173 122 
4 122 173 174 123 
4 123 174 175 124 
4 124 175 176 125 
4 125 176 177 126 
4 126 177 178 127 
4 127 178 179 128 
4 128 179 180 129 
4 129 180 181 130 
4 130 181 182 131 
4 131 182 183 132 
4 132 183 184 133 
4 133 184 185 134 
4 134 185 186 135 
4 135 186 187 136 
4 136 187 188 137 
4 137 188 189 138 
4 138 189 190 139 
4 139 190 191 140 
4 140 191 192 141 
4 141 192 193 142 
4 142 193 194 143 
4 143 194 195 144 
4 144 195 196 145 
4 145 196 197 146 
4 146 197 198 147 
4 147 198 199 148 
4 148 199 200 149 
4 149 200 201 150 
4 150 201 202 151 
4 151 202 203 152 
4 153 204 205 154 
4 154 205 206 155 
4 155 206 207 156 
4 156 207 208 157 
4 157 208 209 158 
4 158 209 210 159 
4 159 210 211 160 
4 160 211 212 161 
4 161 212 213 162 
4 162 213 214 163 
4 163 214 215 164 
4 164 215 216 165 
4 165 216 217 166 
4 166 217 218 167 
4 167 218 219 168 
4 168 219 220 169 
4 169 220 221 170 
4 170 221 222 171 
4 171 222 223 172 
4 172 223 224 173 
4 173 224 225 174 
4 174 225 226 175 
4 175 226 227 176 
4 176 227 228 177 
4 177 228 229 178 
4 178 229 230 179 
4 179 230 231 180 
4 180 231 232 181 
4 181 232 233 182 
4 182 233 234 183 
4 183 234 235 184 
4 184 235 236 185 
4 185 236 237 186 
4 186 237 238 187 
4 187 238 239 188 
4 188 239 240 189 
4 189 240 241 190 
4 190 241 242 191 
4 191 242 243 192 
4 192 243 244 193 
4 193 244 245 194 
4 194 245 246 195 
4 195 246 247 196 
4 196 247 248 197 
4 197 248 249 198 
4 198 249 250 199 
4 199 250 251 200 
4 200 251 252 201 
4 201 252 253 202 
4 202 253 254 203 
4 204 255 256 205 
4 205 256 257 206 
4 206 257 258 207 
4 207 258 259 208 
4 208 259 260 209 
4 209 260 261 210 
4 210 261 262 211 
4 211 262 263 212 
4 212 263 264 213 
4 213 264 265 214 
4 214 265 266 215 
4 215 266 267 216 
4 216 267 268 217 
4 217 268 269 218 
4 218 269 270 219 
4 219 270 271 220 
4 220 271 272 221 
4 221 272 273 222 
4 222 273 274 223 
4 223 274 275 224 
4 224 275 276 225 
4 225 276 277 226 
4 226 277 278 227 
4 227 278 279 228 
4 228 279 280 229 
4 229 280 281 230 
4 230 281 282 231 
4 231 282 283 232 
4 232 283 284 233 
4 233 284 285 234 
4 234 285 286 235 
4 235 286 287 236 
4 236 287 288 237 
4 237 288 289 238 
4 238 289 290 239 
4 239 290 291 240 
4 240 291 292 241 
4 241 292 293 242 
4 242 293 294 243 
4 243 294 295 244 
4 244 295 296 245 
4 245 296 297 246 
4 246 297 298 247 
4 247 298 299 248 
4 248 299 300 249 
4 249 300 301 250 
4 250 301 302 251 
4 251 302 303 252 
4 252 303 304 253 
4 253 304 305 254 
4 255 306 307 256 
4 256 307 308 257 
4 257 308 309 258 
4 258 309 310 259 
4 259 310 311 260 
4 260 311 312 261 
4 261 312 313 262 
4 262 313 314 263 
4 263 314 315 264 
4 264 315 316 265 
4 265 316 317 266 
4 266 317 318 267 
4 267 318 319 268 
4 268 319 320 269 
4 269 320 321 270 
4 270 321 322 271 
4 271 322 323 272 
4 272 323 324 273 
4 273 324 325 274 
4 274 325 326 275 
4 275 326 327 276 
4 276 327 328 277 
4 277 328 329 278 
4 278 329 330 279 
4 279 330 331 280 
4 280 331 332 281 
4 281 332 333 282 
4 282 333 334 283 
4 283 334 335 284 
4 284 335 336 285 
4 285 336 337 286 
4 286 337 338 287 
4 287 338 339 288 
4 288 339 340 289 
4 289 340 341 290 
4 290 341 342 291 
4 291 342 343 292 
4 292 343 344 293 
4 293 344 345 294 
4 294 345 346 295 
4 295 346 347 296 
4 296 347 348 297 
4 297 348 349 298 
4 298 349 350 299 
4 299 350 351 300 
4 300 351 352 301 
4 301 352 353 302 
4 302 353 354 303 
4 303 354 355 304 
4 304 355 356 305 
4 306 357 358 307 
4 307 358 359 308 
4 308 359 360 309 
4 309 360 361 310 
4 310 361 362 311 
4 311 362 363 312 
4 312 363 364 313 
4 313 364 365 314 
4 314 365 366 315 
4 315 366 367 316 
4 316 367 368 317 
4 317 368 369 318 
4 318 369 370 319 
4 319 370 371 320 
4 320 371 372 321 
4 321 372 373 322 
4 322 373 374 323 
4 323 374 375 324 
4 324 375 376 325 
4 325 376 377 326 
4 326 377 378 327 
4 327 378 379 328 
4 328 379 380 329 
4 329 380 381 330 
4 330 381 382 331 
4 331 382 383 332 
4 332 383 384 333 
4 333 384 385 334 
4 334 385 386 335 
4 335 386 387 336 
4 336 387 388 337 
4 337 388 389 338 
4 338 389 390 339 
4 339 390 391 340 
4 340 391 392 341 
4 341 392 393 342 
4 342 393 394 343 
4 343 394 395 344 
4 344 395 396 345 
4 345 396 397 346 
4 346 397 398 347 
4 347 398 399 348 
4 348 399 400 349 
4 349 400 401 350 
4 350 401 402 351 
4 351 402 403 352 
4 352 403 404 353 
4 353 404 405 354 
4 354 405 406 355 
4 355 406 407 356 
4 357 408 409 358 
4 358 409 410 359 
4 359 410 411 360 
4 360 411 412 361 
4 361 412 413 362 
4 362 413 414 363 
4 363 414 415 364 
4 364 415 416 365 
4 365 416 417 366 
4 366 417 418 367 
4 367 418 419 368 
4 368 419 420 369 
4 369 420 421 370 
4 370 421 422 371 
4 371 422 423 372 
4 372 423 424 373 
4 373 424 425 374 
4 374 425 426 375 
4 375 426 427 376 
4 376 427 428 377 
4 377 428 429 378 
4 378 429 430 379 
4 379 430 431 380 
4 380 431 432 381 
4 381 432 433 382 
4 382 433 434 383 
4 383 434 435 384 
4 384 435 436 385 
4 385 436 437 386 
4 386 437 438 387 
4 387 438 439 388 
4 388 439 440 389 
4 389 440 441 390 
4 390 441 442 391 
4 391 442 443 392 
4 392 443 444 393 
4 393 444 445 394 
4 394 445 446 395 
4 395 446 447 396 
4 396 447 448 397 
4 397 448 449 398 
4 398 449 450 399 
4 399 450 451 400 
4 400 451 452 401 
4 401 452 453 402 
4 402 453 454 403 
4 403 454 455 404 
4 404 455 456 405 
4 405 456 457 406 
4 406 457 458 407 
4 408 459 460 409 
4 409 460 461 410 
4 410 461 462 411 
4 411 462 463 412 
4 412 463 464 413 
4 413 464 465 414 
4 414 465 466 415 
4 415 466 467 416 
4 416 467 468 417 
4 417 468 469 418 
4 418 469 470 419 
4 419 470 471 420 
4 420 471 472 421 
4 421 472 473 422 
4 422 473 474 423 
4 423 474 475 424 
4 424 475 476 425 
4 425 476 477 426 
4 426 477 478 427 
4 427 478 479 428 
4 428 479 480 429 
4 429 480 481 430 
4 430 481 482 431 
4 431 482 483 432 
4 432 483 484 433 
4 433 484 485 434 
4 434 485 486 435 
4 435 486 487 436 
4 436 487 488 437 
4 437 488 489 438 
4 438 489 490 439 
4 439 490 491 440 
4 440 491 492 441 
4 441 492 493 442 
4 442 493 494 443 
4 443 494 495 444 
4 444 495 496 445 
4 445 496 497 446 
4 446 497 498 447 
4 447 498 499 448 
4 448 499 500 449 
4 449 500 501 450 
4 450 501 502 451 
4 451 502 503 452 
4 452 503 504 453 
4 453 504 505 454 
4 454 505 506 455 
4 455 506 507 456 
4 456 507 508 457 
4 457 508 509 458 
4 459 510 511 460 
4 460 511 512 461 
4 461 512 513 462 
4 462 513 514 463 
4 463 514 515 464 
4 464 515 516 465 
4 465 516 517 466 
4 466 517 518 467 
4 467 518 519 468 
4 468 519 520 469 
4 469 520 521 470 
4 470 521 522 471 
4 471 522 523 472 
4 472 523 524 473 
4 473 524 525 474 
4 474 525 526 475 
4 475 526 527 476 
4 476 527 528 477 
4 477 528 529 478 
4 478 529 530 479 
4 479 530 531 480 
4 480 531 532 481 
4 481 532 533 482 
4 482 533 534 483 
4 483 534 535 484 
4 484 535 536 485 
4 485 536 537 486 
4 486 537 538 487 
4 487 538 539 488 
4 488 539 540 489 
4 489 540 541 490 
4 490 541 542 491 
4 491 542 543 492 
4 492 543 544 493 
4 493 544 545 494 
4 494 545 546 495 
4 495 546 547 496 
4 496 547 548 497 
4 497 548 549 498 
4 498 549 550 499 
4 499 550 551 500 
4 500 551 552 501 
4 501 552 553 502 
4 502 553 554 503 
4 503 554 555 504 
4 504 555 556 505 
4 505 556 557 506 
4 506 557 558 507 
4 507 558 559 508 
4 508 559 560 509 
4 510 561 562 511 
4 511 562 563 512 
4 512 563 564 513 
4 513 564 565 514 
4 514 565 566 515 
4 515 566 567 516 
4 516 567 568 517 
4 517 568 569 518 
4 518 569 570 519 
4 519 570 571 520 
4 520 571 572 521 
4 521 572 573 522 
4 522 573 574 523 
4 523 574 575 524 
4 524 575 576 525 
4 525 576 577 526 
4 526 577 578 527 
4 527 578 579 528 
4 528 579 580 529 
4 529 580 581 530 
4 530 581 582 531 
4 531 582 583 532 
4 532 583 584 533 
4 533 584 585 534 
4 534 585 586 535 
4 535 586 587 536 
4 536 587 588 537 
4 537 588 589 538 
4 538 589 590 539 
4 539 590 591 540 
4 540 591 592 541 
4 541 592 593 542 
4 542 593 594 543 
4 543 594 595 544 
4 544 595 596 545 
4 545 596 597 546 
4 546 597 598 547 
4 547 598 599 548 
4 548 599 600 549 
4 549 600 601 550 
4 550 601 602 551 
4 551 602 603 552 
4 552 603 604 553 
4 553 604 605 554 
4 554 605 606 555 
4 555 606 607 556 
4 556 607 608 557 
4 557 608 609 558 
4 558 609 610 559 
4 559 610 611 560 
4 561 612 613 562 
4 562 613 614 563 
4 563 614 615 564 
4 564 615 616 565 
4 565 616 617 566 
4 566 617 618 567 
4 567 618 619 568 
4 568 619 620 569 
4 569 620 621 570 
4 570 621 622 571 
4 571 622 623 572 
4 572 623 624 573 
4 573 624 625 574 
4 574 625 626 575 
4 575 626 627 576 
4 576 627 628 577 
4 577 628 629 578 
4 578 629 630 579 
4 579 630 631 580 
4 580 631 632 581 
4 581 632 633 582 
4 582 633 634 583 
4 583 634 635 584 
4 584 635 636 585 
4 585 636 637 586 
4 586 637 638 587 
4 587 638 639 588 
4 588 639 640 589 
4 589 640 641 590 
4 590 641 642 591 
4 591 642 643 592 
4 592 643 644 593 
4 593 644 645 594 
4 594 645 646 595 
4 595 646 647 596 
4 596 647 648 597 
4 597 648 649 598 
4 598 649 650 599 
4 599 650 651 600 
4 600 651 652 601 
4 601 652 653 602 
4 602 653 654 603 
4 603 654 655 604 
4 604 655 656 605 
4 605 656 657 606 
4 606 657 658 607 
4 607 658 659 608 
4 608 659 660 609 
4 609 660 661 610 
4 610 661 662 611 
4 612 663 664 613 
4 613 664 665 614 
4 614 665 666 615 
4 615 666 667 616 
4 616 667 668 617 
4 617 668 669 618 
4 618 669 670 619 
4 619 670 671 620 
4 620 671 672 621 
4 621 672 673 622 
4 622 673 674 623 
4 623 674 675 624 
4 624 675 676 625 
4 625 676 677 626 
4 626 677 678 627 
4 627 678 679 628 
4 628 679 680 629 
4 629 680 681 630 
4 630 681 682 631 
4 631 682 683 632 
4 632 683 684 633 
4 633 684 685 634 
4 634 685 686 635 
4 635 686 687 636 
4 636 687 688 637 
4 637 688 689 638 
4 638 689 690 639 
4 639 690 691 640 
4 640 691 692 641 
4 641 692 693 642 
4 642 693 694 643 
4 643 694 695 644 
4 644 695 696 645 
4 645 696 697 646 
4 646 697 698 647 
4 647 698 699 648 
4 648 699 700 649 
4 649 700 701 650 
4 650 701 702 651 
4 651 702 703 652 
4 652 703 704 653 
4 653 704 705 654 
4 654 705 706 655 
4 655 706 707 656 
4 656 707 708 657 
4 657 708 709 658 
4 658 709 710 659 
4 659 710 711 660 
4 660 711 712 661 
4 661 712 713 662 
4 663 714 715 664 
4 664 715 716 665 
4 665 716 717 666 
4 666 717 718 667 
4 667 718 719 668 
4 668 719 720 669 
4 669 720 721 670 
4 670 721 722 671 
4 671 722 723 672 
4 672 723 724 673 
4 673 724 725 674 
4 674 725 726 675 
4 675 726 727 676 
4 676 727 728 677 
4 677 728 729 678 
4 678 729 730 679 
4 679 730 731 680 
4 680 731 732 681 
4 681 732 733 682 
4 682 733 734 683 
4 683 734 735 684 
4 684 735 736 685 
4 685 736 737 686 
4 686 737 738 687 
4 687 738 739 688 
4 688 739 740 689 
4 689 740 741 690 
4 690 741 742 691 
4 691 742 743 692 
4 692 743 744 693 
4 693 744 745 694 
4 694 745 746 695 
4 695 746 747 696 
4 696 747 748 697 
4 697 748 749 698 
4 698 749 750 699 
4 699 750 751 700 
4 700 751 752 701 
4 701 752 753 702 
4 702 753 754 703 
4 703 754 755 704 
4 704 755 756 705 
4 705 756 757 706 
4 706 757 758 707 
4 707 758 759 708 
4 708 759 760 709 
4 709 760 761 710 
4 710 761 762 711 
4 711 762 763 712 
4 712 763 764 713 
4 714 765 766 715 
4 715 766 767 716 
4 716 767 768 717 
4 717 768 769 718 
4 718 769 770 719 
4 719 770 771 720 
4 720 771 772 721 
4 721 772 773 722 
4 722 773 774 723 
4 723 774 775 724 
4 724 775 776 725 
4 725 776 777 726 
4 726 777 778 727 
4 727 778 779 728 
4 728 779 780 729 
4 729 780 781 730 
4 730 781 782 731 
4 731 782 783 732 
4 732 783 784 733 
4 733 784 785 734 
4 734 785 786 735 
4 735 786 787 736 
4 736 787 788 737 
4 737 788 789 738 
4 738 789 790 739 
4 739 790 791 740 
4 740 791 792 741 
4 741 792 793 742 
4 742 793 794 743 
4 743 794 795 744 
4 744 795 796 745 
4 745 796 797 746 
4 746 797 798 747 
4 747 798 799 748 
4 748 799 800 749 
4 749 800 801 750 
4 750 801 802 751 
4 751 802 803 752 
4 752 803 804 753 
4 753 804 805 754 
4 754 805 806 755 
4 755 806 807 756 
4 756 807 808 757 
4 757 808 809 758 
4 758 809 810 759 
4 759 810 811 760 
4 760 811 812 761 
4 761 812 813 762 
4 762 813 814 763 
4 763 814 815 764 
4 765 816 817 766 
4 766 817 818 767 
4 767 818 819 768 
4 768 819 820 769 
4 769 820 821 770 
4 770 821 822 771 
4 771 822 823 772 
4 772 823 824 773 
4 773 824 825 774 
4 774 825 826 775 
4 775 826 827 776 
4 776 827 828 777 
4 777 828 829 778 
4 778 829 830 779 
4 779 830 831 780 
4 780 831 832 781 
4 781 832 833 782 
4 782 833 834 783 
4 783 834 835 784 
4 784 835 836 785 
4 785 836 837 786 
4 786 837 838 787 
4 787 838 839 788 
4 788 839 840 789 
4 789 840 841 790 
4 790 841 842 791 
4 791 842 843 792 
4 792 843 844 793 
4 793 844 845 794 
4 794 845 846 795 
4 795 846 847 796 
4 796 847 848 797 
4 797 848 849 798 
4 798 849 850 799 
4 799 850 851 800 
4 800 851 852 801 
4 801 852 853 802 
4 802 853 854 803 
4 803 854 855 804 
4 804 855 856 805 
4 805 856 857 806 
4 806 857 858 807 
4 807 858 859 808 
4 808 859 860 809 
4 809 860 861 810 
4 810 861 862 811 
4 811 862 863 812 
4 812 863 864 813 
4 813 864 865 814 
4 814 865 866 815 
4 816 867 868 817 
4 817 868 869 818 
4 818 869 870 819 
4 819 870 871 820 
4 820 871 872 821 
4 821 872 873 822 
4 822 873 874 823 
4 823 874 875 824 
4 824 875 876 825 
4 825 876 877 826 
4 826 877 878 827 
4 827 878 879 828 
4 828 879 880 829 
4 829 880 881 830 
4 830 881 882 831 
4 831 882 883 832 
4 832 883 884 833 
4 833 884 885 834 
4 834 885 886 835 
4 835 886 887 836 
4 836 887 888 837 
4 837 888 889 838 
4 838 889 890 839 
4 839 890 891 840 
4 840 891 892 841 
4 841 892 893 842 
4 842 893 894 843 
4 843 894 895 844 
4 844 895 896 845 
4 845 896 897 846 
4 846 897 898 847 
4 847 898 899 848 
4 848 899 900 849 
4 849 900 901 850 
4 850 901 902 851 
4 851 902 903 852 
4 852 903 904 853 
4 853 904 905 854 
4 854 905 906 855 
4 855 906 907 856 
4 856 907 908 857 
4 857 908 909 858 
4 858 909 910 859 
4 859 910 911 860 
4 860 911 912 861 
4 861 912 913 862 
4 862 913 914 863 
4 863 914 915 864 
4 864 915 916 865 
4 865 916 917 866 
4 867 918 919 868 
4 868 919 920 869 
4 869 920 921 870 
4 870 921 922 871 
4 871 922 923 872 
4 872 923 924 873 
4 873 924 925 874 
4 874 925 926 875 
4 875 926 927 876 
4 876 927 928 877 
4 877 928 929 878 
4 878 929 930 879 
4 879 930 931 880 
4 880 931 932 881 
4 881 932 933 882 
4 882 933 934 883 
4 883 934 935 884 
4 884 935 936 885 
4 885 936 937 886 
4 886 937 938 887 
4 887 938 939 888 
4 888 939 940 889 
4 889 940 941 890 
4 890 941 942 891 
4 891 942 943 892 
4 892 943 944 893 
4 893 944 945 894 
4 894 945 946 895 
4 895 946 947 896 
4 896 947 948 897 
4 897 948 949 898 
4 898 949 950 899 
4 899 950 951 900 
4 900 951 952 901 
4 901 952 953 902 
4 902 953 954 903 
4 903 954 955 904 
4 904 955 956 905 
4 905 956 957 906 
4 906 957 958 907 
4 907 958 959 908 
4 908 959 960 909 
4 909 960 961 910 
4 910 961 962 911 
4 911 962 963 912 
4 912 963 964 913 
4 913 964 965 914 
4 914 965 966 915 
4 915 966 967 916 
4 916 967 968 917 
4 918 969 970 919 
4 919 970 971 920 
4 920 971 972 921 
4 921 972 973 922 
4 922 973 974 923 
4 923 974 975 924 
4 924 975 976 925 
4 925 976 977 926 
4 926 977 978 927 
4 927 978 979 928 
4 928 979 980 929 
4 929 980 981 930 
4 930 981 982 931 
4 931 982 983 932 
4 932 983 984 933 
4 933 984 985 934 
4 934 985 986 935 
4 935 986 987 936 
4 936 987 988 937 
4 937 988 989 938 
4 938 989 990 939 
4 939 990 991 940 
4 940 991 992 941 
4 941 992 993 942 
4 942 993 994 943 
4 943 994 995 944 
4 944 995 996 945 
4 945 996 997 946 
4 946 997 998 947 
4 947 998 999 948 
4 948 999 1000 949 
4 949 1000 1001 950 
4 950 1001 1002 951 
4 951 1002 1003 952 
4 952 1003 1004 953 
4 953 1004 1005 954 
4 954 1005 1006 955 
4 955 1006 1007 956 
4 956 1007 1008 957 
4 957 1008 1009 958 
4 958 1009 1010 959 
4 959 1010 1011 960 
4 960 1011 1012 961 
4 961 1012 1013 962 
4 962 1013 1014 963 
4 963 1014 1015 964 
4 964 1015 1016 965 
4 965 1016 1017 966 
4 966 1017 1018 967 
4 967 1018 1019 968 
4 969 1020 1021 970 
4 970 1021 1022 971 
4 971 1022 1023 972 
4 972 1023 1024 973 
4 973 1024 1025 974 
4 974 1025 1026 975 
4 975 1026 1027 976 
4 976 1027 1028 977 
4 977 1028 1029 978 
4 978 1029 1030 979 
4 979 1030 1031 980 
4 980 1031 1032 981 
4 981 1032 1033 982 
4 982 1033 1034 983 
4 983 1034 1035 984 
4 984 1035 1036 985 
4 985 1036 1037 986 
4 986 1037 1038 987 
4 987 1038 1039 988 
4 988 1039 1040 989 
4 989 1040 1041 990 
4 990 1041 1042 991 
4 991 1042 1043 992 
4 992 1043 1044 993 
4 993 1044 1045 994 
4 994 1045 1046 995 
4 995 1046 1047 996 
4 996 1047 1048 997 
4 997 1048 1049 998 
4 998 1049 1050 999 
4 999 1050 1051 1000 
4 1000 1051 1052 1001 
4 1001 1052 1053 1002 
4 1002 1053 1054 1003 
4 1003 1054 1055 1004 
4 1004 1055 1056 1005 
4 1005 1056 1057 1006 
4 1006 1057 1058 1007 
4 1007 1058 1059 1008 
4 1008 1059 1060 1009 
4 1009 1060 1061 1010 
4 1010 1061 1062 1011 
4 1011 1062 1063 1012 
4 1012 1063 1064 1013 
4 1013 1064 1065 1014 
4 1014 1065 1066 1015 
4 1015 1066 1067 1016 
4 1016 1067 1068 1017 
4 1017 1068 1069 1018 
4 1018 1069 1070 1019 
4 1020 1071 1072 1021 
4 1021 1072 1073 1022 
4 1022 1073 1074 1023 
4 1023 1074 1075 1024 
4 1024 1075 1076 1025 
4 1025 1076 1077 1026 
4 1026 1077 1078 1027 
4 1027 1078 1079 1028 
4 1028 1079 1080 1029 
4 1029 1080 1081 1030 
4 1030 1081 1082 1031 
4 1031 1082 1083 1032 
4 1032 1083 1084 1033 
4 1033 1084 1085 1034 
4 1034 1085 1086 1035 
4 1035 1086 1087 1036 
4 1036 1087 1088 1037 
4 1037 1088 1089 1038 
4 1038 1089 1090 1039 
4 1039 1090 1091 1040 
4 1071 1092 1093 1072 
4 1072 1093 1094 1073 
4 1073 1094 1095 1074 
4 1074 1095 1096 1075 
4 1075 1096 1097 1076 
4 1076 1097 1098 1077 
4 1077 1098 1099 1078 
4 1078 1099 1100 1079 
4 1079 1100 1101 1080 
4 1080 1101 1102 1081 
4 1081 1102 1103 1082 
4 1082 1103 1104 1083 
4 1083 1104 1105 1084 
4 1084 1105 1106 1085 
4 1085 1106 1107 1086 
4 1086 1107 1108 1087 
4 1087 1108 1109 1088 
4 1088 1109 1110 1089 
4 1089 1110 1111 1090 
4 1090 1111 1112 1091 
4 1092 1113 1114 1093 
4 1093 1114 1115 1094 
4 1094 1115 1116 1095 
4 1095 1116 1117 1096 
4 1096 1117 1118 1097 
4 1097 1118 1119 1098 
4 1098 1119 1120 1099 
4 1099 1120 1121 1100 
4 1100 1121 1122 1101 
4 1101 1122 1123 1102 
4 1102 1123 1124 1103 
4 1103 1124 1125 1104 
4 1104 1125 1126 1105 
4 1105 1126 1127 1106 
4 1106 1127 1128 1107 
4 1107 1128 1129 1108 
4 1108 1129 1130 1109 
4 1109 1130 1131 1110 
4 1110 1131 1132 1111 
4 1111 1132 1133 1112 
4 1113 1134 1135 1114 
4 1114 1135 1136 1115 
4 1115 1136 1137 1116 
4 1116 1137 1138 1117 
4 1117 1138 1139 1118 
4 1118 1139 1140 1119 
4 1119 1140 1141 1120 
4 1120 1141 1142 1121 
4 1121 1142 1143 1122 
4 1122 1143 1144 1123 
4 1123 1144 1145 1124 
4 1124 1145 1146 1125 
4 1125 1146 1147 1126 
4 1126 1147 1148 1127 
4 1127 1148 1149 1128 
4 1128 1149 1150 1129 
4 1129 1150 1151 1130 
4 1130 1151 1152 1131 
4 1131 1152 1153 1132 
4 1132 1153 1154 1133 
4 1134 1155 1156 1135 
4 1135 1156 1157 1136 
4 1136 1157 1158 1137 
4 1137 1158 1159 1138 
4 1138 1159 1160 1139 
4 1139 1160 1161 1140 
4 1140 1161 1162 1141 
4 1141 1162 1163 1142 
4 1142 1163 1164 1143 
4 1143 1164 1165 1144 
4 1144 1165 1166 1145 
4 1145 1166 1167 1146 
4 1146 1167 1168 1147 
4 1147 1168 1169 1148 
4 1148 1169 1170 1149 
4 1149 1170 1171 1150 
4 1150 1171 1172 1151 
4 1151 1172 1173 1152 
4 1152 1173 1174 1153 
4 1153 1174 1175 1154 
4 1155 1176 1177 1156 
4 1156 1177 1178 1157 
4 1157 1178 1179 1158 
4 1158 1179 1180 1159 
4 1159 1180 1181 1160 
4 1160 1181 1182 1161 
4 1161 1182 1183 1162 
4 1162 1183 1184 1163 
4 1163 1184 1185 1164 
4 1164 1185 1186 1165 
4 1165 1186 1187 1166 
4 1166 1187 1188 1167 
4 1167 1188 1189 1168 
4 1168 1189 1190 1169 
4 1169 1190 1191 1170 
4 1170 1191 1192 1171 
4 1171 1192 1193 1172 
4 1172 1193 1194 1173 
4 1173 1194 1195 1174 
4 1174 1195 1196 1175 
4 1176 1197 1198 1177 
4 1177 1198 1199 1178 
4 1178 1199 1200 1179 
4 1179 1200 1201 1180 
4 1180 1201 1202 1181 
4 1181 1202 1203 1182 
4 1182 1203 1204 1183 
4 1183 1204 1205 1184 
4 1184 1205 1206 1185 
4 1185 1206 1207 1186 
4 1186 1207 1208 1187 
4 1187 1208 1209 1188 
4 1188 1209 1210 1189 
4 1189 1210 1211 1190 
4 1190 1211 1212 1191 
4 1191 1212 1213 1192 
4 1192 1213 1214 1193 
4 1193 1214 1215 1194 
4 1194 1215 1216 1195 
4 1195 1216 1217 1196 
4 1197 1218 1219 1198 
4 1198 1219 1220 1199 
4 1199 1220 1221 1200 
4 1200 1221 1222 1201 
4 1201 1222 1223 1202 
4 1202 1223 1224 1203 
4 1203 1224 1225 1204 
4 1204 1225 1226 1205 
4 1205 1226 1227 1206 
4 1206 1227 1228 1207 
4 1207 1228 1229 1208 
4 1208 1229 1230 1209 
4 1209 1230 1231 1210 
4 1210 1231 1232 1211 
4 1211 1232 1233 1212 
4 1212 1233 1234 1213 
4 1213 1234 1235 1214 
4 1214 1235 1236 1215 
4 1215 1236 1237 1216 
4 1216 1237 1238 1217 
4 1218 1239 1240 1219 
4 1219 1240 1241 1220 
4 1220 1241 1242 1221 
4 1221 1242 1243 1222 
4 1222 1243 1244 1223 
4 1223 1244 1245 1224 
4 1224 1245 1246 1225 
4 1225 1246 1247 1226 
4 1226 1247 1248 1227 
4 1227 1248 1249 1228 
4 1228 1249 1250 1229 
4 1229 1250 1251 1230 
4 1230 1251 1252 1231 
4 1231 1252 1253 1232 
4 1232 1253 1254 1233 
4 1233 1254 1255 1234 
4 1234 1255 1256 1235 
4 1235 1256 1257 1236 
4 1236 1257 1258 1237 
4 1237 1258 1259 1238 
4 1239 1260 1261 1240 
4 1240 1261 1262 1241 
4 1241 1262 1263 1242 
4 1242 1263 1264 1243 
4 1243 1264 1265 1244 
4 1244 1265 1266 1245 
4 1245 1266 1267 1246 
4 1246 1267 1268 1247 
4 1247 1268 1269 1248 
4 1248 1269 1270 1249 
4 1249 1270 1271 1250 
4 1250 1271 1272 1251 
4 1251 1272 1273 1252 
4 1252 1273 1274 1253 
4 1253 1274 1275 1254 
4 1254 1275 1276 1255 
4 1255 1276 1277 1256 
4 1256 1277 1278 1257 
4 1257 1278 1279 1258 
4 1258 1279 1280 1259 
4 1260 1281 1282 1261 
4 1261 1282 1283 1262 
4 1262 1283 1284 1263 
4 1263 1284 1285 1264 
4 1264 1285 1286 1265 
4 1265 1286 1287 1266 
4 1266 1287 1288 1267 
4 1267 1288 1289 1268 
4 1268 1289 1290 1269 
4 1269 1290 1291 1270 
4 1270 1291 1292 1271 
4 1271 1292 1293 1272 
4 1272 1293 1294 1273 
4 1273 1294 1295 1274 
4 1274 1295 1296 1275 
4 1275 1296 1297 1276 
4 1276 1297 1298 1277 
4 1277 1298 1299 1278 
4 1278 1299 1300 1279 
4 1279 1300 1301 1280 
4 1281 1302 1303 1282 
4 1282 1303 1304 1283 
4 1283 1304 1305 1284 
4 1284 1305 1306 1285 
4 1285 1306 1307 1286 
4 1286 1307 1308 1287 
4 1287 1308 1309 1288 
4 1288 1309 1310 1289 
4 1289 1310 1311 1290 
4 1290 1311 1312 1291 
4 1291 1312 1313 1292 
4 1292 1313 1314 1293 
4 1293 1314 1315 1294 
4 1294 1315 1316 1295 
4 1295 1316 1317 1296 
4 1296 1317 1318 1297 
4 1297 1318 1319 1298 
4 1298 1319 1320 1299 
4 1299 1320 1321 1300 
4 1300 1321 1322 1301 
4 1302 1323 1324 1303 
4 1303 1324 1325 1304 
4 1304 1325 1326 1305 
4 1305 1326 1327 1306 
4 1306 1327 1328 1307 
4 1307 1328 1329 1308 
4 1308 1329 1330 1309 
4 1309 1330 1331 1310 
4 1310 1331 1332 1311 
4 1311 1332 1333 1312 
4 1312 1333 1334 1313 
4 1313 1334 1335 1314 
4 1314 1335 1336 1315 
4 1315 1336 1337 1316 
4 1316 1337 1338 1317 
4 1317 1338 1339 1318 
4 1318 1339 1340 1319 
4 1319 1340 1341 1320 
4 1320 1341 1342 1321 
4 1321 1342 1343 1322 
4 1323 1344 1345 1324 
4 1324 1345 1346 1325 
4 1325 1346 1347 1326 
4 1326 1347 1348 1327 
4 1327 1348 1349 1328 
4 1328 1349 1350 1329 
4 1329 1350 1351 1330 
4 1330 1351 1352 1331 
4 1331 1352 1353 1332 
4 1332 1353 1354 1333 
4 1333 1354 1355 1334 
4 1334 1355 1356 1335 
4 1335 1356 1357 1336 
4 1336 1357 1358 1337 
4 1337 1358 1359 1338 
4 1338 1359 1360 1339 
4 1339 1360 1361 1340 
4 1340 1361 1362 1341 
4 1341 1362 1363 1342 
4 1342 1363 1364 1343 
4 1344 1365 1366 1345 
4 1345 1366 1367 1346 
4 1346 1367 1368 1347 
4 1347 1368 1369 1348 
4 1348 1369 1370 1349 
4 1349 1370 1371 1350 
4 1350 1371 1372 1351 
4 1351 1372 1373 1352 
4 1352 1373 1374 1353 
4 1353 1374 1375 1354 
4 1354 1375 1376 1355 
4 1355 1376 1377 1356 
4 1356 1377 1378 1357 
4 1357 1378 1379 1358 
4 1358 1379 1380 1359 
4 1359 1380 1381 1360 
4 1360 1381 1382 1361 
4 1361 1382 1383 1362 
4 1362 1383 1384 1363 
4 1363 1384 1385 1364 
4 1365 1386 1387 1366 
4 1366 1387 1388 1367 
4 1367 1388 1389 1368 
4 1368 1389 1390 1369 
4 1369 1390 1391 1370 
4 1370 1391 1392 1371 
4 1371 1392 1393 1372 
4 1372 1393 1394 1373 
4 1373 1394 1395 1374 
4 1374 1395 1396 1375 
4 1375 1396 1397 1376 
4 1376 1397 1398 1377 
4 1377 1398 1399 1378 
4 1378 1399 1400 1379 
4 1379 1400 1401 1380 
4 1380 1401 1402 1381 
4 1381 1402 1403 1382 
4 1382 1403 1404 1383 
4 1383 1404 1405 1384 
4 1384 1405 1406 1385 
4 1386 1407 1408 1387 
4 1387 1408 1409 1388 
4 1388 1409 1410 1389 
4 1389 1410 1411 1390 
4 1390 1411 1412 1391 
4 1391 1412 1413 1392 
4 1392 1413 1414 1393 
4 1393 1414 1415 1394 
4 1394 1415 1416 1395 
4 1395 1416 1417 1396 
4 1396 1417 1418 1397 
4 1397 1418 1419 1398 
4 1398 1419 1420 1399 
4 1399 1420 1421 1400 
4 1400 1421 1422 1401 
4 1401 1422 1423 1402 
4 1402 1423 1424 1403 
4 1403 1424 1425 1404 
4 1404 1425 1426 1405 
4 1405 1426 1427 1406 
4 1407 1428 1429 1408 
4 1408 1429 1430 1409 
4 1409 1430 1431 1410 
4 1410 1431 1432 1411 
4 1411 1432 1433 1412 
4 1412 1433 1434 1413 
4 1413 1434 1435 1414 
4 1414 1435 1436 1415 
4 1415 1436 1437 1416 
4 1416 1437 1438 1417 
4 1417 1438 1439 1418 
4 1418 1439 1440 1419 
4 1419 1440 1441 1420 
4 1420 1441 1442 1421 
4 1421 1442 1443 1422 
4 1422 1443 1444 1423 
4 1423 1444 1445 1424 
4 1424 1445 1446 1425 
4 1425 1446 1447 1426 
4 1426 1447 1448 1427 
4 1428 1449 1450 1429 
4 1429 1450 1451 1430 
4 1430 1451 1452 1431 
4 1431 1452 1453 1432 
4 1432 1453 1454 1433 
4 1433 1454 1455 1434 
4 1434 1455 1456 1435 
4 1435 1456 1457 1436 
4 1436 1457 1458 1437 
4 1437 1458 1459 1438 
4 1438 1459 1460 1439 
4 1439 1460 1461 1440 
4 1440 1461 1462 1441 
4 1441 1462 1463 1442 
4 1442 1463 1464 1443 
4 1443 1464 1465 1444 
4 1444 1465 1466 1445 
4 1445 1466 1467 1446 
4 1446 1467 1468 1447 
4 1447 1468 1469 1448 
4 1449 1470 1471 1450 
4 1450 1471 1472 1451 
4 1451 1472 1473 1452 
4 1452 1473 1474 1453 
4 1453 1474 1475 1454 
4 1454 1475 1476 1455 
4 1455 1476 1477 1456 
4 1456 1477 1478 1457 
4 1457 1478 1479 1458 
4 1458 1479 1480 1459 
4 1459 1480 1481 1460 
4 1460 1481 1482 1461 
4 1461 1482 1483 1462 
4 1462 1483 1484 1463 
4 1463 1484 1485 1464 
4 1464 1485 1486 1465 
4 1465 1486 1487 1466 
4 1466 1487 1488 1467 
4 1467 1488 1489 1468 
4 1468 1489 1490 1469 
4 1470 1491 1492 1471 
4 1471 1492 1493 1472 
4 1472 1493 1494 1473 
4 1473 1494 1495 1474 
4 1474 1495 1496 1475 
4 1475 1496 1497 1476 
4 1476 1497 1498 1477 
4 1477 1498 1499 1478 
4 1478 1499 1500 1479 
4 1479 1500 1501 1480 
4 1480 1501 1502 1481 
4 1481 1502 1503 1482 
4 1482 1503 1504 1483 
4 1483 1504 1505 1484 
4 1484 1505 1506 1485 
4 1485 1506 1507 1486 
4 1486 1507 1508 1487 
4 1487 1508 1509 1488 
4 1488 1509 1510 1489 
4 1489 1510 1511 1490 
4 1491 1512 1513 1492 
4 1492 1513 1514 1493 
4 1493 1514 1515 1494 
4 1494 1515 1516 1495 
4 1495 1516 1517 1496 
4 1496 1517 1518 1497 
4 1497 1518 1519 1498 
4 1498 1519 1520 1499 
4 1499 1520 1521 1500 
4 1500 1521 1522 1501 
4 1501 1522 1523 1502 
4 1502 1523 1524 1503 
4 1503 1524 1525 1504 
4 1504 1525 1526 1505 
4 1505 1526 1527 1506 
4 1506 1527 1528 1507 
4 1507 1528 1529 1508 
4 1508 1529 1530 1509 
4 1509 1530 1531 1510 
4 1510 1531 1532 1511 
4 1512 1533 1534 1513 
4 1513 1534 1535 1514 
4 1514 1535 1536 1515 
4 1515 1536 1537 1516 
4 1516 1537 1538 1517 
4 1517 1538 1539 1518 
4 1518 1539 1540 1519 
4 1519 1540 1541 1520 
4 1520 1541 1542 1521 
4 1521 1542 1543 1522 
4 1522 1543 1544 1523 
4 1523 1544 1545 1524 
4 1524 1545 1546 1525 
4 1525 1546 1547 1526 
4 1526 1547 1548 1527 
4 1527 1548 1549 1528 
4 1528 1549 1550 1529 
4 1529 1550 1551 1530 
4 1530 1551 1552 1531 
4 1531 1552 1553 1532 
4 1533 1554 1555 1534 
4 1534 1555 1556 1535 
4 1535 1556 1557 1536 
4 1536 1557 1558 1537 
4 1537 1558 1559 1538 
4 1538 1559 1560 1539 
4 1539 1560 1561 1540 
4 1540 1561 1562 1541 
4 1541 1562 1563 1542 
4 1542 1563 1564 1543 
4 1543 1564 1565 1544 
4 1544 1565 1566 1545 
4 1545 1566 1567 1546 
4 1546 1567 1568 1547 
4 1547 1568 1569 1548 
4 1548 1569 1570 1549 
4 1549 1570 1571 1550 
4 1550 1571 1572 1551 
4 1551 1572 1573 1552 
4 1552 1573 1574 1553 
4 1554 1575 1576 1555 
4 1555 1576 1577 1556 
4 1556 1577 1578 1557 
4 1557 1578 1579 1558 
4 1558 1579 1580 1559 
4 1559 1580 1581 1560 
4 1560 1581 1582 1561 
4 1561 1582 1583 1562 
4 1562 1583 1584 1563 
4 1563 1584 1585 1564 
4 1564 1585 1586 1565 
4 1565 1586 1587 1566 
4 1566 1587 1588 1567 
4 1567 1588 1589 1568 
4 1568 1589 1590 1569 
4 1569 1590 1591 1570 
4 1570 1591 1592 1571 
4 1571 1592 1593 1572 
4 1572 1593 1594 1573 
4 1573 1594 1595 1574 
4 1575 1596 1597 1576 
4 1576 1597 1598 1577 
4 1577 1598 1599 1578 
4 1578 1599 1600 1579 
4 1579 1600 1601 1580 
4 1580 1601 1602 1581 
4 1581 1602 1603 1582 
4 1582 1603 1604 1583 
4 1583 1604 1605 1584 
4 1584 1605 1606 1585 
4 1585 1606 1607 1586 
4 1586 1607 1608 1587 
4 1587 1608 1609 1588 
4 1588 1609 1610 1589 
4 1589 1610 1611 1590 
4 1590 1611 1612 1591 
4 1591 1612 1613 1592 
4 1592 1613 1614 1593 
4 1593 1614 1615 1594 
4 1594 1615 1616 1595 
4 1596 1617 1618 1597 
4 1597 1618 1619 1598 
4 1598 1619 1620 1599 
4 1599 1620 1621 1600 
4 1600 1621 1622 1601 
4 1601 1622 1623 1602 
4 1602 1623 1624 1603 
4 1603 1624 1625 1604 
4 1604 1625 1626 1605 
4 1605 1626 1627 1606 
4 1606 1627 1628 1607 
4 1607 1628 1629 1608 
4 1608 1629 1630 1609 
4 1609 1630 1631 1610 
4 1610 1631 1632 1611 
4 1611 1632 1633 1612 
4 1612 1633 1634 1613 
4 1613 1634 1635 1614 
4 1614 1635 1636 1615 
4 1615 1636 1637 1616 
4 1617 1638 1639 1618 
4 1618 1639 1640 1619 
4 1619 1640 1641 1620 
4 1620 1641 1642 1621 
4 1621 1642 1643 1622 
4 1622 1643 1644 1623 
4 1623 1644 1645 1624 
4 1624 1645 1646 1625 
4 1625 1646 1647 1626 
4 1626 1647 1648 1627 
4 1627 1648 1649 1628 
4 1628 1649 1650 1629 
4 1629 1650 1651 1630 
4 1630 1651 1652 1631 
4 1631 1652 1653 1632 
4 1632 1653 1654 1633 
4 1633 1654 1655 1634 
4 1634 1655 1656 1635 
4 1635 1656 1657 1636 
4 1636 1657 1658 1637 
4 1638 1659 1660 1639 
4 1639 1660 1661 1640 
4 1640 1661 1662 1641 
4 1641 1662 1663 1642 
4 1642 1663 1664 1643 
4 1643 1664 1665 1644 
4 1644 1665 1666 1645 
4 1645 1666 1667 1646 
4 1646 1667 1668 1647 
4 1647 1668 1669 1648 
4 1648 1669 1670 1649 
4 1649 1670 1671 1650 
4 1650 1671 1672 1651 
4 1651 1672 1673 1652 
4 1652 1673 1674 1653 
4 1653 1674 1675 1654 
4 1654 1675 1676 1655 
4 1655 1676 1677 1656 
4 1656 1677 1678 1657 
4 1657 1678 1679 1658 
4 1659 1680 1681 1660 
4 1660 1681 1682 1661 
4 1661 1682 1683 1662 
4 1662 1683 1684 1663 
4 1663 1684 1685 1664 
4 1664 1685 1686 1665 
4 1665 1686 1687 1666 
4 1666 1687 1688 1667 
4 1667 1688 1689 1668 
4 1668 1689 1690 1669 
4 1669 1690 1691 1670 
4 1670 1691 1692 1671 
4 1671 1692 1693 1672 
4 1672 1693 1694 1673 
4 1673 1694 1695 1674 
4 1674 1695 1696 1675 
4 1675 1696 1697 1676 
4 1676 1697 1698 1677 
4 1677 1698 1699 1678 
4 1678 1699 1700 1679 
CELL_TYPES 1600 
9 
9 
9 
9 
9 
9 
9 
9 
9 
9 
9 
9 
9 
9 
9 
9 
9 
9 
9 
9 
9 
9 
9 
9 
9 
9 
9 
9 
9 
9 
9 
9 
9 
9 
9 
9 
9 
9 
9 
9 
9 
9 
9 
9 
9 
9 
9 
9 
9 
9 
9 
9 
9 
9 
9 
9 
9 
9 
9 
9 
9 
9 
9 
9 
9 
9 
9 
9 
9 
9 
9 
9 
9 
9 
9 
9 
9 
9 
9 
9 
9 
9 
9 
9 
9 
9 
9 
9 
9 
9 
9 
9 
9 
9 
9 
9 
9 
9 
9 
9 
9 
9 
9 
9 
9 
9 
9 
9 
9 
9 
9 
9 
9 
9 
9 
9 
9 
9 
9 
9 
9 
9 
9 
9 
9 
9 
9 
9 
9 
9 
9 
9 
9 
9 
9 
9 
9 
9 
9 
9 
9 
9 
9 
9 
9 
9 
9 
9 
9 
9 
9 
9 
9 
9 
9 
9 
9 
9 
9 
9 
9 
9 
9 
9 
9 
9 
9 
9 
9 
9 
9 
9 
9 
9 
9 
9 
9 
9 
9 
9 
9 
9 
9 
9 
9 
9 
9 
9 
9 
9 
9 
9 
9 
9 
9 
9 
9 
9 
9 
9 
9 
9 
9 
9 
9 
9 
9 
9 
9 
9 
9 
9 
9 
9 
9 
9 
9 
9 
9 
9 
9 
9 
9 
9 
9 
9 
9 
9 
9 
9 
9 
9 
9 
9 
9 
9 
9 
9 
9 
9 
9 
9 
9 
9 
9 
9 
9 
9 
9 
9 
9 
9 
9 
9 
9 
9 
9 
9 
9 
9 
9 
9 
9 
9 
9 
9 
9 
9 
9 
9 
9 
9 
9 
9 
9 
9 
9 
9 
9 
9 
9 
9 
9 
9 
9 
9 
9 
9 
9 
9 
9 
9 
9 
9 
9 
9 
9 
9 
9 
9 
9 
9 
9 
9 
9 
9 
9 
9 
9 
9 
9 
9 
9 
9 
9 
9 
9 
9 
9 
9 
9 
9 
9 
9 
9 
9 
9 
9 
9 
9 
9 
9 
9 
9 
9 
9 
9 
9 
9 
9 
9 
9 
9 
9 
9 
9 
9 
9 
9 
9 
9 
9 
9 
9 
9 
9 
9 
9 
9 
9 
9 
9 
9 
9 
9 
9 
9 
9 
9 
9 
9 
9 
9 
9 
9 
9 
9 
9 
9 
9 
9 
9 
9 
9 
9 
9 
9 
9 
9 
9 
9 
9 
9 
9 
9 
9 
9 
9 
9 
9 
9 
9 
9 
9 
9 
9 
9 
9 
9 
9 
9 
9 
9 
9 
9 
9 
9 
9 
9 
9 
9 
9 
9 
9 
9 
9 
9 
9 
9 
9 
9 
9 
9 
9 
9 
9 
9 
9 
9 
9 
9 
9 
9 
9 
9 
9 
9 
9 
9 
9 
9 
9 
9 
9 
9 
9 
9 
9 
9 
9 
9 
9 
9 
9 
9 
9 
9 
9 
9 
9 
9 
9 
9 
9 
9 
9 
9 
9 
9 
9 
9 
9 
9 
9 
9 
9 
9 
9 
9 
9 
9 
9 
9 
9 
9 
9 
9 
9 
9 
9 
9 
9 
9 
9 
9 
9 
9 
9 
9 
9 
9 
9 
9 
9 
9 
9 
9 
9 
9 
9 
9 
9 
9 
9 
9 
9 
9 
9 
9 
9 
9 
9 
9 
9 
9 
9 
9 
9 
9 
9 
9 
9 
9 
9 
9 
9 
9 
9 
9 
9 
9 
9 
9 
9 
9 
9 
9 
9 
9 
9 
9 
9 
9 
9 
9 
9 
9 
9 
9 
9 
9 
9 
9 
9 
9 
9 
9 
9 
9 
9 
9 
9 
9 
9 
9 
9 
9 
9 
9 
9 
9 
9 
9 
9 
9 
9 
9 
9 
9 
9 
9 
9 
9 
9 
9 
9 
9 
9 
9 
9 
9 
9 
9 
9 
9 
9 
9 
9 
9 
9 
9 
9 
9 
9 
9 
9 
9 
9 
9 
9 
9 
9 
9 
9 
9 
9 
9 
9 
9 
9 
9 
9 
9 
9 
9 
9 
9 
9 
9 
9 
9 
9 
9 
9 
9 
9 
9 
9 
9 
9 
9 
9 
9 
9 
9 
9 
9 
9 
9 
9 
9 
9 
9 
9 
9 
9 
9 
9 
9 
9 
9 
9 
9 
9 
9 
9 
9 
9 
9 
9 
9 
9 
9 
9 
9 
9 
9 
9 
9 
9 
9 
9 
9 
9 
9 
9 
9 
9 
9 
9 
9 
9 
9 
9 
9 
9 
9 
9 
9 
9 
9 
9 
9 
9 
9 
9 
9 
9 
9 
9 
9 
9 
9 
9 
9 
9 
9 
9 
9 
9 
9 
9 
9 
9 
9 
9 
9 
9 
9 
9 
9 
9 
9 
9 
9 
9 
9 
9 
9 
9 
9 
9 
9 
9 
9 
9 
9 
9 
9 
9 
9 
9 
9 
9 
9 
9 
9 
9 
9 
9 
9 
9 
9 
9 
9 
9 
9 
9 
9 
9 
9 
9 
9 
9 
9 
9 
9 
9 
9 
9 
9 
9 
9 
9 
9 
9 
9 
9 
9 
9 
9 
9 
9 
9 
9 
9 
9 
9 
9 
9 
9 
9 
9 
9 
9 
9 
9 
9 
9 
9 
9 
9 
9 
9 
9 
9 
9 
9 
9 
9 
9 
9 
9 
9 
9 
9 
9 
9 
9 
9 
9 
9 
9 
9 
9 
9 
9 
9 
9 
9 
9 
9 
9 
9 
9 
9 
9 
9 
9 
9 
9 
9 
9 
9 
9 
9 
9 
9 
9 
9 
9 
9 
9 
9 
9 
9 
9 
9 
9 
9 
9 
9 
9 
9 
9 
9 
9 
9 
9 
9 
9 
9 
9 
9 
9 
9 
9 
9 
9 
9 
9 
9 
9 
9 
9 
9 
9 
9 
9 
9 
9 
9 
9 
9 
9 
9 
9 
9 
9 
9 
9 
9 
9 
9 
9 
9 
9 
9 
9 
9 
9 
9 
9 
9 
9 
9 
9 
9 
9 
9 
9 
9 
9 
9 
9 
9 
9 
9 
9 
9 
9 
9 
9 
9 
9 
9 
9 
9 
9 
9 
9 
9 
9 
9 
9 
9 
9 
9 
9 
9 
9 
9 
9 
9 
9 
9 
9 
9 
9 
9 
9 
9 
9 
9 
9 
9 
9 
9 
9 
9 
9 
9 
9 
9 
9 
9 
9 
9 
9 
9 
9 
9 
9 
9 
9 
9 
9 
9 
9 
9 
9 
9 
9 
9 
9 
9 
9 
9 
9 
9 
9 
9 
9 
9 
9 
9 
9 
9 
9 
9 
9 
9 
9 
9 
9 
9 
9 
9 
9 
9 
9 
9 
9 
9 
9 
9 
9 
9 
9 
9 
9 
9 
9 
9 
9 
9 
9 
9 
9 
9 
9 
9 
9 
9 
9 
9 
9 
9 
9 
9 
9 
9 
9 
9 
9 
9 
9 
9 
9 
9 
9 
9 
9 
9 
9 
9 
9 
9 
9 
9 
9 
9 
9 
9 
9 
9 
9 
9 
9 
9 
9 
9 
9 
9 
9 
9 
9 
9 
9 
9 
9 
9 
9 
9 
9 
9 
9 
9 
9 
9 
9 
9 
9 
9 
9 
9 
9 
9 
9 
9 
9 
9 
9 
9 
9 
9 
9 
9 
9 
9 
9 
9 
9 
9 
9 
9 
9 
9 
9 
9 
9 
9 
9 
9 
9 
9 
9 
9 
9 
9 
9 
9 
9 
9 
9 
9 
9 
9 
9 
9 
9 
9 
9 
9 
9 
9 
9 
9 
9 
9 
9 
9 
9 
9 
9 
9 
9 
9 
9 
9 
9 
9 
9 
9 
9 
9 
9 
9 
9 
9 
9 
9 
9 
9 
9 
9 
9 
9 
9 
9 
9 
9 
9 
9 
9 
9 
9 
9 
9 
9 
9 
9 
9 
9 
9 
9 
9 
9 
9 
9 
9 
9 
9 
9 
9 
9 
9 
9 
9 
9 
9 
9 
9 
9 
9 
9 
9 
9 
9 
9 
9 
9 
9 
9 
9 
9 
9 
9 
9 
9 
9 
9 
9 
9 
9 
9 
9 
9 
9 
9 
9 
9 
9 
9 
9 
9 
9 
9 
9 
9 
9 
9 
9 
9 
9 
9 
9 
9 
9 
9 
9 
9 
9 
9 
9 
9 
9 
9 
9 
9 
9 
9 
9 
9 
9 
9 
9 
9 
9 
9 
9 
9 
9 
9 
9 
9 
9 
9 
9 
9 
9 
9 
9 
9 
9 
9 
9 
9 
9 
9 
9 
9 
9 
9 
9 
9 
9 
9 
9 
9 
9 
9 
9 
9 
9 
9 
9 
9 
9 
9 
9 
9 
9 
9 
9 
9 
9 
9 
9 
9 
9 
9 
9 
9 
9 
9 
9 
9 
9 
9 
9 
9 
9 
9 
9 
9 
9 
9 
9 
9 
9 
9 
9 
9 
9 
9 
9 
9 
9 
9 
9 
9 
9 
9 
9 
9 
9 
9 
9 
9 
9 
9 
9 
9 
9 
9 
9 
9 
9 
9 
9 
9 
9 
9 
9 
9 
9 
9 
9 
9 
9 
9 
9 
9 
9 
9 
9 
9 
9 
9 
9 
9 
9 
9 
9 
9 
9 
9 
9 
9 
9 
9 
9 
9 
9 
9 
9 
9 
9 
9 
9 
9 
9 
9 
9 
9 
9 
9 
9 
9 
9 
9 
9 
9 
9 
9 
9 
9 
9 
9 
9 
9 
9 
9 
9 
9 
9 
9 
9 
9 
9 
9 
9 
9 
9 
9 
9 
9 
9 
9 
9 
9 
9 
9 
9 
9 
9 
9 
9 
9 
9 
9 
9 
9 
9 
9 
9 
9 
9 
9 
9 
9 
9 
9 
9 
9 
9 
9 
9 
9 
9 
9 
9 
9 
9 
9 
9 
9 
9 
9 
9 
9 
9 
9 
9 
9 
9 
9 
9 
9 
9 
9 
9 
9 
9 
9 
9 
9 
9 
9 
9 
9 
9 
9 
9 
9 
9 
9 
9 
9 
9 
9 
9 
9 
9 
9 
9 
9 
9 
9 
9 
9 
9 
9 
9 
9 
9 
9 
9 
9 
9 
9 
9 
9 
9 
9 
9 
9 
9 
9 
CELL_DATA 1600 
FIELD FieldData 2 
density 1 1600 float
0.001000 
0.001000 
0.001000 
0.001000 
0.001000 
0.001000 
0.001000 
0.001000 
0.001000 
0.001092 
0.006891 
0.051717 
0.197635 
0.522922 
0.812893 
0.938844 
0.959053 
0.968688 
0.953165 
0.949689 
0.952494 
0.943195 
0.941779 
0.943961 
0.938701 
0.938136 
0.938584 
0.936120 
0.937500 
0.938570 
0.936469 
0.939755 
0.940352 
0.938807 
0.941884 
0.942411 
0.941890 
0.943937 
0.944117 
0.944098 
0.945777 
0.947924 
0.948339 
0.947265 
0.950846 
0.952884 
0.948286 
0.958476 
0.954564 
0.925121 
0.001000 
0.001000 
0.001000 
0.001000 
0.001000 
0.001000 
0.001000 
0.001000 
0.001037 
0.005420 
0.051253 
0.227265 
0.480835 
0.731823 
0.867560 
0.834983 
0.761727 
0.725852 
0.709698 
0.696138 
0.690136 
0.682308 
0.673962 
0.673766 
0.667558 
0.665130 
0.662186 
0.662064 
0.661707 
0.662739 
0.663405 
0.665725 
0.667663 
0.668405 
0.670998 
0.673192 
0.674679 
0.676070 
0.678271 
0.678918 
0.682431 
0.686332 
0.687153 
0.688885 
0.693470 
0.695086 
0.697312 
0.707515 
0.684260 
0.654799 
0.001000 
0.001000 
0.001000 
0.001000 
0.001000 
0.001000 
0.001000 
0.001030 
0.004656 
0.048424 
0.259860 
0.572355 
0.798959 
0.864406 
0.812605 
0.622460 
0.420738 
0.298440 
0.246912 
0.239264 
0.237016 
0.226808 
0.225659 
0.222062 
0.220312 
0.215927 
0.217211 
0.213829 
0.215817 
0.215925 
0.215665 
0.218253 
0.219222 
0.219308 
0.221692 
0.223260 
0.223290 
0.225857 
0.225836 
0.227400 
0.229358 
0.231909 
0.233270 
0.233581 
0.237238 
0.238620 
0.240791 
0.243798 
0.241254 
0.210678 
0.001000 
0.001000 
0.001000 
0.001000 
0.001000 
0.001000 
0.001030 
0.004648 
0.048346 
0.259580 
0.599614 
0.826824 
0.757912 
0.699503 
0.671458 
0.491327 
0.199982 
0.060615 
0.023720 
0.019005 
0.018507 
0.017873 
0.017211 
0.017194 
0.016710 
0.016522 
0.016296 
0.016287 
0.016260 
0.016339 
0.016390 
0.016567 
0.016716 
0.016773 
0.016974 
0.017145 
0.017261 
0.017370 
0.017542 
0.017593 
0.017873 
0.018186 
0.018252 
0.018393 
0.018767 
0.018900 
0.019082 
0.019931 
0.019597 
0.016647 
0.001000 
0.001000 
0.001000 
0.001000 
0.001000 
0.001030 
0.004647 
0.048304 
0.259306 
0.599186 
0.797903 
0.599223 
0.375445 
0.347348 
0.537020 
0.529182 
0.219149 
0.026778 
0.002129 
0.001118 
0.001123 
0.001107 
0.001104 
0.001108 
0.001099 
0.001098 
0.001099 
0.001095 
0.001097 
0.001099 
0.001096 
0.001101 
0.001102 
0.001100 
0.001104 
0.001105 
0.001104 
0.001108 
0.001108 
0.001108 
0.001111 
0.001114 
0.001115 
0.001113 
0.001119 
0.001123 
0.001115 
0.001133 
0.001158 
0.001108 
0.001000 
0.001000 
0.001000 
0.001000 
0.001030 
0.004643 
0.048291 
0.259230 
0.603470 
0.809842 
0.575389 
0.239973 
0.082194 
0.108324 
0.362588 
0.623364 
0.359690 
0.053250 
0.002469 
0.001001 
0.001000 
0.001000 
0.001000 
0.001000 
0.001000 
0.001000 
0.001000 
0.001000 
0.001000 
0.001000 
0.001000 
0.001000 
0.001000 
0.001000 
0.001000 
0.001000 
0.001000 
0.001000 
0.001000 
0.001000 
0.001000 
0.001000 
0.001000 
0.001000 
0.001000 
0.001000 
0.001000 
0.001000 
0.001000 
0.001000 
0.001000 
0.001000 
0.001000 
0.001030 
0.004624 
0.048200 
0.259101 
0.601734 
0.816270 
0.594418 
0.246430 
0.043193 
0.008456 
0.020404 
0.195599 
0.575978 
0.526442 
0.139507 
0.009224 
0.001056 
0.001000 
0.001000 
0.001000 
0.001000 
0.001000 
0.001000 
0.001000 
0.001000 
0.001000 
0.001000 
0.001000 
0.001000 
0.001000 
0.001000 
0.001000 
0.001000 
0.001000 
0.001000 
0.001000 
0.001000 
0.001000 
0.001000 
0.001000 
0.001000 
0.001000 
0.001000 
0.001000 
0.001000 
0.001000 
0.001000 
0.001000 
0.001000 
0.001030 
0.004611 
0.048004 
0.258407 
0.601592 
0.812595 
0.591598 
0.252749 
0.046558 
0.004309 
0.001088 
0.003775 
0.072432 
0.410919 
0.605367 
0.291367 
0.035424 
0.001763 
0.001000 
0.001000 
0.001000 
0.001000 
0.001000 
0.001000 
0.001000 
0.001000 
0.001000 
0.001000 
0.001000 
0.001000 
0.001000 
0.001000 
0.001000 
0.001000 
0.001000 
0.001000 
0.001000 
0.001000 
0.001000 
0.001000 
0.001000 
0.001000 
0.001000 
0.001000 
0.001000 
0.001000 
0.001000 
0.001000 
0.001000 
0.001037 
0.004637 
0.048070 
0.257895 
0.600443 
0.813137 
0.591393 
0.248855 
0.046050 
0.004476 
0.001030 
0.001000 
0.001274 
0.021852 
0.230794 
0.582527 
0.470003 
0.104331 
0.005920 
0.001017 
0.001000 
0.001000 
0.001000 
0.001000 
0.001000 
0.001000 
0.001000 
0.001000 
0.001000 
0.001000 
0.001000 
0.001000 
0.001000 
0.001000 
0.001000 
0.001000 
0.001000 
0.001000 
0.001000 
0.001000 
0.001000 
0.001000 
0.001000 
0.001000 
0.001000 
0.001000 
0.001000 
0.001000 
0.001000 
0.001092 
0.005418 
0.048363 
0.258924 
0.600110 
0.810113 
0.590338 
0.250541 
0.046023 
0.004383 
0.001027 
0.001000 
0.001000 
0.001013 
0.005392 
0.098705 
0.466985 
0.591636 
0.237063 
0.022555 
0.001278 
0.001000 
0.001000 
0.001000 
0.001000 
0.001000 
0.001000 
0.001000 
0.001000 
0.001000 
0.001000 
0.001000 
0.001000 
0.001000 
0.001000 
0.001000 
0.001000 
0.001000 
0.001000 
0.001000 
0.001000 
0.001000 
0.001000 
0.001000 
0.001000 
0.001000 
0.001000 
0.001000 
0.001000 
0.001000 
0.006900 
0.051272 
0.259856 
0.603382 
0.813798 
0.588737 
0.247493 
0.045875 
0.004415 
0.001028 
0.001000 
0.001000 
0.001000 
0.001000 
0.001697 
0.035870 
0.299437 
0.620320 
0.412134 
0.070666 
0.003580 
0.001003 
0.001000 
0.001000 
0.001000 
0.001000 
0.001000 
0.001000 
0.001000 
0.001000 
0.001000 
0.001000 
0.001000 
0.001000 
0.001000 
0.001000 
0.001000 
0.001000 
0.001000 
0.001000 
0.001000 
0.001000 
0.001000 
0.001000 
0.001000 
0.001000 
0.001000 
0.001000 
0.001000 
0.001000 
0.051513 
0.227128 
0.572354 
0.827369 
0.627195 
0.276376 
0.049983 
0.004425 
0.001028 
0.001000 
0.001000 
0.001000 
0.001000 
0.001000 
0.001067 
0.010319 
0.153346 
0.544630 
0.574085 
0.193072 
0.015674 
0.001162 
0.001000 
0.001000 
0.001000 
0.001000 
0.001000 
0.001000 
0.001000 
0.001000 
0.001000 
0.001000 
0.001000 
0.001000 
0.001000 
0.001000 
0.001000 
0.001000 
0.001000 
0.001000 
0.001000 
0.001000 
0.001000 
0.001000 
0.001000 
0.001000 
0.001000 
0.001000 
0.001000 
0.001000 
0.197148 
0.479768 
0.779968 
0.733914 
0.414116 
0.115865 
0.018155 
0.002135 
0.001105 
0.001005 
0.001000 
0.001000 
0.001000 
0.001000 
0.001001 
0.002791 
0.057960 
0.377728 
0.650424 
0.370396 
0.056073 
0.002729 
0.001001 
0.001000 
0.001000 
0.001000 
0.001000 
0.001000 
0.001000 
0.001000 
0.001000 
0.001000 
0.001000 
0.001000 
0.001000 
0.001000 
0.001000 
0.001000 
0.001000 
0.001000 
0.001000 
0.001000 
0.001000 
0.001000 
0.001000 
0.001000 
0.001000 
0.001000 
0.001000 
0.001000 
0.523859 
0.718641 
0.808542 
0.661360 
0.368207 
0.181295 
0.068079 
0.032907 
0.013839 
0.004051 
0.001508 
0.001234 
0.001092 
0.001004 
0.001000 
0.001180 
0.016742 
0.202187 
0.583355 
0.543536 
0.148026 
0.009212 
0.001047 
0.001000 
0.001000 
0.001000 
0.001000 
0.001000 
0.001000 
0.001000 
0.001000 
0.001000 
0.001000 
0.001000 
0.001000 
0.001000 
0.001000 
0.001000 
0.001000 
0.001000 
0.001000 
0.001000 
0.001000 
0.001000 
0.001000 
0.001000 
0.001000 
0.001000 
0.001000 
0.001000 
0.818597 
0.837033 
0.760224 
0.604287 
0.531391 
0.444906 
0.390782 
0.311366 
0.195301 
0.082759 
0.041180 
0.026486 
0.012975 
0.003773 
0.001448 
0.001420 
0.007141 
0.080557 
0.413771 
0.608730 
0.274479 
0.028026 
0.001621 
0.001078 
0.001121 
0.001072 
0.001085 
0.001099 
0.001087 
0.001091 
0.001098 
0.001095 
0.001092 
0.001101 
0.001095 
0.001091 
0.001102 
0.001096 
0.001093 
0.001097 
0.001094 
0.001094 
0.001092 
0.001089 
0.001096 
0.001089 
0.001085 
0.001095 
0.001098 
0.001072 
0.926914 
0.784682 
0.547474 
0.423762 
0.429268 
0.543586 
0.623138 
0.630814 
0.547669 
0.440096 
0.359375 
0.292009 
0.189647 
0.078548 
0.038920 
0.024107 
0.023520 
0.066772 
0.294295 
0.585144 
0.412937 
0.088772 
0.017760 
0.012542 
0.016040 
0.015113 
0.014611 
0.015680 
0.015580 
0.015578 
0.016043 
0.015914 
0.016039 
0.016214 
0.015993 
0.016077 
0.016183 
0.016273 
0.015951 
0.015955 
0.016036 
0.015745 
0.015612 
0.015503 
0.015709 
0.015279 
0.015381 
0.015145 
0.014747 
0.012566 
0.916313 
0.652929 
0.316148 
0.132235 
0.127454 
0.177715 
0.262024 
0.333744 
0.433449 
0.544068 
0.644815 
0.649262 
0.551695 
0.437052 
0.348763 
0.276214 
0.190937 
0.168865 
0.324867 
0.636184 
0.598506 
0.321690 
0.164223 
0.188449 
0.211247 
0.200877 
0.203876 
0.208537 
0.208324 
0.210040 
0.211925 
0.213242 
0.211863 
0.214902 
0.214042 
0.210628 
0.217431 
0.213187 
0.212493 
0.213525 
0.211155 
0.212131 
0.207959 
0.209287 
0.208432 
0.208951 
0.203505 
0.207700 
0.193127 
0.178883 
0.894730 
0.570389 
0.180836 
0.028970 
0.009384 
0.012924 
0.021236 
0.037080 
0.078454 
0.189585 
0.294613 
0.371869 
0.459953 
0.564310 
0.644838 
0.643612 
0.550460 
0.494976 
0.576705 
0.785693 
0.851120 
0.688235 
0.597173 
0.629874 
0.676922 
0.665028 
0.658412 
0.672334 
0.671050 
0.671005 
0.676909 
0.675259 
0.676830 
0.679027 
0.676249 
0.677309 
0.678650 
0.679765 
0.675696 
0.675746 
0.676774 
0.673073 
0.671388 
0.669997 
0.672642 
0.667113 
0.668439 
0.665361 
0.643830 
0.620591 
0.883743 
0.551624 
0.142650 
0.010269 
0.001219 
0.001071 
0.001152 
0.001446 
0.003766 
0.012966 
0.027475 
0.045286 
0.093854 
0.205762 
0.309556 
0.406590 
0.540699 
0.702963 
0.841825 
0.941741 
0.990105 
0.943234 
0.903467 
0.943486 
0.964332 
0.939922 
0.947225 
0.954339 
0.948688 
0.950584 
0.953708 
0.952199 
0.951109 
0.955133 
0.952477 
0.950430 
0.955788 
0.953048 
0.951233 
0.953409 
0.951889 
0.952009 
0.950713 
0.949160 
0.952846 
0.949504 
0.947468 
0.952537 
0.941433 
0.925862 
0.890814 
0.549785 
0.146107 
0.008879 
0.001042 
0.001000 
0.001000 
0.001000 
0.001004 
0.001092 
0.001257 
0.001680 
0.004820 
0.014871 
0.034662 
0.085520 
0.267375 
0.613675 
0.905240 
0.994062 
0.999941 
0.999946 
0.999937 
0.999932 
0.999931 
0.999928 
0.999923 
0.999920 
0.999919 
0.999914 
0.999903 
0.999890 
0.999881 
0.999878 
0.999877 
0.999876 
0.999876 
0.999872 
0.999867 
0.999864 
0.999862 
0.999862 
0.999863 
0.999864 
0.999866 
0.999871 
0.999876 
0.999869 
0.999846 
0.999816 
0.890367 
0.554159 
0.144089 
0.009122 
0.001041 
0.001000 
0.001000 
0.001000 
0.001000 
0.001000 
0.001000 
0.001000 
0.001009 
0.001414 
0.006388 
0.041799 
0.194167 
0.565834 
0.879898 
0.999874 
0.887503 
0.551083 
0.145142 
0.008949 
0.001039 
0.001000 
0.001000 
0.001000 
0.001000 
0.001000 
0.001000 
0.001000 
0.001042 
0.004190 
0.033931 
0.154652 
0.375885 
0.621899 
0.826113 
0.950767 
0.890550 
0.550862 
0.143579 
0.008936 
0.001041 
0.001000 
0.001000 
0.001000 
0.001000 
0.001000 
0.001005 
0.001318 
0.006833 
0.049523 
0.239308 
0.461674 
0.517161 
0.513439 
0.631928 
0.787210 
0.886176 
0.549826 
0.144519 
0.008878 
0.001037 
0.001000 
0.001000 
0.001000 
0.001000 
0.001031 
0.003108 
0.020354 
0.088095 
0.291810 
0.542152 
0.553118 
0.343285 
0.252400 
0.387089 
0.659904 
0.890680 
0.555845 
0.144962 
0.009216 
0.001041 
0.001000 
0.001000 
0.001003 
0.001210 
0.005843 
0.043323 
0.197010 
0.399977 
0.553385 
0.520392 
0.283622 
0.094231 
0.095980 
0.299250 
0.648399 
0.894375 
0.552830 
0.147634 
0.009047 
0.001045 
0.001000 
0.001028 
0.002799 
0.017384 
0.076822 
0.278606 
0.515051 
0.550344 
0.386594 
0.189933 
0.046506 
0.013709 
0.041294 
0.275853 
0.704346 
0.882044 
0.545703 
0.139656 
0.008655 
0.001087 
0.001154 
0.005455 
0.041076 
0.182583 
0.380711 
0.547514 
0.517281 
0.282896 
0.080148 
0.018245 
0.003036 
0.001814 
0.027361 
0.273287 
0.710476 
0.884592 
0.552421 
0.145603 
0.012795 
0.003880 
0.014286 
0.069874 
0.270615 
0.506898 
0.555232 
0.405060 
0.200408 
0.044397 
0.006133 
0.001240 
0.001004 
0.001180 
0.025504 
0.265837 
0.696737 
0.905824 
0.578833 
0.184793 
0.043243 
0.046762 
0.156638 
0.357024 
0.541065 
0.524937 
0.297010 
0.092035 
0.021208 
0.003199 
0.001034 
0.001000 
0.001000 
0.001175 
0.025020 
0.263379 
0.690171 
0.909706 
0.604692 
0.268289 
0.144455 
0.259586 
0.467858 
0.544936 
0.416533 
0.209914 
0.048102 
0.007233 
0.001359 
0.001006 
0.001000 
0.001000 
0.001000 
0.001172 
0.024881 
0.257833 
0.688293 
0.885687 
0.626263 
0.375325 
0.345406 
0.502479 
0.520715 
0.306444 
0.102475 
0.023504 
0.003477 
0.001047 
0.001000 
0.001000 
0.001000 
0.001000 
0.001000 
0.001171 
0.024379 
0.260609 
0.681474 
0.845846 
0.666277 
0.492240 
0.503215 
0.464826 
0.257608 
0.055750 
0.008302 
0.001479 
0.001008 
0.001000 
0.001000 
0.001000 
0.001000 
0.001000 
0.001000 
0.001168 
0.024482 
0.253099 
0.682902 
0.726473 
0.694804 
0.629186 
0.489359 
0.251335 
0.049198 
0.004985 
0.001061 
0.001000 
0.001000 
0.001000 
0.001000 
0.001000 
0.001000 
0.001000 
0.001000 
0.001167 
0.023771 
0.255743 
0.673148 
0.454105 
0.623535 
0.688573 
0.445877 
0.121009 
0.012182 
0.001118 
0.001000 
0.001000 
0.001000 
0.001000 
0.001000 
0.001000 
0.001000 
0.001000 
0.001000 
0.001159 
0.023844 
0.250037 
0.674173 
0.163974 
0.412167 
0.639129 
0.512935 
0.172446 
0.027142 
0.002711 
0.001018 
0.001000 
0.001000 
0.001000 
0.001000 
0.001000 
0.001000 
0.001000 
0.001000 
0.001168 
0.024034 
0.253494 
0.676819 
0.037017 
0.167704 
0.438216 
0.592693 
0.426103 
0.178726 
0.033352 
0.003186 
0.001014 
0.001000 
0.001000 
0.001000 
0.001000 
0.001000 
0.001000 
0.001000 
0.001168 
0.023681 
0.254111 
0.671993 
0.004128 
0.030186 
0.160066 
0.420970 
0.609018 
0.487140 
0.197931 
0.033702 
0.003321 
0.001020 
0.001000 
0.001000 
0.001000 
0.001000 
0.001000 
0.001000 
0.001151 
0.023323 
0.243458 
0.667057 
0.001034 
0.002680 
0.022725 
0.136541 
0.403760 
0.613256 
0.487667 
0.205278 
0.038423 
0.003892 
0.001025 
0.001000 
0.001000 
0.001000 
0.001000 
0.001000 
0.001158 
0.023179 
0.252289 
0.665065 
0.001000 
0.001008 
0.001966 
0.018609 
0.121851 
0.385507 
0.608582 
0.511754 
0.229199 
0.043467 
0.004378 
0.001030 
0.001000 
0.001000 
0.001000 
0.001000 
0.001171 
0.024234 
0.250327 
0.679657 
0.001000 
0.001000 
0.001004 
0.001743 
0.016828 
0.114950 
0.370049 
0.607139 
0.533636 
0.248973 
0.047308 
0.004637 
0.001031 
0.001000 
0.001000 
0.001000 
0.001163 
0.023686 
0.256012 
0.672100 
0.001000 
0.001000 
0.001000 
0.001003 
0.001631 
0.014483 
0.098101 
0.345356 
0.603436 
0.550302 
0.258817 
0.048424 
0.004742 
0.001036 
0.001000 
0.001000 
0.001159 
0.023952 
0.249061 
0.675723 
0.001000 
0.001000 
0.001000 
0.001000 
0.001002 
0.001423 
0.011593 
0.086032 
0.327680 
0.593509 
0.551519 
0.261269 
0.050069 
0.005194 
0.001056 
0.001000 
0.001171 
0.024638 
0.262352 
0.685030 
0.001000 
0.001000 
0.001000 
0.001000 
0.001000 
0.001001 
0.001285 
0.009707 
0.075274 
0.307200 
0.574932 
0.550215 
0.268771 
0.055035 
0.006043 
0.001087 
0.001230 
0.026421 
0.271096 
0.708765 
0.001000 
0.001000 
0.001000 
0.001000 
0.001000 
0.001000 
0.001000 
0.001189 
0.007944 
0.065001 
0.283696 
0.553848 
0.555374 
0.281716 
0.060903 
0.007476 
0.002687 
0.030996 
0.284993 
0.727135 
0.001000 
0.001000 
0.001000 
0.001000 
0.001000 
0.001000 
0.001000 
0.001000 
0.001111 
0.006180 
0.053345 
0.263929 
0.546616 
0.567253 
0.301287 
0.078961 
0.022949 
0.052051 
0.291317 
0.722566 
0.001000 
0.001000 
0.001000 
0.001000 
0.001000 
0.001000 
0.001000 
0.001000 
0.001000 
0.001050 
0.004894 
0.048625 
0.260253 
0.548097 
0.600041 
0.348178 
0.134927 
0.111987 
0.294547 
0.636547 
0.001000 
0.001000 
0.001000 
0.001000 
0.001000 
0.001000 
0.001000 
0.001000 
0.001000 
0.001000 
0.001031 
0.004675 
0.048381 
0.258256 
0.555958 
0.617568 
0.387993 
0.236940 
0.323463 
0.523812 
0.001000 
0.001000 
0.001000 
0.001000 
0.001000 
0.001000 
0.001000 
0.001000 
0.001000 
0.001000 
0.001000 
0.001031 
0.004619 
0.047050 
0.247762 
0.523005 
0.577189 
0.474601 
0.418839 
0.510259 
0.001000 
0.001000 
0.001000 
0.001000 
0.001000 
0.001000 
0.001000 
0.001000 
0.001000 
0.001000 
0.001000 
0.001000 
0.001036 
0.005040 
0.050151 
0.252479 
0.524094 
0.625702 
0.613177 
0.544556 
0.001000 
0.001000 
0.001000 
0.001000 
0.001000 
0.001000 
0.001000 
0.001000 
0.001000 
0.001000 
0.001000 
0.001000 
0.001000 
0.001076 
0.008293 
0.081738 
0.351778 
0.669480 
0.736207 
0.700130 

stress 1 1600 float
0.000228 
0.000149 
0.000961 
0.002533 
0.005085 
0.008658 
0.012937 
0.018339 
0.027419 
0.513657 
0.701269 
0.841365 
0.985435 
0.981871 
1.055020 
1.171465 
1.267019 
1.295427 
1.319071 
1.339371 
1.357844 
1.387408 
1.410684 
1.427137 
1.450800 
1.467918 
1.483323 
1.499130 
1.510535 
1.520569 
1.532620 
1.538172 
1.545384 
1.554166 
1.557226 
1.562121 
1.567597 
1.570145 
1.573666 
1.577508 
1.578416 
1.578458 
1.580918 
1.584340 
1.582256 
1.582494 
1.589241 
1.578089 
1.595665 
1.547856 
0.000147 
0.001325 
0.003137 
0.005550 
0.008580 
0.012168 
0.016063 
0.021325 
0.371044 
0.795860 
1.094070 
1.282438 
1.365993 
1.282650 
1.190114 
1.169145 
1.206641 
1.253951 
1.301718 
1.333298 
1.344461 
1.356335 
1.358414 
1.352373 
1.352635 
1.350193 
1.344976 
1.340567 
1.332810 
1.325310 
1.319509 
1.309866 
1.302638 
1.297953 
1.289752 
1.283322 
1.278969 
1.273227 
1.268786 
1.265087 
1.258389 
1.251206 
1.247891 
1.244695 
1.236617 
1.232638 
1.230568 
1.225802 
1.242062 
1.167953 
0.000952 
0.003163 
0.005630 
0.008520 
0.011822 
0.015360 
0.019415 
0.315181 
0.700584 
1.043129 
1.269053 
1.350052 
1.329095 
1.201292 
1.119717 
1.123654 
1.154661 
1.202456 
1.232030 
1.203598 
1.177785 
1.173586 
1.150462 
1.129840 
1.109178 
1.094421 
1.069139 
1.053759 
1.029030 
1.009221 
0.991612 
0.969640 
0.952401 
0.938597 
0.921427 
0.906966 
0.896513 
0.883041 
0.874190 
0.864008 
0.852561 
0.840649 
0.832287 
0.825231 
0.812710 
0.804735 
0.794751 
0.776596 
0.756719 
0.838572 
0.002548 
0.005671 
0.008720 
0.011792 
0.015049 
0.019080 
0.300687 
0.645842 
0.960481 
1.232871 
1.334736 
1.312822 
1.181955 
1.020228 
0.975467 
1.071557 
1.183328 
1.112972 
1.084624 
0.964871 
0.856947 
0.814419 
0.781792 
0.750205 
0.727447 
0.705257 
0.679604 
0.657907 
0.632463 
0.609166 
0.588425 
0.564978 
0.545035 
0.528330 
0.509550 
0.493289 
0.479980 
0.465686 
0.453969 
0.442674 
0.430138 
0.417624 
0.407976 
0.399071 
0.386456 
0.376167 
0.363245 
0.338797 
0.322393 
0.474109 
0.005055 
0.008678 
0.011816 
0.014853 
0.018755 
0.298656 
0.639519 
0.943164 
1.213247 
1.347067 
1.365548 
1.266122 
1.085797 
1.038178 
1.035866 
1.086907 
1.206880 
1.360480 
1.158092 
0.820029 
0.735211 
0.679641 
0.657636 
0.645288 
0.624651 
0.608432 
0.591942 
0.567490 
0.546190 
0.522002 
0.491846 
0.466877 
0.437890 
0.406513 
0.379548 
0.350542 
0.321308 
0.295264 
0.268566 
0.243410 
0.219989 
0.197807 
0.176876 
0.156655 
0.139025 
0.122561 
0.105711 
0.092906 
0.101561 
0.157152 
0.008334 
0.011548 
0.014461 
0.018099 
0.300832 
0.640402 
0.941738 
1.212247 
1.349222 
1.375269 
1.291522 
1.167713 
1.037795 
1.304869 
1.216141 
1.162017 
1.160393 
1.132214 
0.998205 
0.355819 
0.040337 
0.038163 
0.036685 
0.034978 
0.033195 
0.031778 
0.029879 
0.028588 
0.027924 
0.027452 
0.026854 
0.025919 
0.024907 
0.023736 
0.022364 
0.020625 
0.018630 
0.016479 
0.014162 
0.012204 
0.010775 
0.009496 
0.008101 
0.006702 
0.005524 
0.004505 
0.003479 
0.002673 
0.002788 
0.004618 
0.011794 
0.014492 
0.017790 
0.308926 
0.647804 
0.945614 
1.213540 
1.354596 
1.376355 
1.266161 
1.098426 
0.928883 
1.035692 
1.424778 
1.262822 
1.260348 
1.256239 
1.104893 
0.829351 
0.515074 
0.038575 
0.036733 
0.036299 
0.034417 
0.031934 
0.029835 
0.028399 
0.027460 
0.026871 
0.026080 
0.024899 
0.023916 
0.023375 
0.022753 
0.021476 
0.019873 
0.018161 
0.016352 
0.014337 
0.012388 
0.010829 
0.009437 
0.007877 
0.006210 
0.004669 
0.003373 
0.002114 
0.000897 
0.001331 
0.003094 
0.016258 
0.019509 
0.334166 
0.673425 
0.960001 
1.219640 
1.355787 
1.382707 
1.270831 
1.065653 
0.804138 
0.695930 
0.740999 
1.204076 
1.132954 
1.300139 
1.376844 
1.222869 
0.904597 
0.587142 
0.198981 
0.034642 
0.034791 
0.033875 
0.031590 
0.029390 
0.028408 
0.028063 
0.027230 
0.025197 
0.022986 
0.022068 
0.021843 
0.021163 
0.019770 
0.018117 
0.016761 
0.015520 
0.013992 
0.012214 
0.010714 
0.009256 
0.007657 
0.005888 
0.004229 
0.002906 
0.001795 
0.001110 
0.001713 
0.002919 
0.024951 
0.398526 
0.754192 
1.005801 
1.235218 
1.355528 
1.377732 
1.269994 
1.072195 
0.786899 
0.590961 
0.482380 
0.052335 
0.815459 
0.913537 
1.214507 
1.398596 
1.329408 
1.066235 
0.709236 
0.337759 
0.031566 
0.031777 
0.032445 
0.031578 
0.030024 
0.029675 
0.029195 
0.027042 
0.023995 
0.021880 
0.021426 
0.021345 
0.020240 
0.018264 
0.016503 
0.015088 
0.014336 
0.013262 
0.011851 
0.010335 
0.008905 
0.007369 
0.005768 
0.004295 
0.003249 
0.002618 
0.002467 
0.002883 
0.003631 
0.546574 
0.845099 
1.103990 
1.275701 
1.353796 
1.363542 
1.262717 
1.069185 
0.788242 
0.580088 
0.433815 
0.039199 
0.040741 
0.519604 
0.757185 
1.071826 
1.328876 
1.394298 
1.216480 
0.882326 
0.481570 
0.029249 
0.028459 
0.030616 
0.031057 
0.030285 
0.029882 
0.029088 
0.026571 
0.023359 
0.021788 
0.021463 
0.020851 
0.018988 
0.016914 
0.014952 
0.013665 
0.012991 
0.012341 
0.011107 
0.009724 
0.008398 
0.007111 
0.005822 
0.004768 
0.004043 
0.003689 
0.003670 
0.004029 
0.004630 
0.725802 
1.130212 
1.306774 
1.346238 
1.327987 
1.239404 
1.089472 
0.819741 
0.608544 
0.450424 
0.037609 
0.036663 
0.039073 
0.211010 
0.688021 
0.869982 
1.192345 
1.379694 
1.328129 
1.074732 
0.684415 
0.243345 
0.026710 
0.028511 
0.029434 
0.029159 
0.028720 
0.027756 
0.025497 
0.023386 
0.022392 
0.021634 
0.019889 
0.017714 
0.015725 
0.014059 
0.012785 
0.012093 
0.011449 
0.010327 
0.009099 
0.008030 
0.007101 
0.006275 
0.005619 
0.005199 
0.004967 
0.004970 
0.005320 
0.005955 
0.859102 
1.302240 
1.357859 
1.288815 
1.185530 
1.072876 
0.914553 
0.771582 
0.527147 
0.042017 
0.038293 
0.038498 
0.038519 
0.040341 
0.568595 
0.691515 
1.016692 
1.284375 
1.355479 
1.172069 
0.821655 
0.416648 
0.025347 
0.025710 
0.026662 
0.026277 
0.025967 
0.025570 
0.024436 
0.023591 
0.022859 
0.021619 
0.019481 
0.017372 
0.015697 
0.014296 
0.013086 
0.012231 
0.011469 
0.010442 
0.009448 
0.008674 
0.008040 
0.007524 
0.007167 
0.006934 
0.006762 
0.006737 
0.007109 
0.007902 
1.002810 
1.376136 
1.318014 
1.147426 
1.038792 
1.049728 
1.275999 
1.203684 
0.865846 
0.459490 
0.108295 
0.041521 
0.039457 
0.039206 
0.317188 
0.617606 
0.858024 
1.171189 
1.339928 
1.258522 
0.985422 
0.618257 
0.198768 
0.023200 
0.023227 
0.023216 
0.023357 
0.023530 
0.023381 
0.023223 
0.022720 
0.021556 
0.019886 
0.018246 
0.016866 
0.015542 
0.014349 
0.013429 
0.012565 
0.011678 
0.010922 
0.010278 
0.009744 
0.009361 
0.009129 
0.009016 
0.008941 
0.008961 
0.009364 
0.010580 
1.001464 
1.287028 
1.178559 
0.986115 
0.969194 
1.188517 
1.396807 
1.207051 
0.881627 
0.827929 
0.770711 
0.725640 
0.638934 
0.387902 
0.050061 
0.600200 
0.741259 
1.062422 
1.306457 
1.330667 
1.141332 
0.818134 
0.346614 
0.021577 
0.021106 
0.021268 
0.021844 
0.022120 
0.022479 
0.022508 
0.022193 
0.021386 
0.020392 
0.019231 
0.017977 
0.016767 
0.015673 
0.014794 
0.013968 
0.013145 
0.012392 
0.011736 
0.011169 
0.010774 
0.010572 
0.010525 
0.010621 
0.010794 
0.011517 
0.013496 
1.075661 
1.176753 
1.078982 
0.948983 
1.008578 
1.150364 
1.222220 
1.148031 
1.106613 
1.159310 
1.030664 
0.766315 
0.616758 
0.654013 
0.654377 
0.758134 
0.848120 
1.030144 
1.282544 
1.415991 
1.342767 
1.107071 
0.599805 
0.395000 
0.420436 
0.385051 
0.392288 
0.393674 
0.378109 
0.370300 
0.360790 
0.345701 
0.329664 
0.317666 
0.300143 
0.282191 
0.271284 
0.253753 
0.239661 
0.229217 
0.216827 
0.209645 
0.202349 
0.197449 
0.194515 
0.192708 
0.188226 
0.194846 
0.211692 
0.275891 
1.210738 
1.150895 
1.077565 
1.093147 
1.155829 
1.163196 
1.208885 
1.299158 
1.385909 
1.428890 
1.293941 
1.089218 
0.981817 
1.014419 
0.890154 
0.740271 
0.710791 
0.738998 
1.075344 
1.361325 
1.424071 
1.194246 
0.683174 
0.330773 
0.277251 
0.309444 
0.328660 
0.334523 
0.351314 
0.363963 
0.372062 
0.384691 
0.396507 
0.403309 
0.416210 
0.427925 
0.430125 
0.441129 
0.452294 
0.458265 
0.466242 
0.474101 
0.484366 
0.489241 
0.490497 
0.494342 
0.491601 
0.476859 
0.489281 
0.690977 
1.351028 
1.217670 
1.097096 
1.221690 
1.292942 
1.135739 
1.128545 
1.280351 
1.386091 
1.380120 
1.333866 
1.316524 
1.340552 
1.344501 
1.205782 
1.020058 
0.908084 
0.658911 
0.648532 
1.015296 
1.093177 
0.854814 
0.710937 
0.675889 
0.665966 
0.710651 
0.731795 
0.737105 
0.753120 
0.765551 
0.774078 
0.785310 
0.798590 
0.804083 
0.816627 
0.831027 
0.828108 
0.842298 
0.852565 
0.857619 
0.867171 
0.872856 
0.886307 
0.889050 
0.893691 
0.897206 
0.902877 
0.881651 
0.899680 
1.032873 
1.425294 
1.312764 
1.153636 
1.034048 
1.328755 
1.035776 
0.931519 
1.031392 
1.090123 
1.045065 
1.143322 
1.320623 
1.427861 
1.401732 
1.348921 
1.305606 
1.284596 
1.078619 
0.667763 
0.693067 
0.729975 
0.731822 
1.066759 
1.126798 
1.102383 
1.133888 
1.145275 
1.139580 
1.151026 
1.158334 
1.160003 
1.168510 
1.175146 
1.177356 
1.186704 
1.193548 
1.192788 
1.199364 
1.207960 
1.210929 
1.215445 
1.221597 
1.228815 
1.232897 
1.233465 
1.243193 
1.251206 
1.251929 
1.254899 
1.226255 
1.450508 
1.350966 
1.173457 
0.901337 
0.918942 
0.687025 
0.655882 
0.677634 
0.706847 
0.660186 
0.827775 
1.083159 
1.185915 
1.167164 
1.285738 
1.425608 
1.413436 
1.241041 
0.945538 
0.814510 
0.932368 
1.308405 
1.497820 
1.500000 
1.470911 
1.482028 
1.476472 
1.466002 
1.468602 
1.466663 
1.462153 
1.463026 
1.462543 
1.459242 
1.461420 
1.461802 
1.458350 
1.459260 
1.461757 
1.460697 
1.461334 
1.462921 
1.464376 
1.466155 
1.463723 
1.469951 
1.477035 
1.488905 
1.490563 
1.347482 
1.453947 
1.351540 
1.109755 
0.789453 
0.609436 
0.039776 
0.040298 
0.044201 
0.372489 
0.533303 
0.566073 
0.694933 
0.796644 
0.828379 
1.025961 
1.156716 
1.036786 
0.863934 
0.877661 
1.282705 
2.399352 
1.922578 
1.807540 
1.780949 
1.769385 
1.765710 
1.751498 
1.739004 
1.729894 
1.719351 
1.709576 
1.701319 
1.693750 
1.685414 
1.679130 
1.673524 
1.666501 
1.662059 
1.657362 
1.652279 
1.648636 
1.644466 
1.641117 
1.638224 
1.634385 
1.631587 
1.627705 
1.615732 
1.606766 
1.556101 
1.463290 
1.346395 
1.085133 
0.723139 
0.559718 
0.036008 
0.036901 
0.037777 
0.039501 
0.040862 
0.041980 
0.179886 
0.540985 
0.999200 
1.126979 
0.907023 
0.795603 
0.835844 
1.074119 
2.177744 
1.477118 
1.344470 
1.062447 
0.690686 
0.532468 
0.035002 
0.037118 
0.039343 
0.041113 
0.042189 
0.043574 
0.152979 
0.534507 
0.664969 
0.657614 
0.958007 
1.254517 
1.264227 
1.207535 
1.440716 
1.482953 
1.338807 
1.050186 
0.672875 
0.538618 
0.035323 
0.038426 
0.041458 
0.043691 
0.047373 
0.410290 
0.561263 
0.666555 
0.837249 
0.982995 
1.229011 
1.455909 
1.239728 
0.870449 
1.343172 
1.495201 
1.333673 
1.032106 
0.663101 
0.553273 
0.036924 
0.040468 
0.044904 
0.051962 
0.481727 
0.593419 
0.672584 
1.021141 
1.215068 
1.255820 
1.350960 
1.464595 
0.963363 
0.815473 
1.506396 
1.494951 
1.318598 
1.014807 
0.661024 
0.612366 
0.040213 
0.045906 
0.407047 
0.565250 
0.695936 
0.829134 
1.007606 
1.287765 
1.389745 
1.304990 
1.282499 
1.318876 
0.618604 
0.881612 
1.553483 
1.497737 
1.311507 
1.000426 
0.693513 
0.717599 
0.050236 
0.558979 
0.654064 
0.731183 
1.075365 
1.220326 
1.302290 
1.415956 
1.398841 
1.148367 
1.057624 
1.091425 
0.443937 
0.901125 
1.475476 
1.517364 
1.315148 
1.030386 
0.829128 
0.944601 
0.801609 
0.798346 
0.854976 
1.046005 
1.325299 
1.400002 
1.348494 
1.323389 
1.217204 
0.895763 
0.813322 
0.865356 
0.405413 
0.895846 
1.453297 
1.518964 
1.281906 
1.045221 
0.997966 
1.413230 
1.016491 
1.128579 
1.218132 
1.301017 
1.400778 
1.353417 
1.118189 
0.969517 
0.817296 
0.589964 
0.388599 
0.747652 
0.406247 
0.916962 
1.460090 
1.494726 
1.210394 
1.018711 
1.203785 
1.286185 
1.122605 
1.320983 
1.379075 
1.326828 
1.280428 
1.126690 
0.797308 
0.626395 
0.435725 
0.079689 
0.041890 
0.733670 
0.452428 
0.945230 
1.454137 
1.469627 
1.155298 
1.023091 
1.185653 
1.095182 
1.182849 
1.350939 
1.322080 
1.096742 
0.939547 
0.753862 
0.560351 
0.353399 
0.039130 
0.040519 
0.044861 
0.757280 
0.503097 
0.980644 
1.442373 
1.415433 
1.154448 
1.061701 
1.043669 
1.051932 
1.218856 
1.324594 
1.129348 
0.785854 
0.620635 
0.464079 
0.146381 
0.037052 
0.039886 
0.043544 
0.047470 
0.784121 
0.549786 
1.005131 
1.433893 
1.277767 
1.195654 
1.092525 
0.984414 
1.108342 
1.275486 
1.195996 
0.877701 
0.645307 
0.410873 
0.040079 
0.036979 
0.038569 
0.041931 
0.045421 
0.049209 
0.806711 
0.599002 
1.044091 
1.419012 
1.102909 
1.242336 
1.104486 
0.971045 
1.168296 
1.311642 
1.111405 
0.628548 
0.221600 
0.040128 
0.038365 
0.037779 
0.039528 
0.042917 
0.046743 
0.050212 
0.828129 
0.645819 
1.069531 
1.415084 
0.975432 
1.291587 
1.181462 
1.024097 
1.056797 
1.147782 
0.817880 
0.050226 
0.040263 
0.039500 
0.038446 
0.038176 
0.040214 
0.044316 
0.047827 
0.050632 
0.838098 
0.693571 
1.105367 
1.399692 
0.913715 
1.309070 
1.311677 
1.274234 
1.290179 
1.095519 
0.826888 
0.497280 
0.040165 
0.037318 
0.037621 
0.038549 
0.042067 
0.045855 
0.048653 
0.049887 
0.858625 
0.730618 
1.121824 
1.378073 
0.755066 
1.169475 
1.298636 
1.380431 
1.410734 
1.198632 
0.876353 
0.661702 
0.419720 
0.035982 
0.035471 
0.039481 
0.043543 
0.047025 
0.048248 
0.048324 
0.868688 
0.776428 
1.148236 
1.368367 
0.608194 
0.919936 
1.125758 
1.304376 
1.393700 
1.315948 
1.141265 
0.867580 
0.634026 
0.430267 
0.036765 
0.039657 
0.044608 
0.046572 
0.046550 
0.045707 
0.865625 
0.834577 
1.199994 
1.363724 
0.420001 
0.603006 
0.847385 
1.120411 
1.322670 
1.400975 
1.357233 
1.167678 
0.846272 
0.608084 
0.443207 
0.042974 
0.044136 
0.045223 
0.043496 
0.042826 
0.878071 
0.870982 
1.206386 
1.344862 
0.026612 
0.273977 
0.531429 
0.823644 
1.113126 
1.319512 
1.413170 
1.347369 
1.132972 
0.820996 
0.598761 
0.469565 
0.046458 
0.043093 
0.041024 
0.040451 
0.892217 
0.903175 
1.228306 
1.309320 
0.017804 
0.019462 
0.218865 
0.499135 
0.788318 
1.073018 
1.314780 
1.411476 
1.335354 
1.123520 
0.825975 
0.618382 
0.496965 
0.048529 
0.040685 
0.040766 
0.903355 
0.951897 
1.244956 
1.298142 
0.011934 
0.013719 
0.016847 
0.206104 
0.485269 
0.781567 
1.098235 
1.333484 
1.413258 
1.340782 
1.151703 
0.867132 
0.655148 
0.541587 
0.134197 
0.043876 
0.924891 
1.007051 
1.284867 
1.278075 
0.008335 
0.010267 
0.013050 
0.017163 
0.193819 
0.478522 
0.796520 
1.097165 
1.329514 
1.423671 
1.378641 
1.205869 
0.913823 
0.690976 
0.628779 
0.239857 
0.967683 
1.049310 
1.267577 
1.239732 
0.005982 
0.008010 
0.010453 
0.013463 
0.017350 
0.170747 
0.465255 
0.782162 
1.080730 
1.329912 
1.449597 
1.420188 
1.243824 
0.951363 
0.762730 
0.794053 
1.135979 
1.127526 
1.240303 
1.186718 
0.004118 
0.006213 
0.008390 
0.011062 
0.014355 
0.018306 
0.155255 
0.437416 
0.755422 
1.060523 
1.342810 
1.473856 
1.438472 
1.269185 
1.021260 
0.979955 
1.303391 
1.251035 
1.179375 
1.143062 
0.002584 
0.004660 
0.006738 
0.009281 
0.012479 
0.015892 
0.019025 
0.131502 
0.399860 
0.733439 
1.063180 
1.343060 
1.454222 
1.420264 
1.247923 
1.047058 
1.217386 
1.134678 
1.114651 
1.140997 
0.001399 
0.003254 
0.005140 
0.007484 
0.010368 
0.013422 
0.015951 
0.017952 
0.094077 
0.349024 
0.708640 
1.021425 
1.286584 
1.394970 
1.316378 
1.110640 
0.984711 
0.972848 
1.045674 
1.243114 
0.000579 
0.001991 
0.003514 
0.005461 
0.007901 
0.010530 
0.012858 
0.014557 
0.016119 
0.022923 
0.320855 
0.669006 
0.981944 
1.259900 
1.331006 
1.213142 
1.016572 
0.849496 
0.931416 
1.366593 
0.000165 
0.000965 
0.002082 
0.003584 
0.005494 
0.007671 
0.009854 
0.011641 
0.013190 
0.015159 
0.019155 
0.330435 
0.703804 
1.069381 
1.339394 
1.371614 
1.221240 
0.933663 
0.765450 
1.254550 
0.000205 
0.000268 
0.000969 
0.002028 
0.003413 
0.005134 
0.007048 
0.008956 
0.010726 
0.012771 
0.015530 
0.020518 
0.390981 
0.823564 
1.179084 
1.368098 
1.400842 
1.202050 
0.871663 
0.961086 
0.000158 
0.000206 
0.000165 
0.000582 
0.001435 
0.002740 
0.004492 
0.006423 
0.008489 
0.010832 
0.013798 
0.018277 
0.027303 
0.538995 
0.701917 
0.828121 
1.011159 
1.388332 
1.433584 
1.152710 
